# vtk DataFile Version 2.0
test grain
ASCII
DATASET UNSTRUCTURED_GRID
POINTS 5000 float
0.499874 0.00100112 0.
0.501874 0.00100116 0.
0.503874 0.00100119 0.
0.505874 0.00100119 0.
0.507875 0.00100115 0.
0.509876 0.0010011 0.
0.511877 0.0010009 0.
0.513876 0.00100047 0.
0.515876 0.00100004 0.
0.517877 0.00100002 0.
0.519879 0.00100023 0.
0.52188 0.00100044 0.
0.52388 0.0010006 0.
0.525879 0.00100077 0.
0.527878 0.00100096 0.
0.529877 0.00100117 0.
0.531875 0.00100137 0.
0.533874 0.00100131 0.
0.535875 0.00100071 0.
0.537876 0.00100011 0.
0.539876 0.000999983 0.
0.541876 0.00100026 0.
0.543877 0.00100054 0.
0.545876 0.00100072 0.
0.547875 0.00100088 0.
0.549875 0.00100104 0.
0.551871 0.00100122 0.
0.553866 0.0010014 0.
0.555862 0.0010015 0.
0.557859 0.00100135 0.
0.559855 0.0010012 0.
0.561851 0.00100128 0.
0.563847 0.00100166 0.
0.565843 0.00100205 0.
0.567838 0.00100167 0.
0.569833 0.00100085 0.
0.571828 0.00100002 0.
0.573818 0.00100102 0.
0.575807 0.00100234 0.
0.577796 0.00100365 0.
0.579783 0.00100423 0.
0.58177 0.00100481 0.
0.583755 0.00100518 0.
0.585736 0.00100498 0.
0.587716 0.00100479 0.
0.589695 0.00100372 0.
0.59167 0.00100189 0.
0.593645 0.00100006 0.
0.595731 0.00100045 0.
0.597865 0.00100134 0.
0.600002 0.00100222 0.
0.602136 0.00100133 0.
0.60427 0.00100043 0.
0.606356 0.00100002 0.
0.608332 0.00100167 0.
0.610309 0.00100332 0.
0.612288 0.00100442 0.
0.61427 0.00100486 0.
0.616251 0.0010053 0.
0.618235 0.00100514 0.
0.62022 0.00100483 0.
0.622205 0.00100452 0.
0.624192 0.00100403 0.
0.626178 0.00100351 0.
0.628166 0.00100287 0.
0.630161 0.00100168 0.
0.632156 0.00100048 0.
0.634152 0.00100001 0.
0.636149 0.00100074 0.
0.638147 0.00100146 0.
0.640144 0.00100165 0.
0.64214 0.0010015 0.
0.644137 0.00100135 0.
0.646133 0.00100157 0.
0.648129 0.00100187 0.
0.650124 0.00100214 0.
0.652123 0.00100152 0.
0.654121 0.0010009 0.
0.65612 0.00100039 0.
0.658121 0.00100019 0.
0.660122 0.000999993 0.
0.662123 0.00100012 0.
0.664124 0.00100062 0.
0.666125 0.00100113 0.
0.668125 0.00100132 0.
0.670123 0.0010014 0.
0.672122 0.00100147 0.
0.674121 0.00100114 0.
0.67612 0.00100076 0.
0.678119 0.00100046 0.
0.68012 0.00100055 0.
0.682121 0.00100064 0.
0.684121 0.00100076 0.
0.686121 0.0010009 0.
0.688121 0.00100104 0.
0.690121 0.00100111 0.
0.692121 0.00100115 0.
0.694121 0.00100119 0.
0.696121 0.00100118 0.
0.698121 0.00100115 0.
0.499874 0.00300336 0.
0.501874 0.00300348 0.
0.503874 0.00300355 0.
0.505874 0.00300359 0.
0.507875 0.00300344 0.
0.509876 0.0030033 0.
0.511876 0.00300269 0.
0.513877 0.00300141 0.
0.515877 0.00300013 0.
0.517878 0.00300006 0.
0.519879 0.00300068 0.
0.52188 0.00300131 0.
0.52388 0.00300181 0.
0.525879 0.00300232 0.
0.527878 0.00300289 0.
0.529877 0.0030035 0.
0.531876 0.00300412 0.
0.533875 0.00300394 0.
0.535874 0.00300214 0.
0.537872 0.00300033 0.
0.539873 0.00299995 0.
0.541877 0.00300078 0.
0.54388 0.00300161 0.
0.545879 0.00300217 0.
0.547877 0.00300264 0.
0.549876 0.00300311 0.
0.551872 0.00300365 0.
0.553868 0.00300419 0.
0.555864 0.00300449 0.
0.557861 0.00300403 0.
0.559857 0.00300358 0.
0.561853 0.00300383 0.
0.563849 0.00300499 0.
0.565845 0.00300615 0.
0.567841 0.00300501 0.
0.569837 0.00300253 0.
0.571833 0.00300006 0.
0.573823 0.00300305 0.
0.575813 0.00300703 0.
0.577802 0.00301096 0.
0.57979 0.0030127 0.
0.581779 0.00301444 0.
0.583765 0.00301552 0.
0.585746 0.00301495 0.
0.587727 0.00301437 0.
0.589708 0.00301113 0.
0.591689 0.00300562 0.
0.59367 0.00300012 0.
0.595751 0.00300132 0.
0.597875 0.003004 0.
0.600001 0.00300667 0.
0.602125 0.00300397 0.
0.604249 0.00300126 0.
0.60633 0.00300001 0.
0.608312 0.00300497 0.
0.610294 0.00300994 0.
0.612276 0.00301324 0.
0.614258 0.00301456 0.
0.61624 0.00301587 0.
0.618226 0.00301542 0.
0.620213 0.00301448 0.
0.6222 0.00301355 0.
0.624187 0.0030121 0.
0.626174 0.00301053 0.
0.628163 0.00300861 0.
0.630157 0.00300503 0.
0.632152 0.00300144 0.
0.634148 0.00300002 0.
0.636147 0.0030022 0.
0.638146 0.00300439 0.
0.640144 0.00300497 0.
0.64214 0.00300452 0.
0.644137 0.00300406 0.
0.646133 0.00300471 0.
0.648128 0.0030056 0.
0.650124 0.00300643 0.
0.65212 0.00300457 0.
0.654116 0.00300272 0.
0.656114 0.00300117 0.
0.65812 0.00300057 0.
0.660125 0.00299997 0.
0.662128 0.00300037 0.
0.664127 0.00300188 0.
0.666127 0.00300338 0.
0.668126 0.00300397 0.
0.670124 0.0030042 0.
0.672122 0.00300442 0.
0.674121 0.00300342 0.
0.67612 0.00300229 0.
0.678119 0.00300137 0.
0.68012 0.00300164 0.
0.68212 0.00300191 0.
0.684121 0.00300227 0.
0.686121 0.00300269 0.
0.688121 0.00300312 0.
0.690121 0.00300334 0.
0.692121 0.00300346 0.
0.694122 0.00300358 0.
0.696122 0.00300355 0.
0.698122 0.00300346 0.
0.499874 0.00500559 0.
0.501874 0.00500579 0.
0.503874 0.00500591 0.
0.505875 0.005006 0.
0.507875 0.00500574 0.
0.509876 0.00500549 0.
0.511876 0.00500449 0.
0.513877 0.00500236 0.
0.515877 0.00500023 0.
0.517878 0.00500009 0.
0.519879 0.00500113 0.
0.521881 0.00500218 0.
0.52388 0.00500302 0.
0.525878 0.00500387 0.
0.527877 0.0050048 0.
0.529877 0.00500582 0.
0.531877 0.00500685 0.
0.533876 0.00500657 0.
0.535872 0.00500357 0.
0.537869 0.00500057 0.
0.539871 0.00499992 0.
0.541877 0.0050013 0.
0.543883 0.00500269 0.
0.545882 0.00500362 0.
0.547879 0.0050044 0.
0.549877 0.00500518 0.
0.551873 0.00500608 0.
0.55387 0.00500698 0.
0.555866 0.00500747 0.
0.557863 0.00500672 0.
0.559859 0.00500597 0.
0.561855 0.00500639 0.
0.563852 0.00500832 0.
0.565848 0.00501027 0.
0.567844 0.00500835 0.
0.569841 0.00500422 0.
0.571838 0.0050001 0.
0.573828 0.0050051 0.
0.575818 0.00501172 0.
0.577808 0.00501826 0.
0.579798 0.00502115 0.
0.581788 0.00502405 0.
0.583775 0.00502582 0.
0.585757 0.00502489 0.
0.587738 0.00502397 0.
0.589722 0.0050185 0.
0.591709 0.00500928 0.
0.593695 0.00500014 0.
0.595772 0.00500218 0.
0.597885 0.00500692 0.
0.600001 0.005012 0.
0.602115 0.00500688 0.
0.604228 0.00500209 0.
0.606305 0.00499996 0.
0.608292 0.00500822 0.
0.610279 0.00501652 0.
0.612264 0.00502204 0.
0.614247 0.00502422 0.
0.616229 0.00502639 0.
0.618217 0.00502566 0.
0.620205 0.00502413 0.
0.622194 0.00502261 0.
0.624182 0.00502015 0.
0.62617 0.00501754 0.
0.628159 0.00501435 0.
0.630153 0.00500838 0.
0.632147 0.00500241 0.
0.634144 0.00500003 0.
0.636145 0.00500367 0.
0.638146 0.0050073 0.
0.640144 0.00500828 0.
0.642141 0.00500753 0.
0.644137 0.00500678 0.
0.646133 0.00500784 0.
0.648128 0.00500932 0.
0.650123 0.00501072 0.
0.652117 0.00500763 0.
0.654111 0.00500454 0.
0.656109 0.00500195 0.
0.658119 0.00500096 0.
0.660129 0.00499996 0.
0.662133 0.00500064 0.
0.664131 0.00500313 0.
0.666129 0.00500563 0.
0.668127 0.00500661 0.
0.670124 0.00500699 0.
0.672122 0.00500737 0.
0.674121 0.00500569 0.
0.67612 0.00500382 0.
0.67812 0.00500228 0.
0.68012 0.00500273 0.
0.68212 0.00500318 0.
0.68412 0.00500377 0.
0.686121 0.00500447 0.
0.688121 0.00500518 0.
0.690121 0.00500557 0.
0.692122 0.00500577 0.
0.694122 0.00500598 0.
0.696122 0.00500592 0.
0.698122 0.00500577 0.
0.499875 0.00700892 0.
0.501875 0.00700877 0.
0.503876 0.00700865 0.
0.505876 0.00700854 0.
0.507877 0.0070084 0.
0.509878 0.00700827 0.
0.511878 0.00700807 0.
0.513879 0.00700772 0.
0.515879 0.00700737 0.
0.51788 0.0070074 0.
0.51988 0.00700764 0.
0.521881 0.00700789 0.
0.52388 0.00700879 0.
0.525879 0.00700981 0.
0.527878 0.00701079 0.
0.529878 0.00701103 0.
0.531878 0.00701127 0.
0.533878 0.00701159 0.
0.535876 0.00701218 0.
0.537874 0.00701279 0.
0.539875 0.00701255 0.
0.541878 0.00701149 0.
0.543881 0.00701044 0.
0.54588 0.00701029 0.
0.547879 0.00701047 0.
0.549877 0.00701064 0.
0.551875 0.00701137 0.
0.553872 0.00701212 0.
0.555869 0.0070128 0.
0.557866 0.00701344 0.
0.559863 0.00701407 0.
0.56186 0.00701488 0.
0.563857 0.00701588 0.
0.565854 0.00701688 0.
0.56785 0.00701731 0.
0.569847 0.00701743 0.
0.571843 0.00701756 0.
0.573835 0.00702188 0.
0.575826 0.00702699 0.
0.577817 0.00703194 0.
0.579809 0.00703286 0.
0.581801 0.00703378 0.
0.583792 0.00703418 0.
0.585781 0.00703342 0.
0.587769 0.00703269 0.
0.589759 0.00702421 0.
0.591751 0.0070082 0.
0.593743 0.0069923 0.
0.595809 0.00701066 0.
0.597904 0.0070425 0.
0.600001 0.00707503 0.
0.602095 0.00704309 0.
0.60419 0.00701182 0.
0.606256 0.00699387 0.
0.608249 0.0070093 0.
0.610241 0.0070248 0.
0.612232 0.0070331 0.
0.614221 0.00703407 0.
0.61621 0.00703504 0.
0.618201 0.00703437 0.
0.620193 0.00703321 0.
0.622184 0.00703206 0.
0.624175 0.00702871 0.
0.626165 0.0070252 0.
0.628156 0.00702191 0.
0.630151 0.0070202 0.
0.632146 0.0070185 0.
0.634142 0.0070175 0.
0.636141 0.0070175 0.
0.63814 0.0070175 0.
0.640138 0.00701709 0.
0.642135 0.00701647 0.
0.644133 0.00701585 0.
0.646129 0.0070156 0.
0.648126 0.00701546 0.
0.650122 0.00701533 0.
0.652119 0.00701503 0.
0.654116 0.00701474 0.
0.656114 0.00701505 0.
0.658119 0.00701708 0.
0.660124 0.00701912 0.
0.662126 0.00701904 0.
0.664125 0.00701671 0.
0.666124 0.00701439 0.
0.668123 0.00701315 0.
0.670121 0.00701239 0.
0.67212 0.00701162 0.
0.674119 0.00701006 0.
0.676119 0.00700843 0.
0.678119 0.007007 0.
0.680119 0.00700683 0.
0.682119 0.00700667 0.
0.684119 0.00700695 0.
0.686119 0.00700788 0.
0.68812 0.00700881 0.
0.69012 0.00700904 0.
0.69212 0.00700883 0.
0.694121 0.00700863 0.
0.696121 0.00700916 0.
0.698121 0.00700983 0.
0.499876 0.00901215 0.
0.501876 0.00901174 0.
0.503877 0.00901139 0.
0.505877 0.00901108 0.
0.507879 0.00901106 0.
0.50988 0.00901104 0.
0.511881 0.00901164 0.
0.513881 0.00901308 0.
0.515881 0.00901452 0.
0.517881 0.00901469 0.
0.519881 0.00901413 0.
0.521881 0.00901358 0.
0.523881 0.00901456 0.
0.52588 0.00901575 0.
0.52788 0.00901678 0.
0.52988 0.00901624 0.
0.53188 0.00901569 0.
0.53388 0.0090166 0.
0.53588 0.0090208 0.
0.537879 0.00902501 0.
0.539879 0.00902518 0.
0.541879 0.00902168 0.
0.543879 0.00901819 0.
0.545879 0.00901697 0.
0.547878 0.00901654 0.
0.549878 0.00901612 0.
0.551876 0.00901666 0.
0.553874 0.00901726 0.
0.555872 0.00901813 0.
0.55787 0.00902016 0.
0.559868 0.00902218 0.
0.561865 0.00902337 0.
0.563862 0.00902342 0.
0.56586 0.00902348 0.
0.567856 0.00902628 0.
0.569852 0.00903064 0.
0.571848 0.00903502 0.
0.573842 0.00903867 0.
0.575834 0.00904227 0.
0.577826 0.00904561 0.
0.579821 0.00904456 0.
0.581815 0.00904351 0.
0.583809 0.00904254 0.
0.585804 0.00904197 0.
0.587799 0.00904142 0.
0.589796 0.00902971 0.
0.591793 0.00900689 0.
0.593791 0.00898418 0.
0.595846 0.00901988 0.
0.597923 0.00907846 0.
0.600001 0.00913806 0.
0.602076 0.00907966 0.
0.604153 0.00902225 0.
0.606208 0.00898752 0.
0.608206 0.00901016 0.
0.610204 0.0090329 0.
0.6122 0.00904418 0.
0.614195 0.00904395 0.
0.61619 0.00904371 0.
0.618185 0.00904307 0.
0.62018 0.00904227 0.
0.622174 0.00904149 0.
0.624167 0.00903729 0.
0.62616 0.00903287 0.
0.628153 0.00902945 0.
0.630149 0.00903201 0.
0.632145 0.00903458 0.
0.634141 0.00903498 0.
0.636138 0.00903134 0.
0.638135 0.00902771 0.
0.640132 0.0090259 0.
0.64213 0.00902541 0.
0.644128 0.00902492 0.
0.646126 0.00902338 0.
0.648124 0.0090216 0.
0.650122 0.00901993 0.
0.652121 0.00902243 0.
0.65412 0.00902495 0.
0.656119 0.00902816 0.
0.658119 0.0090332 0.
0.660119 0.00903825 0.
0.662119 0.00903745 0.
0.664119 0.0090303 0.
0.666119 0.00902316 0.
0.668118 0.0090197 0.
0.670118 0.00901778 0.
0.672118 0.00901587 0.
0.674118 0.00901444 0.
0.676118 0.00901304 0.
0.678118 0.00901171 0.
0.680118 0.00901093 0.
0.682118 0.00901015 0.
0.684118 0.00901014 0.
0.686118 0.00901129 0.
0.688118 0.00901244 0.
0.690119 0.0090125 0.
0.692119 0.00901189 0.
0.694119 0.00901128 0.
0.696119 0.0090124 0.
0.69812 0.0090139 0.
0.499877 0.0110149 0.
0.501877 0.0110143 0.
0.503878 0.0110137 0.
0.505878 0.0110132 0.
0.50788 0.0110132 0.
0.509881 0.0110132 0.
0.511882 0.0110141 0.
0.513882 0.0110161 0.
0.515883 0.0110182 0.
0.517883 0.0110184 0.
0.519882 0.0110177 0.
0.521882 0.011017 0.
0.523882 0.0110179 0.
0.525882 0.011019 0.
0.527881 0.0110199 0.
0.529882 0.0110192 0.
0.531882 0.0110184 0.
0.533882 0.0110195 0.
0.535883 0.0110245 0.
0.537883 0.0110296 0.
0.539883 0.01103 0.
0.541882 0.0110261 0.
0.543881 0.0110223 0.
0.54588 0.0110206 0.
0.54788 0.0110197 0.
0.54988 0.0110188 0.
0.551879 0.0110196 0.
0.553877 0.0110204 0.
0.555876 0.0110216 0.
0.557874 0.011024 0.
0.559872 0.0110264 0.
0.56187 0.0110279 0.
0.563868 0.011028 0.
0.565866 0.0110281 0.
0.567863 0.0110316 0.
0.56986 0.0110369 0.
0.571857 0.0110422 0.
0.573852 0.0110456 0.
0.575847 0.0110488 0.
0.577842 0.0110517 0.
0.579839 0.0110494 0.
0.581835 0.0110472 0.
0.583833 0.0110451 0.
0.585833 0.0110434 0.
0.587833 0.0110418 0.
0.589835 0.0110294 0.
0.591837 0.0110064 0.
0.593839 0.0109834 0.
0.595884 0.0110205 0.
0.597944 0.0110784 0.
0.600003 0.0111355 0.
0.602059 0.0110801 0.
0.604116 0.011024 0.
0.60616 0.0109882 0.
0.608162 0.011011 0.
0.610165 0.0110336 0.
0.612166 0.0110453 0.
0.614166 0.0110458 0.
0.616166 0.0110463 0.
0.618165 0.0110464 0.
0.620162 0.0110462 0.
0.622159 0.0110461 0.
0.624155 0.0110416 0.
0.62615 0.0110369 0.
0.628145 0.0110334 0.
0.630142 0.0110374 0.
0.632139 0.0110414 0.
0.634136 0.0110424 0.
0.636133 0.0110379 0.
0.63813 0.0110333 0.
0.640127 0.0110311 0.
0.642125 0.0110305 0.
0.644124 0.0110299 0.
0.646122 0.0110279 0.
0.648121 0.0110254 0.
0.65012 0.0110231 0.
0.65212 0.0110265 0.
0.65412 0.01103 0.
0.65612 0.0110341 0.
0.658118 0.0110396 0.
0.660116 0.0110452 0.
0.662115 0.0110442 0.
0.664115 0.011036 0.
0.666116 0.0110278 0.
0.668116 0.0110236 0.
0.670116 0.0110211 0.
0.672116 0.0110187 0.
0.674116 0.0110172 0.
0.676117 0.0110159 0.
0.678117 0.0110146 0.
0.680117 0.0110137 0.
0.682117 0.0110129 0.
0.684117 0.0110128 0.
0.686117 0.0110138 0.
0.688117 0.0110148 0.
0.690118 0.0110149 0.
0.692118 0.0110143 0.
0.694118 0.0110138 0.
0.696119 0.011015 0.
0.698119 0.0110167 0.
0.499878 0.0130173 0.
0.501878 0.0130164 0.
0.503879 0.0130155 0.
0.505879 0.0130147 0.
0.50788 0.0130148 0.
0.509881 0.0130148 0.
0.511882 0.0130155 0.
0.513883 0.0130169 0.
0.515883 0.0130184 0.
0.517884 0.0130187 0.
0.519884 0.0130183 0.
0.521884 0.013018 0.
0.523884 0.0130187 0.
0.525883 0.0130195 0.
0.527883 0.0130202 0.
0.529883 0.0130198 0.
0.531884 0.0130194 0.
0.533884 0.0130202 0.
0.535885 0.0130235 0.
0.537885 0.0130268 0.
0.539885 0.0130272 0.
0.541885 0.0130249 0.
0.543885 0.0130226 0.
0.545885 0.0130211 0.
0.547885 0.0130199 0.
0.549885 0.0130186 0.
0.551883 0.0130201 0.
0.553882 0.0130216 0.
0.55588 0.0130232 0.
0.557879 0.0130251 0.
0.559878 0.0130269 0.
0.561876 0.0130284 0.
0.563874 0.0130296 0.
0.565873 0.0130307 0.
0.567871 0.0130332 0.
0.569869 0.0130363 0.
0.571868 0.0130394 0.
0.573866 0.0130431 0.
0.575864 0.013047 0.
0.577862 0.0130504 0.
0.579862 0.0130477 0.
0.581862 0.0130451 0.
0.583863 0.013042 0.
0.585867 0.0130381 0.
0.58787 0.0130342 0.
0.589876 0.0130237 0.
0.591883 0.013007 0.
0.593889 0.0129903 0.
0.595923 0.0130118 0.
0.597965 0.0130458 0.
0.600007 0.0130793 0.
0.602044 0.013048 0.
0.604082 0.0130164 0.
0.606112 0.0129963 0.
0.608119 0.0130119 0.
0.610126 0.0130274 0.
0.612131 0.0130369 0.
0.614135 0.0130399 0.
0.616139 0.013043 0.
0.61814 0.0130445 0.
0.62014 0.0130453 0.
0.62214 0.0130461 0.
0.624137 0.0130419 0.
0.626134 0.0130373 0.
0.628132 0.0130338 0.
0.63013 0.0130366 0.
0.632129 0.0130395 0.
0.634128 0.0130402 0.
0.636126 0.0130373 0.
0.638125 0.0130343 0.
0.640123 0.0130326 0.
0.642122 0.0130318 0.
0.64412 0.013031 0.
0.646119 0.013029 0.
0.648117 0.0130269 0.
0.650116 0.0130248 0.
0.652116 0.0130274 0.
0.654115 0.01303 0.
0.656115 0.0130329 0.
0.658115 0.0130367 0.
0.660115 0.0130404 0.
0.662115 0.0130397 0.
0.664115 0.013034 0.
0.666115 0.0130283 0.
0.668115 0.0130249 0.
0.670115 0.0130225 0.
0.672115 0.01302 0.
0.674115 0.0130185 0.
0.676115 0.013017 0.
0.678115 0.0130156 0.
0.680115 0.0130153 0.
0.682116 0.0130149 0.
0.684116 0.0130148 0.
0.686116 0.0130154 0.
0.688117 0.013016 0.
0.690117 0.0130162 0.
0.692118 0.0130162 0.
0.694118 0.0130161 0.
0.696118 0.013017 0.
0.698118 0.0130182 0.
0.49988 0.0150198 0.
0.50188 0.0150185 0.
0.50388 0.0150173 0.
0.50588 0.0150163 0.
0.507881 0.0150163 0.
0.509882 0.0150164 0.
0.511882 0.0150168 0.
0.513883 0.0150177 0.
0.515884 0.0150185 0.
0.517885 0.0150189 0.
0.519886 0.015019 0.
0.521886 0.015019 0.
0.523886 0.0150195 0.
0.525885 0.01502 0.
0.527884 0.0150204 0.
0.529885 0.0150204 0.
0.531886 0.0150204 0.
0.533886 0.0150209 0.
0.535887 0.0150224 0.
0.537887 0.015024 0.
0.539888 0.0150244 0.
0.541889 0.0150237 0.
0.54389 0.015023 0.
0.54589 0.0150217 0.
0.547889 0.0150201 0.
0.549889 0.0150185 0.
0.551888 0.0150206 0.
0.553886 0.0150228 0.
0.555885 0.0150249 0.
0.557884 0.0150261 0.
0.559883 0.0150273 0.
0.561882 0.0150289 0.
0.563881 0.0150311 0.
0.56588 0.0150333 0.
0.567879 0.0150347 0.
0.569879 0.0150357 0.
0.571878 0.0150366 0.
0.57388 0.0150406 0.
0.575881 0.0150452 0.
0.577883 0.0150491 0.
0.579886 0.015046 0.
0.581889 0.0150429 0.
0.583893 0.0150388 0.
0.5859 0.0150327 0.
0.587907 0.0150265 0.
0.589917 0.0150181 0.
0.591928 0.0150077 0.
0.593939 0.0149972 0.
0.595961 0.0150027 0.
0.597986 0.0150132 0.
0.600011 0.0150236 0.
0.602029 0.015016 0.
0.604047 0.0150084 0.
0.606064 0.0150046 0.
0.608075 0.015013 0.
0.610087 0.0150214 0.
0.612096 0.0150284 0.
0.614104 0.015034 0.
0.616111 0.0150396 0.
0.618115 0.0150426 0.
0.620118 0.0150443 0.
0.622121 0.015046 0.
0.62412 0.0150421 0.
0.626119 0.0150377 0.
0.628119 0.0150342 0.
0.630119 0.0150359 0.
0.632119 0.0150375 0.
0.634119 0.015038 0.
0.63612 0.0150367 0.
0.63812 0.0150353 0.
0.640119 0.0150341 0.
0.642118 0.015033 0.
0.644116 0.0150319 0.
0.646115 0.0150302 0.
0.648114 0.0150283 0.
0.650113 0.0150265 0.
0.652112 0.0150282 0.
0.654111 0.0150299 0.
0.65611 0.0150318 0.
0.658112 0.0150337 0.
0.660113 0.0150357 0.
0.662114 0.0150353 0.
0.664114 0.0150321 0.
0.666114 0.0150288 0.
0.668114 0.0150262 0.
0.670114 0.0150238 0.
0.672114 0.0150214 0.
0.674114 0.0150197 0.
0.676113 0.015018 0.
0.678113 0.0150167 0.
0.680114 0.0150168 0.
0.682114 0.0150169 0.
0.684115 0.0150169 0.
0.686115 0.0150171 0.
0.688116 0.0150172 0.
0.690116 0.0150175 0.
0.692117 0.015018 0.
0.694118 0.0150184 0.
0.696118 0.015019 0.
0.698117 0.0150197 0.
0.499881 0.0170219 0.
0.501881 0.0170204 0.
0.503881 0.0170191 0.
0.505882 0.0170179 0.
0.507882 0.017018 0.
0.509883 0.0170181 0.
0.511883 0.0170183 0.
0.513884 0.0170186 0.
0.515885 0.017019 0.
0.517885 0.0170192 0.
0.519886 0.0170194 0.
0.521887 0.0170196 0.
0.523887 0.0170202 0.
0.525887 0.0170209 0.
0.527887 0.0170215 0.
0.529887 0.0170214 0.
0.531887 0.0170212 0.
0.533888 0.0170213 0.
0.535888 0.0170225 0.
0.537889 0.0170236 0.
0.53989 0.0170238 0.
0.541891 0.0170232 0.
0.543892 0.0170225 0.
0.545892 0.0170217 0.
0.547892 0.0170208 0.
0.549892 0.0170199 0.
0.551891 0.017022 0.
0.553889 0.0170242 0.
0.555888 0.0170262 0.
0.557888 0.0170271 0.
0.559887 0.017028 0.
0.561887 0.0170293 0.
0.563886 0.017031 0.
0.565886 0.0170328 0.
0.567886 0.017034 0.
0.569886 0.0170351 0.
0.571887 0.0170361 0.
0.573889 0.0170392 0.
0.575891 0.0170427 0.
0.577894 0.0170457 0.
0.579897 0.0170422 0.
0.581901 0.0170387 0.
0.583906 0.0170343 0.
0.585913 0.0170279 0.
0.58792 0.0170214 0.
0.589929 0.0170135 0.
0.591939 0.0170043 0.
0.593949 0.016995 0.
0.595967 0.0169984 0.
0.597987 0.0170057 0.
0.600008 0.0170131 0.
0.602024 0.0170088 0.
0.60404 0.0170045 0.
0.606055 0.0170029 0.
0.608065 0.0170102 0.
0.610075 0.0170174 0.
0.612083 0.0170238 0.
0.61409 0.0170292 0.
0.616097 0.0170347 0.
0.618102 0.0170379 0.
0.620106 0.0170402 0.
0.62211 0.0170425 0.
0.624111 0.0170396 0.
0.626111 0.0170363 0.
0.628112 0.0170337 0.
0.630113 0.0170351 0.
0.632113 0.0170364 0.
0.634113 0.0170371 0.
0.636114 0.0170363 0.
0.638114 0.0170355 0.
0.640114 0.0170346 0.
0.642113 0.0170335 0.
0.644112 0.0170324 0.
0.646111 0.0170306 0.
0.64811 0.0170286 0.
0.650109 0.0170268 0.
0.652109 0.0170282 0.
0.654108 0.0170296 0.
0.656108 0.0170311 0.
0.65811 0.0170329 0.
0.660111 0.0170347 0.
0.662112 0.0170344 0.
0.664112 0.0170319 0.
0.666112 0.0170294 0.
0.668113 0.0170273 0.
0.670113 0.0170254 0.
0.672113 0.0170235 0.
0.674113 0.0170212 0.
0.676112 0.017019 0.
0.678112 0.0170171 0.
0.680113 0.0170173 0.
0.682113 0.0170176 0.
0.684114 0.0170177 0.
0.686115 0.0170178 0.
0.688115 0.0170179 0.
0.690116 0.0170184 0.
0.692116 0.0170193 0.
0.694117 0.0170202 0.
0.696117 0.0170208 0.
0.698116 0.0170215 0.
0.499881 0.019024 0.
0.501883 0.0190223 0.
0.503883 0.0190208 0.
0.505883 0.0190195 0.
0.507883 0.0190197 0.
0.509884 0.0190198 0.
0.511884 0.0190198 0.
0.513884 0.0190196 0.
0.515885 0.0190195 0.
0.517886 0.0190196 0.
0.519887 0.0190199 0.
0.521888 0.0190201 0.
0.523889 0.019021 0.
0.525889 0.0190218 0.
0.527889 0.0190226 0.
0.529889 0.0190223 0.
0.531889 0.0190219 0.
0.533889 0.0190218 0.
0.53589 0.0190225 0.
0.537891 0.0190233 0.
0.539892 0.0190233 0.
0.541892 0.0190227 0.
0.543893 0.0190221 0.
0.545894 0.0190217 0.
0.547894 0.0190215 0.
0.549895 0.0190213 0.
0.551894 0.0190234 0.
0.553893 0.0190256 0.
0.555892 0.0190275 0.
0.557891 0.0190281 0.
0.559891 0.0190287 0.
0.561891 0.0190296 0.
0.563892 0.0190309 0.
0.565892 0.0190322 0.
0.567893 0.0190334 0.
0.569894 0.0190345 0.
0.571895 0.0190356 0.
0.573898 0.0190378 0.
0.575901 0.0190403 0.
0.577904 0.0190422 0.
0.579909 0.0190384 0.
0.581914 0.0190346 0.
0.583919 0.0190298 0.
0.585926 0.0190231 0.
0.587933 0.0190163 0.
0.589941 0.0190089 0.
0.59195 0.0190009 0.
0.593959 0.0189928 0.
0.595973 0.0189941 0.
0.597989 0.0189983 0.
0.600004 0.0190026 0.
0.602018 0.0190016 0.
0.604032 0.0190006 0.
0.606045 0.0190012 0.
0.608054 0.0190073 0.
0.610062 0.0190134 0.
0.61207 0.0190191 0.
0.614077 0.0190244 0.
0.616084 0.0190297 0.
0.618089 0.0190333 0.
0.620094 0.0190361 0.
0.622099 0.019039 0.
0.624102 0.0190372 0.
0.626103 0.0190349 0.
0.628105 0.0190331 0.
0.630106 0.0190343 0.
0.632107 0.0190354 0.
0.634108 0.0190361 0.
0.636108 0.0190359 0.
0.638108 0.0190357 0.
0.640108 0.019035 0.
0.642108 0.0190339 0.
0.644108 0.0190328 0.
0.646107 0.019031 0.
0.648106 0.019029 0.
0.650106 0.019027 0.
0.652106 0.0190281 0.
0.654106 0.0190292 0.
0.656106 0.0190304 0.
0.658108 0.019032 0.
0.660109 0.0190336 0.
0.66211 0.0190336 0.
0.66411 0.0190317 0.
0.666111 0.0190299 0.
0.668111 0.0190283 0.
0.670111 0.019027 0.
0.672112 0.0190256 0.
0.674112 0.0190228 0.
0.676111 0.0190199 0.
0.678111 0.0190175 0.
0.680112 0.0190179 0.
0.682113 0.0190183 0.
0.684113 0.0190185 0.
0.686114 0.0190185 0.
0.688115 0.0190185 0.
0.690115 0.0190193 0.
0.692115 0.0190206 0.
0.694115 0.0190219 0.
0.696115 0.0190226 0.
0.698116 0.0190233 0.
0.499884 0.0210259 0.
0.501885 0.0210242 0.
0.503885 0.0210227 0.
0.505885 0.0210214 0.
0.507886 0.0210212 0.
0.509886 0.021021 0.
0.511886 0.0210207 0.
0.513886 0.0210203 0.
0.515887 0.02102 0.
0.517888 0.0210198 0.
0.519889 0.0210199 0.
0.52189 0.0210199 0.
0.52389 0.0210209 0.
0.525891 0.0210221 0.
0.527891 0.0210231 0.
0.529892 0.0210227 0.
0.531892 0.0210223 0.
0.533892 0.021022 0.
0.535893 0.0210222 0.
0.537894 0.0210225 0.
0.539894 0.0210224 0.
0.541895 0.0210219 0.
0.543896 0.0210215 0.
0.545897 0.0210214 0.
0.547897 0.0210214 0.
0.549898 0.0210215 0.
0.551898 0.0210237 0.
0.553897 0.0210261 0.
0.555896 0.021028 0.
0.557897 0.0210282 0.
0.559897 0.0210283 0.
0.561898 0.0210288 0.
0.563899 0.0210298 0.
0.5659 0.0210308 0.
0.567901 0.0210317 0.
0.569902 0.0210324 0.
0.571904 0.0210332 0.
0.573907 0.0210348 0.
0.575911 0.0210365 0.
0.577915 0.0210378 0.
0.57992 0.0210337 0.
0.581925 0.0210297 0.
0.583931 0.0210248 0.
0.585938 0.0210182 0.
0.587944 0.0210116 0.
0.589951 0.0210048 0.
0.591959 0.0209979 0.
0.593966 0.0209909 0.
0.595978 0.0209909 0.
0.59799 0.0209931 0.
0.600002 0.0209953 0.
0.602014 0.0209962 0.
0.604026 0.020997 0.
0.606037 0.0209989 0.
0.608045 0.0210041 0.
0.610053 0.0210093 0.
0.61206 0.0210145 0.
0.614066 0.0210195 0.
0.616072 0.0210245 0.
0.618077 0.0210284 0.
0.620083 0.0210317 0.
0.622088 0.0210351 0.
0.624091 0.0210341 0.
0.626094 0.0210327 0.
0.628097 0.0210316 0.
0.630099 0.0210326 0.
0.6321 0.0210336 0.
0.634101 0.0210343 0.
0.636102 0.0210345 0.
0.638102 0.0210347 0.
0.640103 0.0210343 0.
0.642103 0.0210334 0.
0.644103 0.0210326 0.
0.646103 0.0210309 0.
0.648102 0.0210289 0.
0.650102 0.021027 0.
0.652102 0.0210277 0.
0.654103 0.0210285 0.
0.656103 0.0210293 0.
0.658105 0.0210307 0.
0.660106 0.021032 0.
0.662107 0.0210321 0.
0.664108 0.0210308 0.
0.666108 0.0210295 0.
0.668109 0.0210284 0.
0.670109 0.0210273 0.
0.67211 0.0210263 0.
0.67411 0.0210236 0.
0.67611 0.0210209 0.
0.67811 0.0210185 0.
0.68011 0.0210187 0.
0.682111 0.0210189 0.
0.684112 0.0210191 0.
0.686112 0.0210193 0.
0.688113 0.0210195 0.
0.690113 0.0210204 0.
0.692113 0.0210219 0.
0.694113 0.0210234 0.
0.696114 0.0210243 0.
0.698114 0.0210251 0.
0.499887 0.0230274 0.
0.501888 0.0230261 0.
0.503888 0.0230248 0.
0.505888 0.0230236 0.
0.507888 0.0230226 0.
0.509889 0.0230217 0.
0.511889 0.023021 0.
0.513889 0.0230207 0.
0.51589 0.0230205 0.
0.517891 0.02302 0.
0.519891 0.0230195 0.
0.521892 0.0230189 0.
0.523893 0.0230201 0.
0.525893 0.0230216 0.
0.527894 0.023023 0.
0.529895 0.0230226 0.
0.531895 0.0230223 0.
0.533896 0.0230219 0.
0.535897 0.0230216 0.
0.537897 0.0230212 0.
0.539898 0.023021 0.
0.541899 0.0230209 0.
0.5439 0.0230208 0.
0.5459 0.0230207 0.
0.547901 0.0230206 0.
0.549902 0.0230205 0.
0.551902 0.023023 0.
0.553902 0.0230257 0.
0.555902 0.0230277 0.
0.557903 0.0230273 0.
0.559904 0.0230269 0.
0.561905 0.0230269 0.
0.563907 0.0230278 0.
0.565908 0.0230286 0.
0.56791 0.0230289 0.
0.569912 0.0230289 0.
0.571914 0.0230289 0.
0.573918 0.0230301 0.
0.575922 0.0230315 0.
0.577926 0.0230324 0.
0.579931 0.0230283 0.
0.581936 0.0230241 0.
0.583941 0.0230193 0.
0.585947 0.0230133 0.
0.587953 0.0230072 0.
0.58996 0.0230012 0.
0.591966 0.0229952 0.
0.593972 0.0229892 0.
0.595981 0.0229888 0.
0.597992 0.0229901 0.
0.600002 0.0229913 0.
0.602012 0.0229925 0.
0.604022 0.0229938 0.
0.606031 0.0229958 0.
0.608038 0.0230005 0.
0.610045 0.0230052 0.
0.612051 0.0230099 0.
0.614056 0.0230146 0.
0.616062 0.0230192 0.
0.618067 0.0230233 0.
0.620071 0.023027 0.
0.622076 0.0230308 0.
0.62408 0.0230304 0.
0.626084 0.0230296 0.
0.628088 0.023029 0.
0.63009 0.02303 0.
0.632092 0.023031 0.
0.634094 0.0230318 0.
0.636095 0.0230321 0.
0.638097 0.0230325 0.
0.640098 0.0230324 0.
0.642098 0.0230321 0.
0.644099 0.0230317 0.
0.646098 0.0230302 0.
0.648098 0.0230285 0.
0.650098 0.0230267 0.
0.652099 0.0230271 0.
0.654099 0.0230274 0.
0.6561 0.0230279 0.
0.658101 0.0230289 0.
0.660102 0.02303 0.
0.662103 0.0230301 0.
0.664104 0.0230291 0.
0.666105 0.0230282 0.
0.668105 0.0230273 0.
0.670106 0.0230265 0.
0.672107 0.0230257 0.
0.674107 0.0230238 0.
0.676107 0.0230218 0.
0.678107 0.02302 0.
0.680108 0.0230197 0.
0.682109 0.0230195 0.
0.684109 0.0230196 0.
0.68611 0.0230202 0.
0.68811 0.0230209 0.
0.690111 0.0230219 0.
0.692111 0.0230233 0.
0.69411 0.0230246 0.
0.696111 0.0230258 0.
0.698112 0.0230269 0.
0.49989 0.025029 0.
0.50189 0.025028 0.
0.503891 0.0250269 0.
0.505891 0.0250257 0.
0.507891 0.025024 0.
0.509892 0.0250224 0.
0.511892 0.0250214 0.
0.513893 0.0250212 0.
0.515893 0.025021 0.
0.517893 0.0250202 0.
0.519894 0.0250191 0.
0.521894 0.0250179 0.
0.523895 0.0250193 0.
0.525896 0.0250211 0.
0.527896 0.0250228 0.
0.529897 0.0250226 0.
0.531898 0.0250223 0.
0.533899 0.0250218 0.
0.5359 0.0250209 0.
0.537901 0.02502 0.
0.539902 0.0250197 0.
0.541902 0.0250199 0.
0.543903 0.0250201 0.
0.545904 0.0250201 0.
0.547904 0.0250199 0.
0.549905 0.0250196 0.
0.551906 0.0250224 0.
0.553907 0.0250252 0.
0.555908 0.0250274 0.
0.55791 0.0250264 0.
0.559911 0.0250254 0.
0.561913 0.025025 0.
0.563915 0.0250258 0.
0.565916 0.0250265 0.
0.567919 0.0250262 0.
0.569921 0.0250255 0.
0.571924 0.0250248 0.
0.573928 0.0250255 0.
0.575933 0.0250265 0.
0.577937 0.0250271 0.
0.579942 0.0250228 0.
0.581946 0.0250185 0.
0.583951 0.0250138 0.
0.585957 0.0250083 0.
0.587963 0.0250029 0.
0.589968 0.0249977 0.
0.591973 0.0249926 0.
0.593978 0.0249875 0.
0.595985 0.0249866 0.
0.597993 0.024987 0.
0.600001 0.0249873 0.
0.602009 0.0249889 0.
0.604017 0.0249905 0.
0.606025 0.0249927 0.
0.608031 0.0249969 0.
0.610037 0.0250012 0.
0.612043 0.0250054 0.
0.614047 0.0250096 0.
0.616052 0.0250139 0.
0.618056 0.0250182 0.
0.62006 0.0250223 0.
0.622063 0.0250265 0.
0.624069 0.0250267 0.
0.626074 0.0250265 0.
0.628079 0.0250265 0.
0.630082 0.0250275 0.
0.632084 0.0250285 0.
0.634086 0.0250293 0.
0.636089 0.0250298 0.
0.638091 0.0250303 0.
0.640093 0.0250305 0.
0.642093 0.0250307 0.
0.644094 0.0250308 0.
0.646094 0.0250296 0.
0.648094 0.025028 0.
0.650094 0.0250265 0.
0.652095 0.0250264 0.
0.654096 0.0250263 0.
0.656097 0.0250264 0.
0.658097 0.0250272 0.
0.660098 0.025028 0.
0.662099 0.0250281 0.
0.6641 0.0250275 0.
0.666102 0.0250269 0.
0.668102 0.0250263 0.
0.670103 0.0250257 0.
0.672104 0.0250251 0.
0.674104 0.0250239 0.
0.676105 0.0250227 0.
0.678105 0.0250215 0.
0.680106 0.0250208 0.
0.682106 0.0250201 0.
0.684107 0.0250201 0.
0.686107 0.0250212 0.
0.688108 0.0250222 0.
0.690108 0.0250234 0.
0.692108 0.0250246 0.
0.694108 0.0250259 0.
0.696108 0.0250273 0.
0.698109 0.0250287 0.
0.499892 0.0270308 0.
0.501892 0.0270292 0.
0.503892 0.0270276 0.
0.505893 0.0270261 0.
0.507893 0.027025 0.
0.509894 0.0270239 0.
0.511894 0.0270229 0.
0.513895 0.027022 0.
0.515895 0.0270212 0.
0.517896 0.0270202 0.
0.519896 0.0270191 0.
0.521897 0.027018 0.
0.523898 0.0270192 0.
0.525899 0.0270209 0.
0.5279 0.0270223 0.
0.529901 0.0270221 0.
0.531901 0.0270219 0.
0.533902 0.0270215 0.
0.535903 0.0270206 0.
0.537904 0.0270196 0.
0.539905 0.0270192 0.
0.541906 0.0270193 0.
0.543907 0.0270194 0.
0.545907 0.0270194 0.
0.547908 0.0270194 0.
0.549908 0.0270194 0.
0.55191 0.0270218 0.
0.553911 0.0270243 0.
0.555912 0.0270261 0.
0.557914 0.0270249 0.
0.559915 0.0270237 0.
0.561917 0.0270232 0.
0.563919 0.0270237 0.
0.56592 0.0270242 0.
0.567923 0.0270239 0.
0.569926 0.0270231 0.
0.571929 0.0270223 0.
0.573934 0.0270225 0.
0.575938 0.0270229 0.
0.577943 0.0270229 0.
0.579947 0.0270188 0.
0.581952 0.0270147 0.
0.583956 0.0270103 0.
0.585961 0.0270053 0.
0.587966 0.0270002 0.
0.589971 0.0269954 0.
0.591976 0.0269908 0.
0.593981 0.0269862 0.
0.595987 0.0269853 0.
0.597994 0.0269856 0.
0.600001 0.0269858 0.
0.602008 0.0269874 0.
0.604015 0.026989 0.
0.606022 0.0269911 0.
0.608027 0.0269951 0.
0.610033 0.026999 0.
0.612038 0.027003 0.
0.614042 0.0270071 0.
0.616047 0.0270112 0.
0.618051 0.027015 0.
0.620055 0.0270186 0.
0.622059 0.0270223 0.
0.624064 0.027023 0.
0.626068 0.0270233 0.
0.628073 0.0270238 0.
0.630076 0.0270249 0.
0.632079 0.0270261 0.
0.634081 0.0270271 0.
0.636084 0.0270278 0.
0.638086 0.0270285 0.
0.640088 0.0270289 0.
0.642088 0.0270292 0.
0.644089 0.0270293 0.
0.64609 0.0270283 0.
0.64809 0.0270269 0.
0.650091 0.0270255 0.
0.652092 0.0270256 0.
0.654093 0.0270257 0.
0.656094 0.0270259 0.
0.658094 0.0270265 0.
0.660095 0.0270272 0.
0.662096 0.0270272 0.
0.664098 0.0270266 0.
0.666099 0.0270259 0.
0.6681 0.0270255 0.
0.670101 0.0270252 0.
0.672101 0.0270249 0.
0.674102 0.0270238 0.
0.676102 0.0270227 0.
0.678103 0.0270216 0.
0.680103 0.0270211 0.
0.682104 0.0270207 0.
0.684104 0.027021 0.
0.686105 0.0270224 0.
0.688105 0.0270239 0.
0.690106 0.027025 0.
0.692106 0.027026 0.
0.694106 0.0270269 0.
0.696107 0.0270289 0.
0.698107 0.027031 0.
0.499894 0.0290327 0.
0.501894 0.0290305 0.
0.503894 0.0290283 0.
0.505895 0.0290264 0.
0.507895 0.0290259 0.
0.509896 0.0290253 0.
0.511896 0.0290244 0.
0.513897 0.0290229 0.
0.515897 0.0290214 0.
0.517898 0.0290202 0.
0.519899 0.0290191 0.
0.5219 0.0290181 0.
0.523901 0.0290192 0.
0.525902 0.0290206 0.
0.527903 0.0290219 0.
0.529904 0.0290217 0.
0.531904 0.0290216 0.
0.533905 0.0290212 0.
0.535906 0.0290202 0.
0.537907 0.0290192 0.
0.539908 0.0290187 0.
0.541909 0.0290187 0.
0.54391 0.0290187 0.
0.545911 0.0290188 0.
0.547911 0.0290189 0.
0.549912 0.0290191 0.
0.551913 0.0290212 0.
0.553915 0.0290233 0.
0.555916 0.0290248 0.
0.557918 0.0290234 0.
0.55992 0.029022 0.
0.561921 0.0290213 0.
0.563923 0.0290217 0.
0.565925 0.029022 0.
0.567927 0.0290216 0.
0.569931 0.0290207 0.
0.571935 0.0290198 0.
0.573939 0.0290195 0.
0.575944 0.0290193 0.
0.577948 0.0290187 0.
0.579953 0.0290148 0.
0.581957 0.029011 0.
0.583962 0.0290069 0.
0.585966 0.0290022 0.
0.58797 0.0289975 0.
0.589975 0.0289931 0.
0.591979 0.028989 0.
0.593984 0.0289848 0.
0.595989 0.028984 0.
0.597995 0.0289842 0.
0.600001 0.0289843 0.
0.602007 0.0289859 0.
0.604013 0.0289875 0.
0.606019 0.0289895 0.
0.608024 0.0289932 0.
0.610028 0.0289969 0.
0.612032 0.0290007 0.
0.614037 0.0290046 0.
0.616042 0.0290084 0.
0.618046 0.0290118 0.
0.620051 0.0290149 0.
0.622055 0.029018 0.
0.624059 0.0290192 0.
0.626063 0.0290202 0.
0.628066 0.0290212 0.
0.63007 0.0290224 0.
0.632073 0.0290237 0.
0.634076 0.0290249 0.
0.636079 0.0290258 0.
0.638081 0.0290268 0.
0.640083 0.0290273 0.
0.642084 0.0290276 0.
0.644085 0.0290279 0.
0.646086 0.029027 0.
0.648087 0.0290258 0.
0.650088 0.0290246 0.
0.652089 0.0290248 0.
0.65409 0.029025 0.
0.656091 0.0290253 0.
0.658091 0.0290259 0.
0.660092 0.0290264 0.
0.662093 0.0290263 0.
0.664095 0.0290256 0.
0.666096 0.0290249 0.
0.668097 0.0290247 0.
0.670098 0.0290247 0.
0.672099 0.0290247 0.
0.6741 0.0290237 0.
0.6761 0.0290227 0.
0.678101 0.0290217 0.
0.680101 0.0290215 0.
0.682102 0.0290213 0.
0.684102 0.029022 0.
0.686102 0.0290237 0.
0.688103 0.0290255 0.
0.690103 0.0290266 0.
0.692104 0.0290273 0.
0.694104 0.0290279 0.
0.696105 0.0290304 0.
0.698106 0.0290333 0.
0.499896 0.0310342 0.
0.501896 0.0310317 0.
0.503897 0.0310294 0.
0.505897 0.0310274 0.
0.507898 0.0310267 0.
0.509899 0.031026 0.
0.511899 0.0310249 0.
0.513899 0.0310233 0.
0.5159 0.0310216 0.
0.517901 0.0310203 0.
0.519902 0.0310192 0.
0.521903 0.0310181 0.
0.523904 0.031019 0.
0.525905 0.0310201 0.
0.527906 0.0310211 0.
0.529907 0.0310209 0.
0.531907 0.0310206 0.
0.533908 0.0310202 0.
0.53591 0.0310193 0.
0.537911 0.0310184 0.
0.539912 0.0310179 0.
0.541913 0.0310178 0.
0.543914 0.0310176 0.
0.545915 0.0310178 0.
0.547915 0.031018 0.
0.549916 0.0310183 0.
0.551917 0.03102 0.
0.553919 0.0310217 0.
0.55592 0.0310229 0.
0.557922 0.0310217 0.
0.559924 0.0310204 0.
0.561926 0.0310196 0.
0.563928 0.0310195 0.
0.565929 0.0310194 0.
0.567932 0.0310187 0.
0.569936 0.0310178 0.
0.57194 0.0310168 0.
0.573944 0.031016 0.
0.575949 0.0310153 0.
0.577953 0.0310144 0.
0.579958 0.0310109 0.
0.581962 0.0310074 0.
0.583966 0.0310037 0.
0.58597 0.0309995 0.
0.587974 0.0309953 0.
0.589978 0.0309914 0.
0.591982 0.0309876 0.
0.593986 0.0309838 0.
0.595991 0.0309829 0.
0.597996 0.0309828 0.
0.600001 0.0309828 0.
0.602006 0.0309844 0.
0.604012 0.0309861 0.
0.606017 0.0309881 0.
0.608021 0.0309914 0.
0.610024 0.0309948 0.
0.612029 0.0309983 0.
0.614033 0.0310018 0.
0.616038 0.0310053 0.
0.618042 0.0310083 0.
0.620046 0.0310111 0.
0.622051 0.0310139 0.
0.624054 0.0310155 0.
0.626058 0.0310169 0.
0.628061 0.0310183 0.
0.630065 0.0310197 0.
0.632068 0.0310211 0.
0.634071 0.0310224 0.
0.636073 0.0310235 0.
0.638076 0.0310246 0.
0.640078 0.0310254 0.
0.642079 0.0310257 0.
0.64408 0.031026 0.
0.646082 0.0310253 0.
0.648083 0.0310243 0.
0.650085 0.0310233 0.
0.652086 0.0310237 0.
0.654086 0.0310241 0.
0.656087 0.0310245 0.
0.658088 0.0310249 0.
0.660089 0.0310253 0.
0.66209 0.0310253 0.
0.664092 0.0310248 0.
0.666093 0.0310243 0.
0.668094 0.0310241 0.
0.670095 0.0310242 0.
0.672096 0.0310243 0.
0.674097 0.0310235 0.
0.676098 0.0310226 0.
0.678098 0.0310218 0.
0.680099 0.0310219 0.
0.682099 0.031022 0.
0.684099 0.0310227 0.
0.6861 0.0310244 0.
0.6881 0.0310261 0.
0.690101 0.0310273 0.
0.692101 0.0310282 0.
0.694102 0.0310291 0.
0.696102 0.0310319 0.
0.698103 0.0310351 0.
0.499899 0.0330351 0.
0.501899 0.033033 0.
0.5039 0.0330309 0.
0.5059 0.0330289 0.
0.507901 0.0330274 0.
0.509902 0.0330259 0.
0.511902 0.0330245 0.
0.513903 0.0330232 0.
0.515904 0.0330218 0.
0.517905 0.0330206 0.
0.519906 0.0330194 0.
0.521907 0.0330181 0.
0.523908 0.0330187 0.
0.525909 0.0330196 0.
0.52791 0.0330203 0.
0.52991 0.0330196 0.
0.531911 0.033019 0.
0.533912 0.0330184 0.
0.535913 0.0330178 0.
0.537914 0.0330172 0.
0.539915 0.0330168 0.
0.541916 0.0330165 0.
0.543918 0.0330163 0.
0.545918 0.0330164 0.
0.547919 0.0330167 0.
0.54992 0.0330169 0.
0.551922 0.0330182 0.
0.553923 0.0330195 0.
0.555925 0.0330204 0.
0.557927 0.0330197 0.
0.559929 0.0330189 0.
0.561931 0.0330182 0.
0.563933 0.0330173 0.
0.565935 0.0330164 0.
0.567938 0.0330154 0.
0.569942 0.0330143 0.
0.571945 0.0330131 0.
0.573949 0.0330121 0.
0.575954 0.0330112 0.
0.577958 0.03301 0.
0.579962 0.033007 0.
0.581967 0.0330039 0.
0.583971 0.0330007 0.
0.585974 0.0329973 0.
0.587978 0.0329938 0.
0.589981 0.0329903 0.
0.591984 0.0329867 0.
0.593987 0.0329831 0.
0.595992 0.0329819 0.
0.597996 0.0329816 0.
0.600001 0.0329812 0.
0.602006 0.032983 0.
0.604011 0.0329847 0.
0.606016 0.0329868 0.
0.608019 0.0329897 0.
0.610022 0.0329926 0.
0.612026 0.0329957 0.
0.61403 0.0329988 0.
0.616035 0.0330019 0.
0.618039 0.0330046 0.
0.620042 0.0330073 0.
0.622046 0.0330099 0.
0.62405 0.0330117 0.
0.626054 0.0330135 0.
0.628057 0.0330152 0.
0.63006 0.0330167 0.
0.632063 0.0330182 0.
0.634066 0.0330196 0.
0.636068 0.0330209 0.
0.638071 0.0330222 0.
0.640073 0.033023 0.
0.642074 0.0330234 0.
0.644076 0.0330237 0.
0.646078 0.0330232 0.
0.64808 0.0330225 0.
0.650082 0.0330218 0.
0.652083 0.0330223 0.
0.654083 0.0330228 0.
0.656084 0.0330232 0.
0.658085 0.0330236 0.
0.660086 0.0330239 0.
0.662087 0.0330241 0.
0.664089 0.033024 0.
0.66609 0.0330239 0.
0.668091 0.0330238 0.
0.670092 0.0330237 0.
0.672093 0.0330237 0.
0.674093 0.0330231 0.
0.676094 0.0330226 0.
0.678095 0.0330221 0.
0.680095 0.0330223 0.
0.682096 0.0330226 0.
0.684096 0.0330232 0.
0.686097 0.0330245 0.
0.688098 0.0330257 0.
0.690098 0.0330271 0.
0.692098 0.0330288 0.
0.694099 0.0330304 0.
0.696099 0.0330332 0.
0.698099 0.0330363 0.
0.499901 0.0350362 0.
0.501902 0.0350342 0.
0.503902 0.0350323 0.
0.505903 0.0350303 0.
0.507904 0.0350281 0.
0.509905 0.0350259 0.
0.511905 0.0350241 0.
0.513906 0.0350231 0.
0.515907 0.035022 0.
0.517908 0.0350209 0.
0.519909 0.0350195 0.
0.52191 0.0350181 0.
0.523911 0.0350184 0.
0.525912 0.035019 0.
0.527913 0.0350194 0.
0.529914 0.0350184 0.
0.531915 0.0350174 0.
0.533915 0.0350166 0.
0.535916 0.0350163 0.
0.537918 0.035016 0.
0.539919 0.0350156 0.
0.54192 0.0350153 0.
0.543921 0.035015 0.
0.545922 0.0350151 0.
0.547923 0.0350153 0.
0.549924 0.0350156 0.
0.551926 0.0350164 0.
0.553928 0.0350173 0.
0.55593 0.0350179 0.
0.557932 0.0350177 0.
0.559934 0.0350174 0.
0.561936 0.0350167 0.
0.563938 0.0350151 0.
0.565941 0.0350135 0.
0.567944 0.0350121 0.
0.569947 0.0350108 0.
0.57195 0.0350095 0.
0.573954 0.0350083 0.
0.575958 0.0350071 0.
0.577963 0.0350057 0.
0.579967 0.0350031 0.
0.581971 0.0350004 0.
0.583975 0.0349978 0.
0.585978 0.034995 0.
0.587981 0.0349923 0.
0.589984 0.0349892 0.
0.591986 0.0349858 0.
0.593989 0.0349823 0.
0.595993 0.034981 0.
0.597996 0.0349803 0.
0.6 0.0349796 0.
0.602005 0.0349815 0.
0.60401 0.0349834 0.
0.606015 0.0349855 0.
0.608017 0.034988 0.
0.61002 0.0349905 0.
0.612024 0.0349931 0.
0.614028 0.0349957 0.
0.616032 0.0349984 0.
0.618035 0.0350009 0.
0.620039 0.0350034 0.
0.622042 0.0350059 0.
0.624046 0.0350081 0.
0.62605 0.0350101 0.
0.628053 0.0350121 0.
0.630055 0.0350137 0.
0.632058 0.0350153 0.
0.63406 0.0350169 0.
0.636063 0.0350184 0.
0.638066 0.0350198 0.
0.640068 0.0350207 0.
0.64207 0.0350211 0.
0.644071 0.0350214 0.
0.646074 0.0350212 0.
0.648077 0.0350207 0.
0.650079 0.0350202 0.
0.652079 0.0350208 0.
0.65408 0.0350215 0.
0.65608 0.035022 0.
0.658082 0.0350223 0.
0.660083 0.0350226 0.
0.662084 0.0350229 0.
0.664085 0.0350232 0.
0.666086 0.0350235 0.
0.668087 0.0350235 0.
0.670088 0.0350232 0.
0.672089 0.035023 0.
0.67409 0.0350228 0.
0.676091 0.0350225 0.
0.678092 0.0350223 0.
0.680092 0.0350228 0.
0.682093 0.0350232 0.
0.684093 0.0350237 0.
0.686094 0.0350245 0.
0.688095 0.0350253 0.
0.690095 0.035027 0.
0.692095 0.0350293 0.
0.694095 0.0350317 0.
0.696095 0.0350345 0.
0.698095 0.0350374 0.
0.499904 0.037037 0.
0.501905 0.037035 0.
0.503906 0.0370328 0.
0.505906 0.0370307 0.
0.507907 0.0370287 0.
0.509907 0.0370266 0.
0.511908 0.037025 0.
0.513909 0.0370239 0.
0.51591 0.0370229 0.
0.517911 0.0370214 0.
0.519912 0.0370197 0.
0.521913 0.0370179 0.
0.523914 0.0370181 0.
0.525914 0.0370186 0.
0.527915 0.037019 0.
0.529916 0.0370175 0.
0.531917 0.0370161 0.
0.533918 0.0370151 0.
0.535919 0.0370149 0.
0.53792 0.0370147 0.
0.539921 0.0370145 0.
0.541922 0.0370142 0.
0.543924 0.0370139 0.
0.545925 0.0370139 0.
0.547926 0.037014 0.
0.549927 0.0370141 0.
0.551929 0.0370147 0.
0.553931 0.0370154 0.
0.555933 0.0370158 0.
0.557935 0.0370155 0.
0.559937 0.0370152 0.
0.561939 0.0370144 0.
0.563942 0.037013 0.
0.565944 0.0370115 0.
0.567947 0.0370098 0.
0.56995 0.037008 0.
0.571953 0.0370061 0.
0.573957 0.0370048 0.
0.575961 0.0370035 0.
0.577965 0.0370021 0.
0.579969 0.0369998 0.
0.581973 0.0369975 0.
0.583976 0.0369951 0.
0.58598 0.0369925 0.
0.587983 0.0369898 0.
0.589986 0.0369871 0.
0.591988 0.0369844 0.
0.59399 0.0369817 0.
0.595994 0.0369805 0.
0.597997 0.0369797 0.
0.600001 0.036979 0.
0.602005 0.0369803 0.
0.604009 0.0369817 0.
0.606013 0.0369833 0.
0.608016 0.0369858 0.
0.610018 0.0369882 0.
0.612022 0.0369907 0.
0.614025 0.0369932 0.
0.616029 0.0369957 0.
0.618032 0.0369983 0.
0.620035 0.037001 0.
0.622038 0.0370037 0.
0.624042 0.0370057 0.
0.626046 0.0370077 0.
0.628049 0.0370096 0.
0.630052 0.0370113 0.
0.632054 0.037013 0.
0.634057 0.0370147 0.
0.636059 0.0370163 0.
0.638062 0.0370179 0.
0.640065 0.0370187 0.
0.642067 0.037019 0.
0.644069 0.0370192 0.
0.646071 0.0370191 0.
0.648073 0.037019 0.
0.650075 0.0370189 0.
0.652076 0.0370193 0.
0.654077 0.0370197 0.
0.656078 0.0370202 0.
0.658079 0.0370209 0.
0.66008 0.0370216 0.
0.662082 0.0370221 0.
0.664083 0.0370224 0.
0.666084 0.0370226 0.
0.668085 0.0370227 0.
0.670086 0.0370227 0.
0.672086 0.0370228 0.
0.674087 0.0370224 0.
0.676088 0.0370219 0.
0.678089 0.0370216 0.
0.680089 0.0370222 0.
0.68209 0.0370228 0.
0.684091 0.0370236 0.
0.686091 0.0370248 0.
0.688092 0.037026 0.
0.690092 0.0370278 0.
0.692092 0.0370301 0.
0.694092 0.0370325 0.
0.696092 0.0370351 0.
0.698092 0.0370378 0.
0.499908 0.0390379 0.
0.501908 0.0390357 0.
0.503909 0.0390333 0.
0.505909 0.039031 0.
0.50791 0.0390292 0.
0.50991 0.0390274 0.
0.511911 0.0390259 0.
0.513912 0.0390248 0.
0.515913 0.0390237 0.
0.517914 0.039022 0.
0.519915 0.0390198 0.
0.521916 0.0390177 0.
0.523916 0.0390178 0.
0.525917 0.0390183 0.
0.527917 0.0390186 0.
0.529918 0.0390167 0.
0.53192 0.0390148 0.
0.533921 0.0390135 0.
0.535922 0.0390135 0.
0.537922 0.0390135 0.
0.539923 0.0390133 0.
0.541924 0.039013 0.
0.543926 0.0390127 0.
0.545927 0.0390127 0.
0.547928 0.0390127 0.
0.54993 0.0390127 0.
0.551932 0.039013 0.
0.553934 0.0390134 0.
0.555936 0.0390136 0.
0.557939 0.0390132 0.
0.559941 0.0390129 0.
0.561943 0.0390122 0.
0.563945 0.0390109 0.
0.565947 0.0390095 0.
0.56795 0.0390075 0.
0.569953 0.0390052 0.
0.571956 0.0390028 0.
0.57396 0.0390014 0.
0.575964 0.039 0.
0.577968 0.0389985 0.
0.579971 0.0389966 0.
0.581974 0.0389946 0.
0.583977 0.0389925 0.
0.585981 0.0389899 0.
0.587984 0.0389873 0.
0.589987 0.038985 0.
0.59199 0.038983 0.
0.593992 0.038981 0.
0.595995 0.0389799 0.
0.597998 0.0389791 0.
0.600001 0.0389783 0.
0.602004 0.0389792 0.
0.604008 0.03898 0.
0.606011 0.0389812 0.
0.608014 0.0389835 0.
0.610017 0.0389859 0.
0.61202 0.0389883 0.
0.614022 0.0389906 0.
0.616025 0.0389929 0.
0.618028 0.0389956 0.
0.620031 0.0389985 0.
0.622034 0.0390014 0.
0.624038 0.0390034 0.
0.626042 0.0390052 0.
0.628046 0.0390071 0.
0.630048 0.0390089 0.
0.632051 0.0390107 0.
0.634053 0.0390125 0.
0.636056 0.0390142 0.
0.638059 0.039016 0.
0.640061 0.0390168 0.
0.642064 0.0390169 0.
0.644066 0.039017 0.
0.646068 0.0390172 0.
0.64807 0.0390173 0.
0.650071 0.0390175 0.
0.652073 0.0390178 0.
0.654074 0.039018 0.
0.656075 0.0390185 0.
0.658077 0.0390196 0.
0.660078 0.0390206 0.
0.662079 0.0390213 0.
0.66408 0.0390215 0.
0.666081 0.0390217 0.
0.668082 0.0390219 0.
0.670083 0.0390222 0.
0.672083 0.0390225 0.
0.674084 0.039022 0.
0.676084 0.0390214 0.
0.678085 0.0390209 0.
0.680086 0.0390216 0.
0.682087 0.0390223 0.
0.684088 0.0390234 0.
0.686089 0.039025 0.
0.688089 0.0390266 0.
0.690089 0.0390286 0.
0.692089 0.0390309 0.
0.694089 0.0390333 0.
0.696089 0.0390356 0.
0.698089 0.0390381 0.
0.499911 0.0410388 0.
0.501911 0.0410363 0.
0.503912 0.0410338 0.
0.505912 0.0410313 0.
0.507913 0.0410294 0.
0.509913 0.0410276 0.
0.511914 0.041026 0.
0.513915 0.0410248 0.
0.515916 0.0410236 0.
0.517917 0.0410218 0.
0.519918 0.0410196 0.
0.521919 0.0410174 0.
0.523919 0.0410173 0.
0.52592 0.0410176 0.
0.52792 0.0410177 0.
0.529922 0.0410159 0.
0.531923 0.041014 0.
0.533924 0.0410127 0.
0.535925 0.0410125 0.
0.537926 0.0410124 0.
0.539926 0.0410122 0.
0.541927 0.0410119 0.
0.543928 0.0410116 0.
0.54593 0.0410113 0.
0.547931 0.0410109 0.
0.549933 0.0410106 0.
0.551935 0.0410109 0.
0.553937 0.0410111 0.
0.55594 0.0410113 0.
0.557942 0.0410109 0.
0.559944 0.0410106 0.
0.561946 0.0410099 0.
0.563948 0.0410086 0.
0.56595 0.0410073 0.
0.567953 0.0410053 0.
0.569956 0.0410029 0.
0.571959 0.0410005 0.
0.573963 0.0409987 0.
0.575967 0.040997 0.
0.57797 0.0409953 0.
0.579973 0.0409934 0.
0.581975 0.0409916 0.
0.583978 0.0409896 0.
0.585982 0.0409875 0.
0.587986 0.0409853 0.
0.589988 0.0409835 0.
0.591991 0.0409819 0.
0.593993 0.0409803 0.
0.595996 0.0409794 0.
0.597998 0.0409787 0.
0.600001 0.0409779 0.
0.602004 0.0409784 0.
0.604007 0.0409789 0.
0.60601 0.0409798 0.
0.608013 0.0409821 0.
0.610015 0.0409843 0.
0.612018 0.0409866 0.
0.61402 0.0409889 0.
0.616023 0.0409912 0.
0.618025 0.0409938 0.
0.620028 0.0409966 0.
0.622031 0.0409994 0.
0.624035 0.0410012 0.
0.626038 0.0410029 0.
0.628042 0.0410046 0.
0.630045 0.0410064 0.
0.632047 0.0410082 0.
0.63405 0.04101 0.
0.636053 0.0410117 0.
0.638055 0.0410134 0.
0.640058 0.0410142 0.
0.64206 0.0410144 0.
0.644063 0.0410146 0.
0.646065 0.0410151 0.
0.648066 0.0410157 0.
0.650068 0.0410162 0.
0.65207 0.0410165 0.
0.654071 0.0410167 0.
0.656073 0.0410171 0.
0.658074 0.0410184 0.
0.660075 0.0410196 0.
0.662076 0.0410203 0.
0.664077 0.0410205 0.
0.666078 0.0410207 0.
0.668079 0.0410211 0.
0.670079 0.0410217 0.
0.67208 0.0410222 0.
0.674081 0.0410216 0.
0.676081 0.0410208 0.
0.678082 0.0410203 0.
0.680083 0.0410213 0.
0.682084 0.0410223 0.
0.684084 0.0410236 0.
0.686085 0.0410253 0.
0.688085 0.0410271 0.
0.690086 0.0410292 0.
0.692086 0.0410315 0.
0.694086 0.0410338 0.
0.696086 0.0410362 0.
0.698086 0.0410387 0.
0.499914 0.0430395 0.
0.501915 0.0430368 0.
0.503915 0.0430342 0.
0.505916 0.0430316 0.
0.507916 0.0430294 0.
0.509917 0.0430272 0.
0.511918 0.0430253 0.
0.513919 0.043024 0.
0.51592 0.0430226 0.
0.517921 0.0430209 0.
0.519922 0.043019 0.
0.521923 0.0430171 0.
0.523923 0.0430167 0.
0.525924 0.0430166 0.
0.527925 0.0430164 0.
0.529926 0.043015 0.
0.531927 0.0430137 0.
0.533928 0.0430126 0.
0.535929 0.043012 0.
0.537929 0.0430115 0.
0.53993 0.0430111 0.
0.541931 0.0430108 0.
0.543932 0.0430105 0.
0.545933 0.0430097 0.
0.547935 0.0430088 0.
0.549936 0.0430079 0.
0.551938 0.0430082 0.
0.553941 0.0430086 0.
0.555943 0.0430088 0.
0.557945 0.0430085 0.
0.559947 0.0430082 0.
0.561949 0.0430074 0.
0.563951 0.0430061 0.
0.565953 0.0430048 0.
0.567956 0.043003 0.
0.569959 0.043001 0.
0.571962 0.0429989 0.
0.573966 0.0429968 0.
0.575969 0.0429947 0.
0.577973 0.0429925 0.
0.579975 0.0429904 0.
0.581977 0.0429883 0.
0.58398 0.0429864 0.
0.585983 0.0429851 0.
0.587986 0.0429838 0.
0.589989 0.0429824 0.
0.591992 0.0429809 0.
0.593994 0.0429794 0.
0.595997 0.0429787 0.
0.597999 0.0429782 0.
0.600002 0.0429778 0.
0.602005 0.0429782 0.
0.604007 0.0429786 0.
0.60601 0.0429793 0.
0.608012 0.0429814 0.
0.610015 0.0429834 0.
0.612017 0.0429856 0.
0.61402 0.0429881 0.
0.616022 0.0429905 0.
0.618024 0.0429929 0.
0.620027 0.0429952 0.
0.622029 0.0429976 0.
0.624032 0.0429991 0.
0.626036 0.0430006 0.
0.628039 0.0430021 0.
0.630042 0.0430039 0.
0.632044 0.0430056 0.
0.634047 0.0430073 0.
0.636049 0.0430088 0.
0.638052 0.0430103 0.
0.640054 0.0430112 0.
0.642057 0.0430116 0.
0.644059 0.0430121 0.
0.646061 0.043013 0.
0.648063 0.0430141 0.
0.650066 0.0430151 0.
0.652067 0.0430154 0.
0.654068 0.0430156 0.
0.656069 0.0430161 0.
0.65807 0.0430173 0.
0.660071 0.0430185 0.
0.662072 0.0430192 0.
0.664073 0.0430195 0.
0.666074 0.0430197 0.
0.668075 0.0430203 0.
0.670075 0.043021 0.
0.672076 0.0430218 0.
0.674077 0.0430211 0.
0.676078 0.0430203 0.
0.678079 0.0430198 0.
0.680079 0.0430212 0.
0.68208 0.0430226 0.
0.68408 0.0430241 0.
0.68608 0.0430257 0.
0.688081 0.0430274 0.
0.690081 0.0430294 0.
0.692082 0.0430318 0.
0.694082 0.0430341 0.
0.696083 0.0430368 0.
0.698083 0.0430397 0.
0.499917 0.0450404 0.
0.501918 0.0450374 0.
0.503919 0.0450346 0.
0.505919 0.0450318 0.
0.50792 0.0450293 0.
0.50992 0.0450268 0.
0.511921 0.0450247 0.
0.513922 0.0450231 0.
0.515924 0.0450216 0.
0.517925 0.04502 0.
0.519926 0.0450184 0.
0.521926 0.0450168 0.
0.523927 0.0450161 0.
0.525929 0.0450156 0.
0.52793 0.0450151 0.
0.52993 0.0450142 0.
0.531931 0.0450133 0.
0.533931 0.0450124 0.
0.535932 0.0450115 0.
0.537933 0.0450105 0.
0.539934 0.04501 0.
0.541935 0.0450096 0.
0.543936 0.0450093 0.
0.545937 0.0450082 0.
0.547938 0.0450067 0.
0.54994 0.0450052 0.
0.551942 0.0450056 0.
0.553944 0.0450061 0.
0.555946 0.0450064 0.
0.557948 0.0450061 0.
0.559949 0.0450057 0.
0.561951 0.045005 0.
0.563954 0.0450036 0.
0.565956 0.0450023 0.
0.567959 0.0450008 0.
0.569962 0.0449991 0.
0.571965 0.0449975 0.
0.573969 0.044995 0.
0.575972 0.0449923 0.
0.577975 0.0449897 0.
0.579977 0.0449874 0.
0.581979 0.044985 0.
0.583982 0.0449832 0.
0.585985 0.0449828 0.
0.587987 0.0449824 0.
0.58999 0.0449814 0.
0.591993 0.04498 0.
0.593995 0.0449786 0.
0.595998 0.0449781 0.
0.598 0.0449778 0.
0.600003 0.0449776 0.
0.602005 0.0449779 0.
0.604008 0.0449782 0.
0.60601 0.0449789 0.
0.608012 0.0449807 0.
0.610014 0.0449825 0.
0.612016 0.0449847 0.
0.614019 0.0449873 0.
0.616021 0.0449899 0.
0.618023 0.044992 0.
0.620025 0.0449939 0.
0.622027 0.0449958 0.
0.62403 0.0449971 0.
0.626033 0.0449983 0.
0.628036 0.0449996 0.
0.630039 0.0450013 0.
0.632041 0.045003 0.
0.634044 0.0450046 0.
0.636046 0.0450059 0.
0.638049 0.0450072 0.
0.640051 0.0450081 0.
0.642053 0.0450089 0.
0.644055 0.0450096 0.
0.646057 0.0450109 0.
0.64806 0.0450124 0.
0.650063 0.0450139 0.
0.652064 0.0450143 0.
0.654065 0.0450146 0.
0.656066 0.0450151 0.
0.658067 0.0450163 0.
0.660068 0.0450175 0.
0.662069 0.0450182 0.
0.664069 0.0450184 0.
0.66607 0.0450187 0.
0.66807 0.0450195 0.
0.670071 0.0450204 0.
0.672072 0.0450214 0.
0.674073 0.0450206 0.
0.676074 0.0450198 0.
0.678075 0.0450193 0.
0.680076 0.0450211 0.
0.682076 0.0450229 0.
0.684076 0.0450246 0.
0.686076 0.0450262 0.
0.688076 0.0450277 0.
0.690076 0.0450297 0.
0.692078 0.0450321 0.
0.694079 0.0450344 0.
0.696079 0.0450374 0.
0.698079 0.0450406 0.
0.49992 0.0470402 0.
0.501921 0.0470374 0.
0.503921 0.0470348 0.
0.505922 0.0470322 0.
0.507923 0.0470295 0.
0.509924 0.0470269 0.
0.511925 0.0470245 0.
0.513926 0.0470225 0.
0.515927 0.0470205 0.
0.517928 0.047019 0.
0.519929 0.0470179 0.
0.52193 0.0470168 0.
0.523931 0.047016 0.
0.525932 0.0470152 0.
0.527933 0.0470144 0.
0.529934 0.0470133 0.
0.531934 0.0470121 0.
0.533935 0.0470111 0.
0.535936 0.0470104 0.
0.537937 0.0470097 0.
0.539938 0.0470091 0.
0.541939 0.0470084 0.
0.54394 0.0470078 0.
0.545941 0.0470067 0.
0.547942 0.0470055 0.
0.549944 0.0470043 0.
0.551945 0.0470045 0.
0.553947 0.0470048 0.
0.555949 0.0470049 0.
0.557951 0.0470043 0.
0.559953 0.0470037 0.
0.561955 0.0470028 0.
0.563957 0.0470015 0.
0.565959 0.0470003 0.
0.567962 0.0469986 0.
0.569965 0.0469968 0.
0.571968 0.0469951 0.
0.57397 0.0469924 0.
0.575973 0.0469897 0.
0.577976 0.0469871 0.
0.579979 0.0469856 0.
0.581981 0.046984 0.
0.583983 0.0469827 0.
0.585986 0.046982 0.
0.587988 0.0469812 0.
0.58999 0.0469801 0.
0.591993 0.0469785 0.
0.593995 0.046977 0.
0.595997 0.0469767 0.
0.598 0.0469769 0.
0.600002 0.046977 0.
0.602004 0.0469771 0.
0.604007 0.0469772 0.
0.606009 0.0469777 0.
0.608011 0.0469795 0.
0.610013 0.0469813 0.
0.612015 0.0469834 0.
0.614018 0.0469859 0.
0.61602 0.0469883 0.
0.618022 0.0469904 0.
0.620024 0.0469923 0.
0.622026 0.0469942 0.
0.624029 0.0469954 0.
0.626032 0.0469965 0.
0.628034 0.0469977 0.
0.630037 0.0469992 0.
0.632039 0.0470007 0.
0.634041 0.0470022 0.
0.636043 0.0470035 0.
0.638045 0.0470048 0.
0.640048 0.047006 0.
0.64205 0.0470071 0.
0.644052 0.0470082 0.
0.646054 0.0470095 0.
0.648057 0.0470108 0.
0.650059 0.0470121 0.
0.65206 0.0470127 0.
0.654061 0.0470133 0.
0.656062 0.047014 0.
0.658063 0.0470151 0.
0.660064 0.0470162 0.
0.662065 0.0470171 0.
0.664066 0.0470177 0.
0.666067 0.0470183 0.
0.668067 0.0470192 0.
0.670068 0.0470202 0.
0.672069 0.0470212 0.
0.67407 0.0470207 0.
0.676071 0.04702 0.
0.678071 0.0470196 0.
0.680071 0.0470215 0.
0.682072 0.0470234 0.
0.684072 0.0470252 0.
0.686072 0.0470266 0.
0.688072 0.047028 0.
0.690073 0.0470301 0.
0.692074 0.0470326 0.
0.694075 0.0470351 0.
0.696076 0.0470382 0.
0.698077 0.0470414 0.
0.499923 0.0490401 0.
0.501924 0.0490374 0.
0.503924 0.049035 0.
0.505925 0.0490325 0.
0.507926 0.0490297 0.
0.509927 0.049027 0.
0.511928 0.0490243 0.
0.513929 0.0490218 0.
0.51593 0.0490193 0.
0.517931 0.0490181 0.
0.519932 0.0490175 0.
0.521933 0.0490169 0.
0.523934 0.0490159 0.
0.525936 0.0490148 0.
0.527937 0.0490137 0.
0.529938 0.0490123 0.
0.531938 0.0490109 0.
0.533939 0.0490097 0.
0.53594 0.0490093 0.
0.537941 0.0490088 0.
0.539942 0.0490081 0.
0.541943 0.0490072 0.
0.543944 0.0490062 0.
0.545945 0.0490053 0.
0.547946 0.0490043 0.
0.549947 0.0490034 0.
0.551949 0.0490035 0.
0.553951 0.0490036 0.
0.555952 0.0490035 0.
0.557954 0.0490026 0.
0.559956 0.0490017 0.
0.561958 0.0490007 0.
0.56396 0.0489995 0.
0.565962 0.0489982 0.
0.567965 0.0489965 0.
0.569967 0.0489946 0.
0.57197 0.0489926 0.
0.573972 0.0489899 0.
0.575975 0.0489871 0.
0.577978 0.0489845 0.
0.57998 0.0489838 0.
0.581982 0.048983 0.
0.583985 0.0489822 0.
0.585987 0.0489811 0.
0.587988 0.0489801 0.
0.589991 0.0489787 0.
0.591993 0.048977 0.
0.593995 0.0489753 0.
0.595997 0.0489754 0.
0.597999 0.0489759 0.
0.600001 0.0489765 0.
0.602003 0.0489764 0.
0.604006 0.0489762 0.
0.606008 0.0489766 0.
0.60801 0.0489784 0.
0.610012 0.0489801 0.
0.612014 0.0489822 0.
0.614017 0.0489845 0.
0.616019 0.0489868 0.
0.618021 0.0489888 0.
0.620023 0.0489907 0.
0.622025 0.0489927 0.
0.624028 0.0489938 0.
0.62603 0.0489947 0.
0.628033 0.0489958 0.
0.630035 0.0489971 0.
0.632036 0.0489984 0.
0.634038 0.0489997 0.
0.63604 0.049001 0.
0.638042 0.0490024 0.
0.640045 0.0490038 0.
0.642047 0.0490053 0.
0.64405 0.0490068 0.
0.646052 0.049008 0.
0.648053 0.0490091 0.
0.650055 0.0490103 0.
0.652056 0.0490111 0.
0.654057 0.0490119 0.
0.656058 0.0490128 0.
0.658059 0.0490139 0.
0.660061 0.049015 0.
0.662062 0.049016 0.
0.664063 0.0490169 0.
0.666064 0.0490179 0.
0.668064 0.0490189 0.
0.670065 0.04902 0.
0.672066 0.0490211 0.
0.674067 0.0490207 0.
0.676067 0.0490202 0.
0.678067 0.04902 0.
0.680067 0.049022 0.
0.682068 0.049024 0.
0.684068 0.0490257 0.
0.686068 0.049027 0.
0.688069 0.0490283 0.
0.69007 0.0490304 0.
0.692071 0.0490331 0.
0.694072 0.0490357 0.
0.696074 0.0490389 0.
0.698075 0.0490423 0.
0.499927 0.0510399 0.
0.501927 0.0510373 0.
0.503928 0.051035 0.
0.505928 0.0510326 0.
0.507929 0.0510296 0.
0.50993 0.0510267 0.
0.511931 0.0510239 0.
0.513932 0.0510213 0.
0.515933 0.0510186 0.
0.517934 0.0510174 0.
0.519936 0.0510169 0.
0.521937 0.0510164 0.
0.523938 0.0510154 0.
0.525939 0.0510143 0.
0.527941 0.0510132 0.
0.529941 0.0510115 0.
0.531942 0.0510099 0.
0.533943 0.0510086 0.
0.535944 0.0510083 0.
0.537945 0.0510079 0.
0.539946 0.0510072 0.
0.541947 0.0510062 0.
0.543948 0.0510052 0.
0.545949 0.0510042 0.
0.54795 0.0510032 0.
0.549951 0.0510022 0.
0.551952 0.0510022 0.
0.553954 0.0510022 0.
0.555955 0.051002 0.
0.557957 0.0510009 0.
0.559959 0.0509998 0.
0.561961 0.0509987 0.
0.563963 0.0509974 0.
0.565965 0.0509961 0.
0.567967 0.0509944 0.
0.569969 0.0509924 0.
0.571972 0.0509905 0.
0.573974 0.0509878 0.
0.575977 0.0509851 0.
0.577979 0.0509825 0.
0.579981 0.0509821 0.
0.581983 0.0509818 0.
0.583985 0.0509812 0.
0.585987 0.0509801 0.
0.587989 0.050979 0.
0.589991 0.0509776 0.
0.591993 0.0509759 0.
0.593995 0.0509741 0.
0.595997 0.0509743 0.
0.597999 0.050975 0.
0.600001 0.0509758 0.
0.602003 0.0509756 0.
0.604005 0.0509754 0.
0.606007 0.0509756 0.
0.608009 0.0509772 0.
0.610011 0.0509789 0.
0.612013 0.0509807 0.
0.614016 0.0509828 0.
0.616018 0.0509849 0.
0.61802 0.0509869 0.
0.620022 0.0509887 0.
0.622024 0.0509905 0.
0.624026 0.0509919 0.
0.626029 0.0509932 0.
0.628031 0.0509945 0.
0.630033 0.0509956 0.
0.632034 0.0509967 0.
0.634035 0.0509979 0.
0.636038 0.0509991 0.
0.63804 0.0510003 0.
0.640042 0.0510018 0.
0.642044 0.0510035 0.
0.644047 0.0510052 0.
0.646048 0.0510064 0.
0.64805 0.0510075 0.
0.650051 0.0510087 0.
0.652052 0.0510096 0.
0.654053 0.0510106 0.
0.656054 0.0510116 0.
0.658056 0.0510127 0.
0.660057 0.0510138 0.
0.662059 0.0510149 0.
0.664059 0.051016 0.
0.66606 0.0510172 0.
0.668061 0.0510183 0.
0.670062 0.0510195 0.
0.672063 0.0510206 0.
0.674063 0.0510205 0.
0.676063 0.0510203 0.
0.678063 0.0510203 0.
0.680064 0.0510222 0.
0.682064 0.0510242 0.
0.684065 0.0510259 0.
0.686065 0.0510272 0.
0.688066 0.0510285 0.
0.690067 0.0510307 0.
0.692068 0.0510334 0.
0.694069 0.0510361 0.
0.69607 0.0510392 0.
0.698072 0.0510423 0.
0.499931 0.0530396 0.
0.501931 0.053037 0.
0.503931 0.0530348 0.
0.505932 0.0530324 0.
0.507933 0.0530293 0.
0.509934 0.0530262 0.
0.511935 0.0530233 0.
0.513936 0.0530208 0.
0.515937 0.0530183 0.
0.517938 0.053017 0.
0.519939 0.0530162 0.
0.52194 0.0530155 0.
0.523941 0.0530146 0.
0.525943 0.0530137 0.
0.527944 0.0530128 0.
0.529945 0.053011 0.
0.531946 0.0530092 0.
0.533946 0.0530078 0.
0.535947 0.0530073 0.
0.537948 0.0530067 0.
0.539949 0.0530061 0.
0.54195 0.0530055 0.
0.54395 0.0530049 0.
0.545951 0.0530037 0.
0.547952 0.0530022 0.
0.549953 0.0530008 0.
0.551955 0.0530007 0.
0.553957 0.0530007 0.
0.555959 0.0530004 0.
0.55796 0.0529993 0.
0.559961 0.0529981 0.
0.561963 0.0529968 0.
0.563965 0.0529953 0.
0.565967 0.0529938 0.
0.567969 0.0529921 0.
0.569972 0.0529903 0.
0.571974 0.0529885 0.
0.573976 0.0529861 0.
0.575978 0.0529835 0.
0.57798 0.0529812 0.
0.579982 0.0529807 0.
0.581983 0.0529802 0.
0.583985 0.0529796 0.
0.585987 0.0529788 0.
0.587989 0.0529781 0.
0.58999 0.0529768 0.
0.591992 0.0529751 0.
0.593993 0.0529734 0.
0.595996 0.0529735 0.
0.597998 0.0529742 0.
0.600001 0.0529749 0.
0.602003 0.0529748 0.
0.604005 0.0529747 0.
0.606007 0.0529749 0.
0.608009 0.0529762 0.
0.61001 0.0529775 0.
0.612012 0.052979 0.
0.614014 0.052981 0.
0.616016 0.0529829 0.
0.618018 0.0529846 0.
0.62002 0.0529862 0.
0.622022 0.0529879 0.
0.624025 0.0529899 0.
0.626027 0.0529919 0.
0.62803 0.0529938 0.
0.630031 0.0529948 0.
0.632032 0.0529958 0.
0.634034 0.0529968 0.
0.636036 0.0529977 0.
0.638038 0.0529986 0.
0.64004 0.053 0.
0.642041 0.0530017 0.
0.644043 0.0530034 0.
0.646044 0.0530048 0.
0.648045 0.053006 0.
0.650046 0.0530073 0.
0.652048 0.0530083 0.
0.654049 0.0530094 0.
0.656051 0.0530105 0.
0.658052 0.0530116 0.
0.660053 0.0530128 0.
0.662054 0.0530139 0.
0.664055 0.0530151 0.
0.666057 0.0530162 0.
0.668057 0.0530174 0.
0.670058 0.0530187 0.
0.672059 0.0530199 0.
0.674059 0.0530201 0.
0.676059 0.0530203 0.
0.67806 0.0530206 0.
0.68006 0.0530223 0.
0.682061 0.0530241 0.
0.684062 0.0530258 0.
0.686063 0.0530272 0.
0.688064 0.0530287 0.
0.690064 0.0530308 0.
0.692065 0.0530335 0.
0.694065 0.0530362 0.
0.696066 0.0530389 0.
0.698067 0.0530416 0.
0.499935 0.0550394 0.
0.501935 0.0550368 0.
0.503935 0.0550346 0.
0.505936 0.0550322 0.
0.507936 0.0550289 0.
0.509937 0.0550256 0.
0.511938 0.0550227 0.
0.513939 0.0550204 0.
0.51594 0.055018 0.
0.517941 0.0550165 0.
0.519943 0.0550155 0.
0.521944 0.0550145 0.
0.523945 0.0550138 0.
0.525946 0.0550131 0.
0.527947 0.0550123 0.
0.529948 0.0550104 0.
0.531949 0.0550085 0.
0.53395 0.055007 0.
0.535951 0.0550063 0.
0.537951 0.0550056 0.
0.539952 0.0550051 0.
0.541952 0.0550048 0.
0.543953 0.0550045 0.
0.545954 0.0550031 0.
0.547955 0.0550012 0.
0.549956 0.0549994 0.
0.551958 0.0549992 0.
0.55396 0.0549991 0.
0.555962 0.0549988 0.
0.557963 0.0549976 0.
0.559964 0.0549964 0.
0.561965 0.054995 0.
0.563967 0.0549933 0.
0.565969 0.0549915 0.
0.567972 0.0549899 0.
0.569974 0.0549882 0.
0.571976 0.0549866 0.
0.573977 0.0549844 0.
0.575979 0.054982 0.
0.577981 0.0549798 0.
0.579982 0.0549792 0.
0.581984 0.0549786 0.
0.583985 0.0549781 0.
0.585987 0.0549776 0.
0.587989 0.054977 0.
0.58999 0.0549759 0.
0.591991 0.0549743 0.
0.593992 0.0549726 0.
0.595995 0.0549728 0.
0.597998 0.0549734 0.
0.600001 0.054974 0.
0.602003 0.054974 0.
0.604004 0.054974 0.
0.606006 0.0549742 0.
0.608008 0.0549751 0.
0.61001 0.0549761 0.
0.612011 0.0549773 0.
0.614013 0.0549791 0.
0.616015 0.0549808 0.
0.618017 0.0549823 0.
0.620019 0.0549838 0.
0.62202 0.0549852 0.
0.624023 0.0549879 0.
0.626026 0.0549906 0.
0.628028 0.0549931 0.
0.63003 0.054994 0.
0.632031 0.0549949 0.
0.634033 0.0549957 0.
0.636034 0.0549963 0.
0.638036 0.0549969 0.
0.640038 0.0549981 0.
0.642039 0.0549999 0.
0.64404 0.0550016 0.
0.64604 0.0550031 0.
0.648041 0.0550045 0.
0.650041 0.0550059 0.
0.652044 0.055007 0.
0.654046 0.0550082 0.
0.656048 0.0550093 0.
0.658048 0.0550105 0.
0.660049 0.0550117 0.
0.66205 0.0550129 0.
0.664051 0.0550141 0.
0.666053 0.0550153 0.
0.668053 0.0550166 0.
0.670054 0.0550179 0.
0.672055 0.0550191 0.
0.674055 0.0550197 0.
0.676056 0.0550203 0.
0.678056 0.0550209 0.
0.680057 0.0550225 0.
0.682058 0.055024 0.
0.684059 0.0550256 0.
0.68606 0.0550272 0.
0.688061 0.0550288 0.
0.690062 0.055031 0.
0.692062 0.0550336 0.
0.694062 0.0550363 0.
0.696062 0.0550387 0.
0.698062 0.0550409 0.
0.499937 0.0570403 0.
0.501938 0.0570373 0.
0.503938 0.0570343 0.
0.505938 0.0570314 0.
0.507939 0.0570287 0.
0.50994 0.0570261 0.
0.511941 0.0570234 0.
0.513942 0.0570207 0.
0.515943 0.0570181 0.
0.517944 0.0570164 0.
0.519945 0.0570152 0.
0.521946 0.057014 0.
0.523947 0.0570131 0.
0.525949 0.0570122 0.
0.52795 0.0570112 0.
0.529951 0.0570096 0.
0.531952 0.057008 0.
0.533953 0.0570067 0.
0.535953 0.0570059 0.
0.537954 0.0570051 0.
0.539955 0.0570044 0.
0.541955 0.0570037 0.
0.543956 0.057003 0.
0.545957 0.0570016 0.
0.547958 0.0570001 0.
0.549959 0.0569985 0.
0.551961 0.056998 0.
0.553962 0.0569975 0.
0.555964 0.0569969 0.
0.557965 0.0569958 0.
0.559966 0.0569946 0.
0.561968 0.0569933 0.
0.56397 0.0569918 0.
0.565972 0.0569902 0.
0.567974 0.0569884 0.
0.569976 0.0569865 0.
0.571977 0.0569845 0.
0.573979 0.0569827 0.
0.57598 0.0569809 0.
0.577982 0.0569791 0.
0.579983 0.0569782 0.
0.581984 0.0569773 0.
0.583986 0.0569766 0.
0.585987 0.0569762 0.
0.587989 0.0569758 0.
0.58999 0.056975 0.
0.591992 0.0569739 0.
0.593993 0.0569727 0.
0.595995 0.0569725 0.
0.597998 0.0569724 0.
0.600001 0.0569724 0.
0.602003 0.0569726 0.
0.604004 0.0569728 0.
0.606006 0.0569732 0.
0.608008 0.0569743 0.
0.610009 0.0569753 0.
0.612011 0.0569766 0.
0.614013 0.0569781 0.
0.616014 0.0569795 0.
0.618016 0.056981 0.
0.620017 0.0569824 0.
0.622019 0.0569838 0.
0.624021 0.0569861 0.
0.626023 0.0569886 0.
0.628025 0.0569908 0.
0.630027 0.056992 0.
0.632029 0.0569932 0.
0.63403 0.0569942 0.
0.636032 0.0569951 0.
0.638033 0.056996 0.
0.640035 0.0569973 0.
0.642036 0.0569989 0.
0.644037 0.0570005 0.
0.646038 0.057002 0.
0.648038 0.0570034 0.
0.650039 0.0570048 0.
0.652041 0.0570057 0.
0.654043 0.0570066 0.
0.656044 0.0570077 0.
0.658045 0.0570095 0.
0.660046 0.0570112 0.
0.662047 0.0570125 0.
0.664048 0.0570132 0.
0.66605 0.0570139 0.
0.66805 0.0570153 0.
0.670051 0.057017 0.
0.672051 0.0570187 0.
0.674052 0.0570194 0.
0.676053 0.05702 0.
0.678054 0.0570208 0.
0.680055 0.0570224 0.
0.682055 0.057024 0.
0.684056 0.0570256 0.
0.686057 0.0570273 0.
0.688058 0.057029 0.
0.690058 0.0570314 0.
0.692058 0.0570343 0.
0.694059 0.0570373 0.
0.696059 0.0570399 0.
0.698059 0.0570425 0.
0.49994 0.0590413 0.
0.50194 0.0590377 0.
0.503941 0.059034 0.
0.505941 0.0590305 0.
0.507942 0.0590286 0.
0.509943 0.0590266 0.
0.511944 0.0590242 0.
0.513945 0.0590211 0.
0.515945 0.0590181 0.
0.517946 0.0590162 0.
0.519947 0.0590148 0.
0.521948 0.0590135 0.
0.523949 0.0590124 0.
0.525951 0.0590112 0.
0.527953 0.05901 0.
0.529954 0.0590088 0.
0.531954 0.0590075 0.
0.533955 0.0590064 0.
0.535956 0.0590055 0.
0.537957 0.0590047 0.
0.539958 0.0590037 0.
0.541959 0.0590026 0.
0.543959 0.0590015 0.
0.54596 0.0590002 0.
0.547961 0.0589989 0.
0.549962 0.0589976 0.
0.551963 0.0589968 0.
0.553965 0.058996 0.
0.555966 0.058995 0.
0.557967 0.0589939 0.
0.559969 0.0589928 0.
0.56197 0.0589916 0.
0.563972 0.0589902 0.
0.565974 0.0589889 0.
0.567976 0.0589869 0.
0.569977 0.0589847 0.
0.571979 0.0589824 0.
0.573981 0.058981 0.
0.575982 0.0589797 0.
0.577983 0.0589784 0.
0.579984 0.0589772 0.
0.581985 0.058976 0.
0.583986 0.0589751 0.
0.585988 0.0589748 0.
0.587989 0.0589745 0.
0.589991 0.058974 0.
0.591992 0.0589735 0.
0.593993 0.0589729 0.
0.595995 0.0589722 0.
0.597998 0.0589714 0.
0.6 0.0589707 0.
0.602002 0.0589711 0.
0.604004 0.0589715 0.
0.606006 0.0589721 0.
0.608008 0.0589734 0.
0.610009 0.0589746 0.
0.612011 0.0589759 0.
0.614012 0.0589771 0.
0.616013 0.0589783 0.
0.618014 0.0589797 0.
0.620016 0.058981 0.
0.622017 0.0589824 0.
0.624019 0.0589844 0.
0.626021 0.0589865 0.
0.628022 0.0589885 0.
0.630024 0.05899 0.
0.632026 0.0589914 0.
0.634028 0.0589928 0.
0.636029 0.0589939 0.
0.638031 0.0589951 0.
0.640032 0.0589964 0.
0.642033 0.0589979 0.
0.644035 0.0589994 0.
0.646036 0.0590009 0.
0.648036 0.0590023 0.
0.650037 0.0590037 0.
0.652038 0.0590044 0.
0.65404 0.0590051 0.
0.656041 0.0590061 0.
0.658042 0.0590084 0.
0.660043 0.0590107 0.
0.662044 0.059012 0.
0.664045 0.0590122 0.
0.666047 0.0590124 0.
0.668047 0.059014 0.
0.670048 0.0590161 0.
0.672048 0.0590183 0.
0.674049 0.0590191 0.
0.67605 0.0590198 0.
0.678052 0.0590206 0.
0.680052 0.0590223 0.
0.682052 0.0590239 0.
0.684053 0.0590256 0.
0.686053 0.0590274 0.
0.688054 0.0590292 0.
0.690054 0.0590318 0.
0.692055 0.059035 0.
0.694055 0.0590382 0.
0.696056 0.0590412 0.
0.698056 0.059044 0.
0.499943 0.0610414 0.
0.501943 0.0610375 0.
0.503944 0.0610335 0.
0.505944 0.0610299 0.
0.507946 0.0610284 0.
0.509947 0.0610268 0.
0.511948 0.0610246 0.
0.513948 0.0610215 0.
0.515948 0.0610184 0.
0.517949 0.0610162 0.
0.51995 0.0610146 0.
0.52195 0.061013 0.
0.523952 0.0610117 0.
0.525954 0.0610104 0.
0.527955 0.0610091 0.
0.529956 0.061008 0.
0.531957 0.0610069 0.
0.533958 0.0610059 0.
0.535959 0.0610049 0.
0.537959 0.0610039 0.
0.53996 0.0610028 0.
0.541961 0.0610016 0.
0.543962 0.0610003 0.
0.545963 0.0609991 0.
0.547964 0.0609979 0.
0.549965 0.0609968 0.
0.551966 0.0609958 0.
0.553967 0.0609947 0.
0.555968 0.0609936 0.
0.55797 0.0609924 0.
0.559971 0.0609912 0.
0.561973 0.06099 0.
0.563975 0.0609887 0.
0.565976 0.0609875 0.
0.567978 0.0609856 0.
0.569979 0.0609833 0.
0.57198 0.0609811 0.
0.573982 0.0609799 0.
0.575983 0.0609789 0.
0.577984 0.0609778 0.
0.579985 0.0609764 0.
0.581986 0.0609751 0.
0.583987 0.0609741 0.
0.585988 0.0609738 0.
0.58799 0.0609735 0.
0.589991 0.0609732 0.
0.591992 0.0609729 0.
0.593993 0.0609727 0.
0.595996 0.0609717 0.
0.597998 0.0609705 0.
0.6 0.0609693 0.
0.602002 0.06097 0.
0.604004 0.0609706 0.
0.606006 0.0609714 0.
0.608008 0.0609727 0.
0.610009 0.060974 0.
0.61201 0.0609752 0.
0.614011 0.0609763 0.
0.616012 0.0609774 0.
0.618014 0.0609786 0.
0.620015 0.06098 0.
0.622016 0.0609814 0.
0.624017 0.0609831 0.
0.626019 0.0609849 0.
0.628021 0.0609866 0.
0.630022 0.0609882 0.
0.632024 0.0609898 0.
0.634026 0.0609912 0.
0.636027 0.0609926 0.
0.638028 0.060994 0.
0.640029 0.0609955 0.
0.64203 0.060997 0.
0.644032 0.0609984 0.
0.646033 0.0609998 0.
0.648034 0.0610011 0.
0.650034 0.0610025 0.
0.652035 0.0610032 0.
0.654037 0.0610039 0.
0.656038 0.0610049 0.
0.658039 0.0610072 0.
0.66004 0.0610095 0.
0.662041 0.0610108 0.
0.664042 0.0610112 0.
0.666043 0.0610116 0.
0.668044 0.0610133 0.
0.670044 0.0610155 0.
0.672044 0.0610178 0.
0.674046 0.0610186 0.
0.676047 0.0610192 0.
0.678048 0.0610201 0.
0.680048 0.061022 0.
0.682049 0.0610239 0.
0.684049 0.0610257 0.
0.68605 0.0610276 0.
0.68805 0.0610294 0.
0.690051 0.061032 0.
0.692052 0.0610352 0.
0.694052 0.0610385 0.
0.696052 0.0610415 0.
0.698052 0.0610444 0.
0.499946 0.0630409 0.
0.501947 0.0630368 0.
0.503947 0.0630329 0.
0.505948 0.0630295 0.
0.507949 0.0630281 0.
0.50995 0.0630266 0.
0.511951 0.0630246 0.
0.513951 0.0630217 0.
0.515951 0.0630189 0.
0.517952 0.0630166 0.
0.519953 0.0630145 0.
0.521953 0.0630125 0.
0.523955 0.0630111 0.
0.525956 0.0630097 0.
0.527958 0.0630084 0.
0.529958 0.0630073 0.
0.531959 0.0630063 0.
0.53396 0.0630053 0.
0.535961 0.0630041 0.
0.537962 0.0630029 0.
0.539963 0.0630018 0.
0.541964 0.0630007 0.
0.543965 0.0629995 0.
0.545966 0.0629984 0.
0.547967 0.0629971 0.
0.549968 0.0629959 0.
0.551969 0.0629949 0.
0.55397 0.0629938 0.
0.555971 0.0629926 0.
0.557972 0.0629912 0.
0.559974 0.0629898 0.
0.561975 0.0629884 0.
0.563977 0.0629872 0.
0.565978 0.062986 0.
0.56798 0.0629843 0.
0.569981 0.0629824 0.
0.571982 0.0629805 0.
0.573982 0.0629793 0.
0.575983 0.0629782 0.
0.577984 0.0629772 0.
0.579985 0.0629758 0.
0.581987 0.0629745 0.
0.583988 0.0629735 0.
0.585989 0.0629731 0.
0.58799 0.0629728 0.
0.589991 0.0629725 0.
0.591992 0.0629723 0.
0.593993 0.062972 0.
0.595995 0.0629709 0.
0.597998 0.0629696 0.
0.6 0.0629683 0.
0.602002 0.0629692 0.
0.604004 0.0629701 0.
0.606006 0.0629711 0.
0.608007 0.0629723 0.
0.610008 0.0629736 0.
0.612009 0.0629747 0.
0.614011 0.0629756 0.
0.616012 0.0629766 0.
0.618013 0.0629779 0.
0.620014 0.0629794 0.
0.622014 0.0629809 0.
0.624016 0.0629823 0.
0.626018 0.0629837 0.
0.62802 0.0629851 0.
0.630021 0.0629866 0.
0.632023 0.0629881 0.
0.634024 0.0629896 0.
0.636025 0.0629912 0.
0.638025 0.0629929 0.
0.640026 0.0629945 0.
0.642027 0.062996 0.
0.644028 0.0629976 0.
0.646029 0.0629988 0.
0.648031 0.0629999 0.
0.650032 0.0630011 0.
0.652033 0.063002 0.
0.654033 0.063003 0.
0.656034 0.0630041 0.
0.658035 0.0630058 0.
0.660037 0.0630074 0.
0.662038 0.0630089 0.
0.664039 0.0630102 0.
0.66604 0.0630115 0.
0.668041 0.0630132 0.
0.670041 0.0630152 0.
0.672041 0.0630171 0.
0.674042 0.0630178 0.
0.676043 0.0630184 0.
0.678044 0.0630191 0.
0.680044 0.0630215 0.
0.682045 0.0630238 0.
0.684045 0.0630259 0.
0.686046 0.0630277 0.
0.688047 0.0630295 0.
0.690048 0.063032 0.
0.692048 0.063035 0.
0.694049 0.063038 0.
0.696049 0.0630409 0.
0.698049 0.0630437 0.
0.49995 0.0650401 0.
0.50195 0.065036 0.
0.503951 0.0650322 0.
0.505952 0.065029 0.
0.507953 0.0650277 0.
0.509953 0.0650265 0.
0.511954 0.0650246 0.
0.513954 0.065022 0.
0.515954 0.0650194 0.
0.517955 0.0650169 0.
0.519956 0.0650145 0.
0.521956 0.065012 0.
0.523957 0.0650104 0.
0.525959 0.065009 0.
0.52796 0.0650076 0.
0.529961 0.0650067 0.
0.531962 0.0650058 0.
0.533963 0.0650046 0.
0.535964 0.0650032 0.
0.537965 0.0650018 0.
0.539966 0.0650007 0.
0.541967 0.0649997 0.
0.543967 0.0649988 0.
0.545968 0.0649976 0.
0.547969 0.0649963 0.
0.54997 0.0649951 0.
0.551971 0.064994 0.
0.553973 0.0649929 0.
0.555974 0.0649917 0.
0.557975 0.06499 0.
0.559976 0.0649883 0.
0.561978 0.0649869 0.
0.563979 0.0649857 0.
0.565981 0.0649845 0.
0.567981 0.0649831 0.
0.569982 0.0649815 0.
0.571983 0.0649799 0.
0.573983 0.0649787 0.
0.575983 0.0649776 0.
0.577984 0.0649765 0.
0.579986 0.0649752 0.
0.581988 0.0649739 0.
0.583989 0.0649729 0.
0.58599 0.0649725 0.
0.58799 0.0649721 0.
0.589991 0.0649718 0.
0.591992 0.0649716 0.
0.593993 0.0649713 0.
0.595995 0.0649702 0.
0.597998 0.0649687 0.
0.6 0.0649672 0.
0.602002 0.0649684 0.
0.604004 0.0649695 0.
0.606006 0.0649707 0.
0.608006 0.0649719 0.
0.610007 0.0649731 0.
0.612008 0.0649741 0.
0.61401 0.064975 0.
0.616012 0.0649759 0.
0.618012 0.0649772 0.
0.620012 0.0649788 0.
0.622013 0.0649804 0.
0.624015 0.0649815 0.
0.626018 0.0649826 0.
0.62802 0.0649837 0.
0.63002 0.064985 0.
0.632021 0.0649864 0.
0.634022 0.0649879 0.
0.636022 0.0649898 0.
0.638023 0.0649917 0.
0.640024 0.0649934 0.
0.642024 0.0649951 0.
0.644025 0.0649968 0.
0.646026 0.0649978 0.
0.648028 0.0649987 0.
0.650029 0.0649996 0.
0.65203 0.0650009 0.
0.65403 0.0650021 0.
0.656031 0.0650034 0.
0.658032 0.0650044 0.
0.660033 0.0650054 0.
0.662034 0.065007 0.
0.664036 0.0650092 0.
0.666037 0.0650114 0.
0.668037 0.0650132 0.
0.670038 0.0650148 0.
0.672038 0.0650165 0.
0.674038 0.065017 0.
0.676039 0.0650175 0.
0.67804 0.0650182 0.
0.68004 0.065021 0.
0.682041 0.0650238 0.
0.684041 0.0650262 0.
0.686043 0.0650279 0.
0.688044 0.0650296 0.
0.690045 0.0650319 0.
0.692045 0.0650347 0.
0.694046 0.0650375 0.
0.696045 0.0650403 0.
0.698045 0.065043 0.
0.499952 0.0670402 0.
0.501953 0.0670362 0.
0.503954 0.0670324 0.
0.505955 0.0670291 0.
0.507955 0.0670273 0.
0.509956 0.0670255 0.
0.511957 0.0670235 0.
0.513957 0.0670214 0.
0.515958 0.0670192 0.
0.517958 0.0670168 0.
0.519959 0.0670141 0.
0.52196 0.0670114 0.
0.523961 0.0670098 0.
0.525962 0.0670084 0.
0.527962 0.0670071 0.
0.529964 0.067006 0.
0.531965 0.067005 0.
0.533966 0.0670038 0.
0.535966 0.0670022 0.
0.537967 0.0670007 0.
0.539968 0.0669996 0.
0.541969 0.0669988 0.
0.54397 0.066998 0.
0.54597 0.066997 0.
0.547971 0.0669958 0.
0.549972 0.0669947 0.
0.551973 0.0669935 0.
0.553974 0.0669923 0.
0.555975 0.066991 0.
0.557977 0.0669893 0.
0.559978 0.0669876 0.
0.561979 0.0669861 0.
0.56398 0.0669849 0.
0.565981 0.0669838 0.
0.567982 0.0669824 0.
0.569983 0.0669808 0.
0.571984 0.0669792 0.
0.573985 0.0669779 0.
0.575985 0.0669766 0.
0.577985 0.0669754 0.
0.579987 0.0669742 0.
0.581989 0.066973 0.
0.58399 0.0669721 0.
0.58599 0.0669718 0.
0.58799 0.0669715 0.
0.589991 0.0669711 0.
0.591992 0.0669705 0.
0.593993 0.0669699 0.
0.595995 0.0669692 0.
0.597998 0.0669682 0.
0.6 0.0669673 0.
0.602002 0.066968 0.
0.604004 0.0669687 0.
0.606006 0.0669696 0.
0.608006 0.0669707 0.
0.610007 0.0669719 0.
0.612007 0.0669729 0.
0.614009 0.0669738 0.
0.61601 0.0669747 0.
0.618011 0.0669761 0.
0.620011 0.0669777 0.
0.622012 0.0669794 0.
0.624014 0.0669806 0.
0.626015 0.0669818 0.
0.628017 0.0669831 0.
0.630018 0.0669845 0.
0.632019 0.066986 0.
0.63402 0.0669875 0.
0.636021 0.0669891 0.
0.638022 0.0669907 0.
0.640022 0.0669923 0.
0.642023 0.0669939 0.
0.644023 0.0669956 0.
0.646024 0.0669967 0.
0.648025 0.0669977 0.
0.650027 0.0669988 0.
0.652027 0.0670003 0.
0.654028 0.0670019 0.
0.656028 0.0670033 0.
0.658029 0.0670042 0.
0.66003 0.0670052 0.
0.662031 0.0670067 0.
0.664032 0.0670087 0.
0.666033 0.0670107 0.
0.668034 0.0670125 0.
0.670034 0.0670142 0.
0.672035 0.0670159 0.
0.674035 0.0670166 0.
0.676036 0.0670172 0.
0.678036 0.0670181 0.
0.680037 0.0670205 0.
0.682038 0.067023 0.
0.684039 0.0670254 0.
0.68604 0.0670275 0.
0.68804 0.0670296 0.
0.690041 0.0670321 0.
0.692042 0.0670349 0.
0.694042 0.0670377 0.
0.696042 0.0670402 0.
0.698041 0.0670427 0.
0.499955 0.06904 0.
0.501956 0.0690364 0.
0.503956 0.0690327 0.
0.505957 0.0690293 0.
0.507958 0.0690268 0.
0.509959 0.0690244 0.
0.51196 0.0690224 0.
0.513961 0.0690207 0.
0.515961 0.0690191 0.
0.517962 0.0690167 0.
0.519963 0.0690137 0.
0.521963 0.0690108 0.
0.523964 0.0690092 0.
0.525964 0.0690078 0.
0.527965 0.0690065 0.
0.529966 0.0690054 0.
0.531967 0.0690043 0.
0.533968 0.069003 0.
0.535969 0.0690013 0.
0.537969 0.0689995 0.
0.53997 0.0689985 0.
0.541971 0.0689979 0.
0.543972 0.0689973 0.
0.545972 0.0689963 0.
0.547973 0.0689953 0.
0.549974 0.0689943 0.
0.551975 0.068993 0.
0.553976 0.0689917 0.
0.555977 0.0689903 0.
0.557978 0.0689885 0.
0.559979 0.0689868 0.
0.56198 0.0689853 0.
0.563981 0.0689842 0.
0.565982 0.0689831 0.
0.567983 0.0689817 0.
0.569984 0.0689801 0.
0.571986 0.0689784 0.
0.573986 0.068977 0.
0.575987 0.0689757 0.
0.577987 0.0689743 0.
0.579988 0.0689732 0.
0.58199 0.0689722 0.
0.58399 0.0689714 0.
0.58599 0.0689711 0.
0.58799 0.0689709 0.
0.589991 0.0689703 0.
0.591992 0.0689694 0.
0.593993 0.0689686 0.
0.595996 0.0689681 0.
0.597998 0.0689677 0.
0.6 0.0689673 0.
0.602002 0.0689676 0.
0.604004 0.0689679 0.
0.606006 0.0689684 0.
0.608006 0.0689696 0.
0.610006 0.0689707 0.
0.612007 0.0689717 0.
0.614008 0.0689726 0.
0.616009 0.0689735 0.
0.61801 0.0689749 0.
0.62001 0.0689766 0.
0.622011 0.0689783 0.
0.624012 0.0689798 0.
0.626013 0.0689811 0.
0.628014 0.0689825 0.
0.630015 0.068984 0.
0.632016 0.0689855 0.
0.634018 0.068987 0.
0.636019 0.0689884 0.
0.63802 0.0689897 0.
0.640021 0.0689912 0.
0.642022 0.0689928 0.
0.644022 0.0689943 0.
0.646023 0.0689956 0.
0.648023 0.0689967 0.
0.650024 0.0689979 0.
0.652024 0.0689997 0.
0.654025 0.0690016 0.
0.656025 0.0690032 0.
0.658026 0.0690041 0.
0.660026 0.069005 0.
0.662027 0.0690064 0.
0.664028 0.0690082 0.
0.666029 0.0690101 0.
0.66803 0.0690118 0.
0.670031 0.0690136 0.
0.672032 0.0690153 0.
0.674032 0.0690162 0.
0.676033 0.0690169 0.
0.678033 0.0690179 0.
0.680034 0.0690201 0.
0.682035 0.0690223 0.
0.684036 0.0690246 0.
0.686036 0.0690271 0.
0.688037 0.0690296 0.
0.690037 0.0690323 0.
0.692038 0.0690351 0.
0.694038 0.0690379 0.
0.696038 0.0690402 0.
0.698038 0.0690424 0.
0.499959 0.0710391 0.
0.501959 0.071036 0.
0.50396 0.0710327 0.
0.505961 0.0710295 0.
0.507962 0.0710268 0.
0.509963 0.0710241 0.
0.511963 0.0710218 0.
0.513964 0.0710202 0.
0.515965 0.0710185 0.
0.517965 0.0710161 0.
0.519966 0.0710133 0.
0.521966 0.0710106 0.
0.523967 0.071009 0.
0.525967 0.0710076 0.
0.527968 0.0710062 0.
0.529969 0.0710049 0.
0.53197 0.0710036 0.
0.533971 0.0710022 0.
0.535971 0.0710004 0.
0.537972 0.0709987 0.
0.539972 0.0709976 0.
0.541973 0.0709971 0.
0.543974 0.0709965 0.
0.545975 0.0709955 0.
0.547975 0.0709944 0.
0.549975 0.0709932 0.
0.551976 0.070992 0.
0.553977 0.0709909 0.
0.555978 0.0709897 0.
0.557979 0.0709881 0.
0.559981 0.0709866 0.
0.561981 0.0709851 0.
0.563982 0.0709837 0.
0.565983 0.0709824 0.
0.567984 0.0709809 0.
0.569985 0.0709794 0.
0.571987 0.0709779 0.
0.573987 0.0709765 0.
0.575988 0.0709752 0.
0.577988 0.0709739 0.
0.579989 0.0709728 0.
0.58199 0.0709717 0.
0.58399 0.0709709 0.
0.585991 0.0709706 0.
0.587991 0.0709703 0.
0.589991 0.0709696 0.
0.591993 0.0709686 0.
0.593994 0.0709676 0.
0.595996 0.0709672 0.
0.597998 0.0709671 0.
0.600001 0.070967 0.
0.602002 0.0709672 0.
0.604004 0.0709675 0.
0.606005 0.0709679 0.
0.608006 0.0709689 0.
0.610006 0.07097 0.
0.612006 0.0709709 0.
0.614007 0.0709717 0.
0.616008 0.0709725 0.
0.618008 0.0709739 0.
0.620009 0.0709758 0.
0.62201 0.0709776 0.
0.624011 0.0709791 0.
0.626012 0.0709805 0.
0.628012 0.0709819 0.
0.630013 0.0709834 0.
0.632014 0.0709849 0.
0.634015 0.0709864 0.
0.636017 0.0709876 0.
0.638018 0.0709889 0.
0.640019 0.0709903 0.
0.64202 0.0709919 0.
0.644021 0.0709934 0.
0.646021 0.0709948 0.
0.648021 0.0709961 0.
0.650022 0.0709974 0.
0.652022 0.0709993 0.
0.654022 0.0710013 0.
0.656023 0.0710029 0.
0.658023 0.0710038 0.
0.660023 0.0710046 0.
0.662024 0.0710058 0.
0.664025 0.0710075 0.
0.666026 0.0710093 0.
0.668027 0.0710111 0.
0.670028 0.0710131 0.
0.672028 0.071015 0.
0.674029 0.071016 0.
0.67603 0.0710168 0.
0.67803 0.0710178 0.
0.680031 0.0710199 0.
0.682032 0.071022 0.
0.684033 0.0710243 0.
0.686033 0.071027 0.
0.688033 0.0710297 0.
0.690034 0.0710323 0.
0.692034 0.071035 0.
0.694034 0.0710377 0.
0.696034 0.07104 0.
0.698034 0.0710424 0.
0.499964 0.0730378 0.
0.501964 0.0730352 0.
0.503965 0.0730326 0.
0.505965 0.0730299 0.
0.507965 0.0730272 0.
0.509966 0.0730244 0.
0.511967 0.0730219 0.
0.513967 0.0730197 0.
0.515968 0.0730174 0.
0.517969 0.0730152 0.
0.519969 0.0730129 0.
0.521969 0.0730106 0.
0.52397 0.0730091 0.
0.52597 0.0730076 0.
0.527971 0.0730062 0.
0.529971 0.0730046 0.
0.531972 0.073003 0.
0.533972 0.0730014 0.
0.535973 0.0729997 0.
0.537974 0.0729981 0.
0.539975 0.072997 0.
0.541975 0.0729964 0.
0.543976 0.0729958 0.
0.545977 0.0729945 0.
0.547977 0.0729929 0.
0.549977 0.0729914 0.
0.551978 0.0729906 0.
0.553979 0.07299 0.
0.55598 0.0729892 0.
0.557981 0.072988 0.
0.559982 0.0729868 0.
0.561983 0.0729853 0.
0.563983 0.0729835 0.
0.565984 0.0729816 0.
0.567985 0.0729801 0.
0.569986 0.0729789 0.
0.571988 0.0729776 0.
0.573988 0.0729764 0.
0.575988 0.0729752 0.
0.577989 0.072974 0.
0.579989 0.0729728 0.
0.581989 0.0729717 0.
0.58399 0.0729707 0.
0.585991 0.0729702 0.
0.587991 0.0729697 0.
0.589992 0.0729689 0.
0.591994 0.0729679 0.
0.593995 0.0729669 0.
0.595997 0.0729666 0.
0.597999 0.0729664 0.
0.600001 0.0729662 0.
0.602002 0.0729668 0.
0.604003 0.0729674 0.
0.606004 0.0729681 0.
0.608005 0.0729688 0.
0.610006 0.0729696 0.
0.612007 0.0729704 0.
0.614007 0.072971 0.
0.616007 0.0729717 0.
0.618007 0.0729732 0.
0.620008 0.0729752 0.
0.622009 0.0729771 0.
0.624009 0.0729786 0.
0.62601 0.0729799 0.
0.628011 0.0729813 0.
0.630012 0.0729827 0.
0.632013 0.0729842 0.
0.634013 0.0729856 0.
0.636014 0.0729869 0.
0.638015 0.0729882 0.
0.640016 0.0729897 0.
0.642017 0.0729913 0.
0.644019 0.0729929 0.
0.64602 0.0729944 0.
0.64802 0.0729958 0.
0.650021 0.0729972 0.
0.65202 0.0729991 0.
0.65402 0.073001 0.
0.65602 0.0730025 0.
0.658021 0.0730032 0.
0.660021 0.0730039 0.
0.662022 0.073005 0.
0.664023 0.0730067 0.
0.666024 0.0730083 0.
0.668024 0.0730104 0.
0.670025 0.0730127 0.
0.672025 0.0730151 0.
0.674026 0.073016 0.
0.676027 0.0730167 0.
0.678028 0.0730177 0.
0.680029 0.0730199 0.
0.682029 0.0730221 0.
0.68403 0.0730245 0.
0.68603 0.0730271 0.
0.68803 0.0730298 0.
0.69003 0.0730323 0.
0.69203 0.0730346 0.
0.69403 0.073037 0.
0.69603 0.0730397 0.
0.69803 0.0730426 0.
0.499969 0.0750361 0.
0.501969 0.0750345 0.
0.503969 0.0750325 0.
0.505969 0.0750303 0.
0.507969 0.0750275 0.
0.509969 0.0750247 0.
0.51197 0.075022 0.
0.513971 0.0750192 0.
0.515971 0.0750164 0.
0.517972 0.0750142 0.
0.519972 0.0750124 0.
0.521972 0.0750106 0.
0.523972 0.0750092 0.
0.525973 0.0750077 0.
0.527974 0.0750062 0.
0.529974 0.0750043 0.
0.531974 0.0750024 0.
0.533974 0.0750006 0.
0.535975 0.074999 0.
0.537976 0.0749975 0.
0.539977 0.0749964 0.
0.541978 0.0749958 0.
0.543978 0.0749951 0.
0.545979 0.0749935 0.
0.547979 0.0749915 0.
0.549979 0.0749895 0.
0.55198 0.0749892 0.
0.553981 0.074989 0.
0.555981 0.0749887 0.
0.557982 0.0749879 0.
0.559983 0.0749871 0.
0.561984 0.0749856 0.
0.563985 0.0749832 0.
0.565986 0.0749808 0.
0.567986 0.0749794 0.
0.569987 0.0749783 0.
0.571988 0.0749772 0.
0.573989 0.0749762 0.
0.575989 0.0749752 0.
0.577989 0.0749742 0.
0.579989 0.0749729 0.
0.581989 0.0749716 0.
0.583989 0.0749705 0.
0.585991 0.0749698 0.
0.587992 0.0749691 0.
0.589993 0.0749683 0.
0.591994 0.0749673 0.
0.593996 0.0749663 0.
0.595997 0.0749659 0.
0.597999 0.0749656 0.
0.600001 0.0749654 0.
0.602002 0.0749663 0.
0.604003 0.0749673 0.
0.606004 0.0749682 0.
0.608005 0.0749687 0.
0.610007 0.0749693 0.
0.612007 0.0749699 0.
0.614007 0.0749704 0.
0.616006 0.0749709 0.
0.618006 0.0749725 0.
0.620007 0.0749746 0.
0.622007 0.0749766 0.
0.624008 0.0749781 0.
0.626009 0.0749794 0.
0.62801 0.0749808 0.
0.63001 0.0749821 0.
0.632011 0.0749834 0.
0.634011 0.0749847 0.
0.636012 0.0749861 0.
0.638012 0.0749874 0.
0.640013 0.074989 0.
0.642015 0.0749907 0.
0.644017 0.0749924 0.
0.646018 0.074994 0.
0.648019 0.0749955 0.
0.650019 0.074997 0.
0.652019 0.0749988 0.
0.654018 0.0750007 0.
0.656018 0.0750022 0.
0.658018 0.0750027 0.
0.660019 0.0750032 0.
0.66202 0.0750042 0.
0.664021 0.0750058 0.
0.666021 0.0750074 0.
0.668021 0.0750097 0.
0.670021 0.0750124 0.
0.672022 0.0750151 0.
0.674023 0.075016 0.
0.676024 0.0750167 0.
0.678025 0.0750176 0.
0.680026 0.0750199 0.
0.682026 0.0750223 0.
0.684026 0.0750247 0.
0.686026 0.0750273 0.
0.688026 0.0750299 0.
0.690026 0.0750323 0.
0.692026 0.0750343 0.
0.694026 0.0750363 0.
0.696026 0.0750394 0.
0.698026 0.0750428 0.
0.499972 0.0770363 0.
0.501972 0.0770342 0.
0.503972 0.0770321 0.
0.505972 0.0770298 0.
0.507972 0.0770271 0.
0.509973 0.0770244 0.
0.511973 0.0770218 0.
0.513974 0.0770192 0.
0.515975 0.0770166 0.
0.517975 0.0770144 0.
0.519975 0.0770123 0.
0.521975 0.0770102 0.
0.523976 0.0770087 0.
0.525976 0.0770073 0.
0.527977 0.0770059 0.
0.529977 0.0770039 0.
0.531977 0.0770018 0.
0.533978 0.077 0.
0.535978 0.0769986 0.
0.537979 0.0769972 0.
0.539979 0.076996 0.
0.54198 0.076995 0.
0.54398 0.076994 0.
0.545981 0.0769927 0.
0.547981 0.0769912 0.
0.549981 0.0769897 0.
0.551982 0.0769893 0.
0.553983 0.0769889 0.
0.555983 0.0769884 0.
0.557984 0.0769874 0.
0.559985 0.0769865 0.
0.561986 0.076985 0.
0.563986 0.0769827 0.
0.565987 0.0769804 0.
0.567987 0.076979 0.
0.569988 0.0769781 0.
0.571989 0.0769771 0.
0.573989 0.076976 0.
0.57599 0.076975 0.
0.57799 0.0769738 0.
0.57999 0.0769723 0.
0.58199 0.0769708 0.
0.583991 0.0769696 0.
0.585992 0.0769691 0.
0.587993 0.0769685 0.
0.589994 0.0769677 0.
0.591995 0.0769667 0.
0.593996 0.0769656 0.
0.595997 0.0769653 0.
0.597999 0.0769652 0.
0.6 0.0769651 0.
0.602001 0.0769658 0.
0.604002 0.0769665 0.
0.606003 0.0769672 0.
0.608004 0.0769681 0.
0.610005 0.0769689 0.
0.612005 0.0769695 0.
0.614005 0.0769698 0.
0.616005 0.0769701 0.
0.618006 0.0769715 0.
0.620006 0.0769736 0.
0.622006 0.0769756 0.
0.624007 0.0769769 0.
0.626008 0.0769782 0.
0.628008 0.0769795 0.
0.630009 0.076981 0.
0.632009 0.0769825 0.
0.63401 0.0769839 0.
0.63601 0.0769852 0.
0.638011 0.0769864 0.
0.640012 0.076988 0.
0.642013 0.0769899 0.
0.644015 0.0769918 0.
0.646015 0.0769935 0.
0.648016 0.0769952 0.
0.650016 0.076997 0.
0.652016 0.0769984 0.
0.654015 0.0769998 0.
0.656015 0.077001 0.
0.658016 0.0770019 0.
0.660017 0.0770027 0.
0.662017 0.077004 0.
0.664018 0.0770055 0.
0.666019 0.0770071 0.
0.668019 0.0770094 0.
0.670019 0.077012 0.
0.672019 0.0770147 0.
0.67402 0.0770158 0.
0.676021 0.0770166 0.
0.678022 0.0770176 0.
0.680023 0.0770196 0.
0.682023 0.0770217 0.
0.684023 0.077024 0.
0.686023 0.0770269 0.
0.688023 0.0770298 0.
0.690023 0.0770323 0.
0.692023 0.0770344 0.
0.694024 0.0770365 0.
0.696024 0.0770392 0.
0.698024 0.0770421 0.
0.499976 0.0790364 0.
0.501976 0.079034 0.
0.503976 0.0790317 0.
0.505976 0.0790293 0.
0.507976 0.0790267 0.
0.509976 0.0790241 0.
0.511976 0.0790216 0.
0.513977 0.0790192 0.
0.515978 0.0790169 0.
0.517978 0.0790145 0.
0.519978 0.0790121 0.
0.521979 0.0790097 0.
0.523979 0.0790083 0.
0.525979 0.079007 0.
0.52798 0.0790056 0.
0.52998 0.0790034 0.
0.531981 0.0790013 0.
0.533981 0.0789994 0.
0.535981 0.0789982 0.
0.537982 0.078997 0.
0.539982 0.0789957 0.
0.541982 0.0789943 0.
0.543982 0.0789929 0.
0.545983 0.0789919 0.
0.547983 0.0789909 0.
0.549983 0.0789899 0.
0.551984 0.0789893 0.
0.553985 0.0789888 0.
0.555985 0.0789881 0.
0.557986 0.078987 0.
0.559987 0.0789859 0.
0.561988 0.0789844 0.
0.563988 0.0789822 0.
0.565988 0.07898 0.
0.567988 0.0789787 0.
0.569989 0.0789778 0.
0.571989 0.0789769 0.
0.57399 0.0789759 0.
0.57599 0.0789747 0.
0.577991 0.0789735 0.
0.579991 0.0789718 0.
0.581992 0.0789701 0.
0.583993 0.0789688 0.
0.585994 0.0789683 0.
0.587995 0.0789678 0.
0.589995 0.0789671 0.
0.591996 0.078966 0.
0.593996 0.078965 0.
0.595997 0.0789647 0.
0.597998 0.0789647 0.
0.6 0.0789647 0.
0.602001 0.0789652 0.
0.604001 0.0789657 0.
0.606002 0.0789663 0.
0.608003 0.0789674 0.
0.610003 0.0789685 0.
0.612004 0.0789691 0.
0.614004 0.0789692 0.
0.616005 0.0789692 0.
0.618005 0.0789706 0.
0.620005 0.0789726 0.
0.622005 0.0789745 0.
0.624006 0.0789758 0.
0.626006 0.0789769 0.
0.628007 0.0789782 0.
0.630007 0.0789799 0.
0.632008 0.0789816 0.
0.634008 0.0789831 0.
0.636009 0.0789842 0.
0.63801 0.0789853 0.
0.640011 0.078987 0.
0.642012 0.078989 0.
0.644013 0.0789911 0.
0.646013 0.078993 0.
0.648013 0.078995 0.
0.650012 0.0789969 0.
0.652013 0.0789979 0.
0.654013 0.0789989 0.
0.656013 0.0789999 0.
0.658014 0.0790011 0.
0.660014 0.0790023 0.
0.662015 0.0790037 0.
0.664015 0.0790052 0.
0.666016 0.0790068 0.
0.668016 0.079009 0.
0.670016 0.0790117 0.
0.672016 0.0790143 0.
0.674017 0.0790155 0.
0.676018 0.0790166 0.
0.678019 0.0790177 0.
0.680019 0.0790194 0.
0.68202 0.0790211 0.
0.68402 0.0790233 0.
0.68602 0.0790265 0.
0.68802 0.0790296 0.
0.69002 0.0790323 0.
0.692021 0.0790345 0.
0.694021 0.0790367 0.
0.696021 0.0790391 0.
0.698021 0.0790415 0.
0.499978 0.0810367 0.
0.501978 0.0810343 0.
0.503978 0.0810319 0.
0.505979 0.0810295 0.
0.507979 0.0810268 0.
0.509979 0.0810242 0.
0.511979 0.0810216 0.
0.51398 0.0810192 0.
0.51598 0.0810167 0.
0.517981 0.0810144 0.
0.519981 0.081012 0.
0.521981 0.0810096 0.
0.523982 0.081008 0.
0.525982 0.0810066 0.
0.527983 0.081005 0.
0.529983 0.081003 0.
0.531983 0.0810009 0.
0.533984 0.0809991 0.
0.535984 0.0809979 0.
0.537984 0.0809966 0.
0.539984 0.0809953 0.
0.541984 0.0809938 0.
0.543984 0.0809924 0.
0.545984 0.0809915 0.
0.547985 0.0809908 0.
0.549985 0.08099 0.
0.551986 0.0809892 0.
0.553986 0.0809883 0.
0.555987 0.0809874 0.
0.557988 0.0809863 0.
0.559989 0.0809853 0.
0.561989 0.0809839 0.
0.563989 0.0809819 0.
0.565989 0.0809799 0.
0.567989 0.0809787 0.
0.56999 0.0809779 0.
0.571991 0.080977 0.
0.573991 0.0809759 0.
0.575992 0.0809746 0.
0.577992 0.0809732 0.
0.579993 0.0809716 0.
0.581993 0.0809699 0.
0.583994 0.0809686 0.
0.585995 0.080968 0.
0.587996 0.0809675 0.
0.589996 0.0809666 0.
0.591996 0.0809656 0.
0.593996 0.0809646 0.
0.595997 0.0809644 0.
0.597998 0.0809645 0.
0.599999 0.0809646 0.
0.602 0.0809649 0.
0.604001 0.0809653 0.
0.606001 0.0809658 0.
0.608002 0.080967 0.
0.610002 0.0809682 0.
0.612002 0.0809688 0.
0.614003 0.0809688 0.
0.616004 0.0809688 0.
0.618004 0.0809702 0.
0.620004 0.0809722 0.
0.622004 0.0809743 0.
0.624005 0.0809755 0.
0.626005 0.0809765 0.
0.628005 0.0809776 0.
0.630006 0.0809793 0.
0.632006 0.0809809 0.
0.634007 0.0809823 0.
0.636008 0.0809834 0.
0.638009 0.0809846 0.
0.640009 0.0809862 0.
0.64201 0.0809884 0.
0.64401 0.0809905 0.
0.64601 0.0809926 0.
0.64801 0.0809947 0.
0.65001 0.0809967 0.
0.65201 0.0809975 0.
0.654011 0.0809982 0.
0.656011 0.0809991 0.
0.658012 0.0810005 0.
0.660012 0.0810018 0.
0.662013 0.0810034 0.
0.664013 0.0810051 0.
0.666013 0.0810067 0.
0.668014 0.0810089 0.
0.670014 0.0810113 0.
0.672014 0.0810138 0.
0.674015 0.0810151 0.
0.676015 0.0810163 0.
0.678016 0.0810176 0.
0.680016 0.0810192 0.
0.682017 0.0810208 0.
0.684017 0.081023 0.
0.686017 0.0810262 0.
0.688017 0.0810293 0.
0.690017 0.081032 0.
0.692018 0.0810343 0.
0.694018 0.0810367 0.
0.696019 0.0810389 0.
0.698019 0.0810411 0.
0.499979 0.0830371 0.
0.50198 0.0830349 0.
0.503981 0.0830327 0.
0.505981 0.0830304 0.
0.507982 0.0830275 0.
0.509982 0.0830246 0.
0.511982 0.0830218 0.
0.513982 0.0830191 0.
0.515982 0.0830163 0.
0.517983 0.083014 0.
0.519983 0.0830118 0.
0.521983 0.0830097 0.
0.523984 0.0830079 0.
0.525985 0.083006 0.
0.527985 0.0830042 0.
0.529986 0.0830025 0.
0.531986 0.0830009 0.
0.533986 0.0829992 0.
0.535986 0.0829977 0.
0.537986 0.0829961 0.
0.539986 0.0829948 0.
0.541986 0.0829937 0.
0.543986 0.0829925 0.
0.545986 0.0829916 0.
0.547986 0.0829908 0.
0.549987 0.08299 0.
0.551987 0.0829888 0.
0.553988 0.0829875 0.
0.555988 0.0829864 0.
0.557989 0.0829855 0.
0.55999 0.0829847 0.
0.56199 0.0829834 0.
0.563991 0.0829818 0.
0.565991 0.0829801 0.
0.567992 0.082979 0.
0.569992 0.0829782 0.
0.571993 0.0829774 0.
0.573993 0.082976 0.
0.575994 0.0829746 0.
0.577994 0.0829731 0.
0.579994 0.0829718 0.
0.581994 0.0829704 0.
0.583995 0.0829692 0.
0.585995 0.0829683 0.
0.587996 0.0829673 0.
0.589996 0.0829664 0.
0.591997 0.0829655 0.
0.593997 0.0829645 0.
0.595997 0.0829644 0.
0.597998 0.0829646 0.
0.599999 0.0829648 0.
0.601999 0.082965 0.
0.604 0.0829653 0.
0.606001 0.0829657 0.
0.608001 0.0829668 0.
0.610001 0.0829679 0.
0.612001 0.0829686 0.
0.614002 0.0829687 0.
0.616003 0.0829689 0.
0.618003 0.0829704 0.
0.620003 0.0829727 0.
0.622003 0.0829749 0.
0.624003 0.082976 0.
0.626004 0.0829769 0.
0.628004 0.0829778 0.
0.630004 0.0829791 0.
0.632005 0.0829804 0.
0.634006 0.0829816 0.
0.636007 0.0829828 0.
0.638008 0.082984 0.
0.640008 0.0829858 0.
0.642008 0.0829879 0.
0.644007 0.0829901 0.
0.646007 0.0829922 0.
0.648007 0.0829943 0.
0.650008 0.0829964 0.
0.652008 0.0829971 0.
0.654009 0.0829978 0.
0.656009 0.0829987 0.
0.65801 0.083 0.
0.66001 0.0830014 0.
0.662011 0.083003 0.
0.664011 0.083005 0.
0.666011 0.083007 0.
0.668012 0.083009 0.
0.670012 0.083011 0.
0.672012 0.083013 0.
0.674012 0.0830145 0.
0.676013 0.0830159 0.
0.678013 0.0830174 0.
0.680013 0.0830191 0.
0.682014 0.0830209 0.
0.684014 0.0830231 0.
0.686014 0.0830259 0.
0.688014 0.0830288 0.
0.690014 0.0830314 0.
0.692014 0.0830339 0.
0.694015 0.0830364 0.
0.696015 0.0830386 0.
0.698016 0.0830408 0.
0.499981 0.0850377 0.
0.501982 0.0850356 0.
0.503983 0.0850335 0.
0.505984 0.0850312 0.
0.507984 0.0850282 0.
0.509985 0.0850251 0.
0.511985 0.085022 0.
0.513985 0.0850189 0.
0.515985 0.0850158 0.
0.517985 0.0850135 0.
0.519985 0.0850117 0.
0.521986 0.0850098 0.
0.523986 0.0850077 0.
0.525987 0.0850055 0.
0.527988 0.0850034 0.
0.529988 0.0850021 0.
0.531989 0.0850008 0.
0.533989 0.0849993 0.
0.535988 0.0849975 0.
0.537988 0.0849957 0.
0.539987 0.0849944 0.
0.541987 0.0849935 0.
0.543987 0.0849926 0.
0.545988 0.0849917 0.
0.547988 0.0849909 0.
0.549988 0.08499 0.
0.551989 0.0849884 0.
0.553989 0.0849868 0.
0.55599 0.0849853 0.
0.55799 0.0849847 0.
0.559991 0.084984 0.
0.561992 0.0849831 0.
0.563992 0.0849817 0.
0.565993 0.0849803 0.
0.567994 0.0849793 0.
0.569995 0.0849785 0.
0.571996 0.0849777 0.
0.573996 0.0849762 0.
0.575995 0.0849746 0.
0.577995 0.084973 0.
0.579995 0.0849719 0.
0.581995 0.0849709 0.
0.583996 0.0849697 0.
0.585996 0.0849685 0.
0.587996 0.0849672 0.
0.589997 0.0849661 0.
0.591997 0.0849653 0.
0.593997 0.0849644 0.
0.595997 0.0849644 0.
0.597998 0.0849647 0.
0.599998 0.0849649 0.
0.601999 0.0849651 0.
0.603999 0.0849652 0.
0.606 0.0849656 0.
0.608 0.0849666 0.
0.61 0.0849676 0.
0.612 0.0849683 0.
0.614001 0.0849686 0.
0.616002 0.0849689 0.
0.618002 0.0849707 0.
0.620002 0.0849731 0.
0.622003 0.0849756 0.
0.624002 0.0849765 0.
0.626002 0.0849772 0.
0.628002 0.084978 0.
0.630003 0.084979 0.
0.632004 0.0849799 0.
0.634005 0.0849809 0.
0.636006 0.0849822 0.
0.638007 0.0849835 0.
0.640007 0.0849853 0.
0.642005 0.0849875 0.
0.644004 0.0849897 0.
0.646005 0.0849918 0.
0.648005 0.0849939 0.
0.650006 0.0849961 0.
0.652006 0.0849967 0.
0.654007 0.0849974 0.
0.656007 0.0849982 0.
0.658008 0.0849995 0.
0.660008 0.0850009 0.
0.662009 0.0850026 0.
0.664009 0.085005 0.
0.666009 0.0850073 0.
0.668009 0.0850091 0.
0.67001 0.0850107 0.
0.67201 0.0850123 0.
0.67401 0.0850139 0.
0.67601 0.0850155 0.
0.67801 0.0850171 0.
0.68001 0.0850191 0.
0.682011 0.085021 0.
0.684011 0.0850231 0.
0.686011 0.0850257 0.
0.688011 0.0850283 0.
0.690011 0.0850309 0.
0.692011 0.0850335 0.
0.694011 0.0850361 0.
0.696012 0.0850384 0.
0.698014 0.0850406 0.
0.499986 0.0870375 0.
0.501987 0.0870355 0.
0.503987 0.0870332 0.
0.505988 0.0870309 0.
0.507988 0.0870279 0.
0.509989 0.087025 0.
0.511989 0.0870219 0.
0.513988 0.0870188 0.
0.515988 0.0870156 0.
0.517988 0.0870133 0.
0.519988 0.0870114 0.
0.521988 0.0870095 0.
0.523989 0.0870076 0.
0.525989 0.0870058 0.
0.527989 0.0870039 0.
0.52999 0.0870024 0.
0.53199 0.0870008 0.
0.53399 0.0869992 0.
0.53599 0.0869974 0.
0.537989 0.0869957 0.
0.539989 0.0869944 0.
0.54199 0.0869935 0.
0.54399 0.0869927 0.
0.54599 0.0869916 0.
0.54799 0.0869905 0.
0.54999 0.0869894 0.
0.55199 0.0869879 0.
0.553991 0.0869863 0.
0.555991 0.0869849 0.
0.557992 0.0869841 0.
0.559992 0.0869834 0.
0.561992 0.0869824 0.
0.563993 0.0869811 0.
0.565994 0.0869798 0.
0.567995 0.0869788 0.
0.569995 0.0869781 0.
0.571996 0.0869773 0.
0.573996 0.0869757 0.
0.575996 0.086974 0.
0.577996 0.0869724 0.
0.579996 0.0869714 0.
0.581997 0.0869704 0.
0.583997 0.0869693 0.
0.585997 0.0869679 0.
0.587997 0.0869666 0.
0.589997 0.0869657 0.
0.591998 0.0869653 0.
0.593998 0.0869648 0.
0.595998 0.0869647 0.
0.597998 0.0869646 0.
0.599999 0.0869646 0.
0.601999 0.0869647 0.
0.603999 0.0869649 0.
0.606 0.0869652 0.
0.608 0.086966 0.
0.61 0.0869668 0.
0.612 0.0869677 0.
0.614 0.0869684 0.
0.616 0.0869691 0.
0.618001 0.0869709 0.
0.620001 0.0869733 0.
0.622001 0.0869756 0.
0.624001 0.0869765 0.
0.626001 0.0869773 0.
0.628001 0.0869781 0.
0.630002 0.0869791 0.
0.632003 0.08698 0.
0.634003 0.0869811 0.
0.636004 0.0869824 0.
0.638004 0.0869837 0.
0.640004 0.0869855 0.
0.642003 0.0869875 0.
0.644002 0.0869895 0.
0.646003 0.0869914 0.
0.648003 0.0869933 0.
0.650004 0.0869952 0.
0.652004 0.086996 0.
0.654005 0.0869968 0.
0.656005 0.0869977 0.
0.658006 0.0869993 0.
0.660006 0.0870009 0.
0.662006 0.0870027 0.
0.664006 0.0870046 0.
0.666007 0.0870065 0.
0.668007 0.0870084 0.
0.670007 0.0870102 0.
0.672008 0.0870119 0.
0.674008 0.0870137 0.
0.676008 0.0870154 0.
0.678008 0.0870172 0.
0.680008 0.0870191 0.
0.682008 0.0870211 0.
0.684008 0.0870233 0.
0.686008 0.087026 0.
0.688008 0.0870287 0.
0.690008 0.0870312 0.
0.692008 0.0870336 0.
0.694009 0.0870359 0.
0.696009 0.0870382 0.
0.69801 0.0870404 0.
0.499991 0.0890376 0.
0.501991 0.0890353 0.
0.503992 0.089033 0.
0.505992 0.0890305 0.
0.507992 0.0890277 0.
0.509992 0.0890248 0.
0.511992 0.0890218 0.
0.513991 0.0890186 0.
0.515991 0.0890154 0.
0.517991 0.089013 0.
0.519991 0.089011 0.
0.521991 0.0890091 0.
0.523991 0.0890075 0.
0.525991 0.089006 0.
0.52799 0.0890044 0.
0.529991 0.0890026 0.
0.531992 0.0890008 0.
0.533992 0.088999 0.
0.535991 0.0889974 0.
0.537991 0.0889957 0.
0.539991 0.0889944 0.
0.541992 0.0889936 0.
0.543992 0.0889927 0.
0.545992 0.0889915 0.
0.547992 0.0889901 0.
0.549991 0.0889888 0.
0.551992 0.0889873 0.
0.553992 0.0889859 0.
0.555993 0.0889845 0.
0.557993 0.0889836 0.
0.559993 0.0889827 0.
0.561993 0.0889817 0.
0.563994 0.0889805 0.
0.565995 0.0889793 0.
0.567995 0.0889784 0.
0.569996 0.0889776 0.
0.571997 0.0889768 0.
0.573997 0.0889752 0.
0.575997 0.0889734 0.
0.577997 0.0889718 0.
0.579998 0.0889708 0.
0.581998 0.0889699 0.
0.583998 0.0889688 0.
0.585998 0.0889674 0.
0.587998 0.088966 0.
0.589998 0.0889653 0.
0.591998 0.0889653 0.
0.593998 0.0889653 0.
0.595999 0.088965 0.
0.597999 0.0889646 0.
0.599999 0.0889642 0.
0.601999 0.0889643 0.
0.603999 0.0889645 0.
0.605999 0.0889647 0.
0.608 0.0889654 0.
0.61 0.0889661 0.
0.612 0.088967 0.
0.614 0.0889682 0.
0.615999 0.0889693 0.
0.617999 0.0889712 0.
0.619999 0.0889734 0.
0.621999 0.0889757 0.
0.624 0.0889766 0.
0.626 0.0889774 0.
0.628 0.0889782 0.
0.630001 0.0889792 0.
0.632001 0.0889802 0.
0.634002 0.0889813 0.
0.636001 0.0889826 0.
0.638001 0.088984 0.
0.640001 0.0889856 0.
0.642001 0.0889875 0.
0.644 0.0889894 0.
0.646001 0.088991 0.
0.648002 0.0889927 0.
0.650002 0.0889944 0.
0.652002 0.0889952 0.
0.654003 0.0889961 0.
0.656003 0.0889972 0.
0.658003 0.0889991 0.
0.660003 0.0890009 0.
0.662004 0.0890027 0.
0.664004 0.0890043 0.
0.666004 0.0890058 0.
0.668005 0.0890076 0.
0.670005 0.0890096 0.
0.672006 0.0890115 0.
0.674006 0.0890134 0.
0.676006 0.0890153 0.
0.678006 0.0890172 0.
0.680006 0.0890192 0.
0.682006 0.0890212 0.
0.684006 0.0890234 0.
0.686005 0.0890263 0.
0.688005 0.0890291 0.
0.690005 0.0890316 0.
0.692006 0.0890337 0.
0.694006 0.0890358 0.
0.696006 0.089038 0.
0.698006 0.0890403 0.
0.499994 0.0910374 0.
0.501994 0.0910353 0.
0.503995 0.0910329 0.
0.505995 0.0910305 0.
0.507995 0.0910278 0.
0.509995 0.091025 0.
0.511995 0.091022 0.
0.513994 0.0910187 0.
0.515994 0.0910154 0.
0.517994 0.0910129 0.
0.519994 0.0910109 0.
0.521994 0.0910088 0.
0.523993 0.0910075 0.
0.525993 0.0910062 0.
0.527993 0.0910048 0.
0.529993 0.0910028 0.
0.531993 0.0910007 0.
0.533993 0.0909988 0.
0.535993 0.0909973 0.
0.537993 0.0909958 0.
0.539993 0.0909946 0.
0.541994 0.0909938 0.
0.543994 0.0909929 0.
0.545994 0.0909916 0.
0.547994 0.0909902 0.
0.549993 0.0909888 0.
0.551994 0.0909873 0.
0.553994 0.0909858 0.
0.555995 0.0909844 0.
0.557994 0.0909832 0.
0.559994 0.0909821 0.
0.561994 0.090981 0.
0.563995 0.0909799 0.
0.565996 0.0909788 0.
0.567996 0.090978 0.
0.569997 0.0909773 0.
0.571997 0.0909767 0.
0.573997 0.0909749 0.
0.575998 0.0909729 0.
0.577998 0.0909711 0.
0.579998 0.0909701 0.
0.581998 0.0909692 0.
0.583999 0.0909681 0.
0.585999 0.0909669 0.
0.587999 0.0909656 0.
0.589999 0.0909652 0.
0.591999 0.0909654 0.
0.593999 0.0909656 0.
0.595999 0.0909651 0.
0.597999 0.0909643 0.
0.599999 0.0909636 0.
0.601999 0.0909639 0.
0.603999 0.0909642 0.
0.605999 0.0909646 0.
0.608 0.0909653 0.
0.61 0.090966 0.
0.611999 0.090967 0.
0.613999 0.0909683 0.
0.615998 0.0909696 0.
0.617998 0.0909714 0.
0.619998 0.0909735 0.
0.621998 0.0909756 0.
0.623998 0.0909764 0.
0.625998 0.0909771 0.
0.627999 0.0909778 0.
0.629999 0.0909789 0.
0.632 0.09098 0.
0.634 0.0909813 0.
0.635999 0.0909827 0.
0.637999 0.0909841 0.
0.639999 0.0909858 0.
0.641999 0.0909877 0.
0.643999 0.0909896 0.
0.645999 0.0909911 0.
0.648 0.0909925 0.
0.65 0.0909939 0.
0.652 0.0909948 0.
0.654001 0.0909957 0.
0.656001 0.0909969 0.
0.658001 0.0909988 0.
0.660002 0.0910007 0.
0.662002 0.0910025 0.
0.664002 0.091004 0.
0.666003 0.0910056 0.
0.668003 0.0910073 0.
0.670003 0.0910092 0.
0.672004 0.0910111 0.
0.674004 0.0910131 0.
0.676004 0.0910152 0.
0.678004 0.0910173 0.
0.680004 0.0910193 0.
0.682003 0.0910213 0.
0.684003 0.0910236 0.
0.686003 0.0910264 0.
0.688003 0.0910291 0.
0.690003 0.0910316 0.
0.692003 0.0910336 0.
0.694004 0.0910357 0.
0.696003 0.091038 0.
0.698002 0.0910404 0.
0.499996 0.0930375 0.
0.501996 0.0930352 0.
0.503997 0.093033 0.
0.505997 0.0930308 0.
0.507997 0.0930281 0.
0.509997 0.0930254 0.
0.511997 0.0930224 0.
0.513997 0.093019 0.
0.515996 0.0930156 0.
0.517996 0.093013 0.
0.519996 0.0930109 0.
0.521996 0.0930087 0.
0.523996 0.0930075 0.
0.525996 0.0930064 0.
0.527996 0.0930051 0.
0.529995 0.0930028 0.
0.531995 0.0930005 0.
0.533995 0.0929985 0.
0.535995 0.0929973 0.
0.537995 0.0929961 0.
0.539996 0.092995 0.
0.541996 0.0929942 0.
0.543997 0.0929933 0.
0.545997 0.092992 0.
0.547996 0.0929907 0.
0.549996 0.0929894 0.
0.551996 0.0929877 0.
0.553996 0.0929861 0.
0.555996 0.0929845 0.
0.557997 0.092983 0.
0.559997 0.0929816 0.
0.561997 0.0929803 0.
0.563997 0.0929794 0.
0.565997 0.0929784 0.
0.567998 0.0929777 0.
0.569998 0.0929772 0.
0.571998 0.0929767 0.
0.573998 0.0929747 0.
0.575998 0.0929725 0.
0.577998 0.0929705 0.
0.579998 0.0929693 0.
0.581998 0.0929682 0.
0.583999 0.0929672 0.
0.585999 0.0929664 0.
0.587999 0.0929656 0.
0.589999 0.0929653 0.
0.591999 0.0929655 0.
0.593998 0.0929657 0.
0.595998 0.0929649 0.
0.597999 0.0929638 0.
0.599999 0.0929626 0.
0.601999 0.0929633 0.
0.603999 0.092964 0.
0.605999 0.0929647 0.
0.607999 0.0929656 0.
0.609998 0.0929666 0.
0.611998 0.0929676 0.
0.613997 0.0929688 0.
0.615996 0.09297 0.
0.617996 0.0929717 0.
0.619996 0.0929735 0.
0.621997 0.0929754 0.
0.623997 0.0929759 0.
0.625997 0.0929764 0.
0.627997 0.0929769 0.
0.629997 0.0929783 0.
0.631998 0.0929796 0.
0.633998 0.092981 0.
0.635997 0.0929825 0.
0.637997 0.092984 0.
0.639997 0.0929859 0.
0.641997 0.092988 0.
0.643997 0.0929902 0.
0.645997 0.0929915 0.
0.647998 0.0929926 0.
0.649998 0.0929937 0.
0.651998 0.0929947 0.
0.653999 0.0929957 0.
0.655999 0.0929969 0.
0.658 0.0929985 0.
0.66 0.0930002 0.
0.662 0.093002 0.
0.664001 0.0930039 0.
0.666001 0.0930058 0.
0.668001 0.0930074 0.
0.670001 0.093009 0.
0.672001 0.0930105 0.
0.674001 0.0930127 0.
0.676002 0.0930151 0.
0.678002 0.0930174 0.
0.680001 0.0930194 0.
0.682001 0.0930215 0.
0.684 0.0930237 0.
0.686 0.0930263 0.
0.688001 0.0930288 0.
0.690001 0.0930312 0.
0.692001 0.0930335 0.
0.694001 0.0930358 0.
0.696001 0.0930383 0.
0.698 0.0930409 0.
0.499998 0.095037 0.
0.501998 0.0950352 0.
0.503999 0.0950332 0.
0.506 0.0950311 0.
0.507999 0.0950285 0.
0.509999 0.0950259 0.
0.511999 0.0950229 0.
0.513999 0.0950193 0.
0.515999 0.0950157 0.
0.517999 0.0950131 0.
0.519999 0.0950108 0.
0.521999 0.0950086 0.
0.523999 0.0950075 0.
0.525999 0.0950066 0.
0.527999 0.0950054 0.
0.529998 0.0950029 0.
0.531997 0.0950003 0.
0.533997 0.0949983 0.
0.535997 0.0949973 0.
0.537998 0.0949964 0.
0.539998 0.0949955 0.
0.541998 0.0949945 0.
0.543999 0.0949936 0.
0.545999 0.0949924 0.
0.547999 0.0949912 0.
0.549999 0.0949899 0.
0.551999 0.0949882 0.
0.553998 0.0949864 0.
0.555998 0.0949846 0.
0.557999 0.0949829 0.
0.559999 0.0949811 0.
0.561999 0.0949797 0.
0.563999 0.0949788 0.
0.565999 0.0949779 0.
0.567999 0.0949774 0.
0.569999 0.0949771 0.
0.571999 0.0949768 0.
0.573999 0.0949745 0.
0.575998 0.0949721 0.
0.577998 0.0949698 0.
0.579998 0.0949685 0.
0.581998 0.0949672 0.
0.583999 0.0949662 0.
0.585999 0.0949658 0.
0.587999 0.0949655 0.
0.589999 0.0949654 0.
0.591998 0.0949656 0.
0.593998 0.0949659 0.
0.595998 0.0949648 0.
0.597999 0.0949633 0.
0.599999 0.0949617 0.
0.601999 0.0949627 0.
0.603999 0.0949637 0.
0.605999 0.0949648 0.
0.607998 0.094966 0.
0.609997 0.0949672 0.
0.611996 0.0949683 0.
0.613995 0.0949693 0.
0.615994 0.0949704 0.
0.617994 0.0949719 0.
0.619995 0.0949735 0.
0.621995 0.0949751 0.
0.623995 0.0949755 0.
0.625995 0.0949757 0.
0.627995 0.094976 0.
0.629995 0.0949776 0.
0.631995 0.0949793 0.
0.633995 0.0949808 0.
0.635995 0.0949824 0.
0.637995 0.0949839 0.
0.639995 0.094986 0.
0.641995 0.0949884 0.
0.643996 0.0949908 0.
0.645996 0.0949919 0.
0.647996 0.0949927 0.
0.649996 0.0949934 0.
0.651996 0.0949946 0.
0.653997 0.0949957 0.
0.655997 0.0949968 0.
0.657998 0.0949982 0.
0.659998 0.0949996 0.
0.661999 0.0950014 0.
0.663999 0.0950037 0.
0.666 0.0950059 0.
0.667999 0.0950075 0.
0.669999 0.0950087 0.
0.671999 0.09501 0.
0.673999 0.0950124 0.
0.675999 0.0950149 0.
0.677999 0.0950174 0.
0.679999 0.0950196 0.
0.681998 0.0950217 0.
0.683997 0.0950239 0.
0.685998 0.0950262 0.
0.687999 0.0950285 0.
0.689999 0.0950309 0.
0.691999 0.0950333 0.
0.693998 0.0950358 0.
0.695998 0.0950385 0.
0.697998 0.0950413 0.
0.500001 0.0970366 0.
0.502002 0.097035 0.
0.504002 0.0970333 0.
0.506002 0.0970313 0.
0.508002 0.0970286 0.
0.510002 0.0970259 0.
0.512002 0.0970228 0.
0.514002 0.0970194 0.
0.516002 0.097016 0.
0.518002 0.0970133 0.
0.520001 0.097011 0.
0.522001 0.0970087 0.
0.524001 0.0970075 0.
0.526001 0.0970064 0.
0.528001 0.0970053 0.
0.53 0.0970029 0.
0.531999 0.0970006 0.
0.533999 0.0969987 0.
0.535999 0.0969975 0.
0.538 0.0969963 0.
0.54 0.0969953 0.
0.542 0.0969944 0.
0.543999 0.0969935 0.
0.546 0.0969922 0.
0.548 0.0969909 0.
0.55 0.0969895 0.
0.552 0.0969876 0.
0.554 0.0969858 0.
0.556 0.0969841 0.
0.558 0.0969828 0.
0.56 0.0969815 0.
0.562 0.0969803 0.
0.564 0.0969791 0.
0.566 0.096978 0.
0.568 0.0969774 0.
0.569999 0.0969772 0.
0.571999 0.0969769 0.
0.574 0.0969747 0.
0.576 0.0969722 0.
0.578001 0.0969698 0.
0.58 0.0969685 0.
0.581999 0.0969671 0.
0.583999 0.0969662 0.
0.585999 0.096966 0.
0.587999 0.0969658 0.
0.589999 0.0969659 0.
0.591998 0.0969663 0.
0.593998 0.0969666 0.
0.595998 0.0969654 0.
0.597998 0.0969635 0.
0.599998 0.0969617 0.
0.601998 0.0969625 0.
0.603997 0.0969633 0.
0.605997 0.0969643 0.
0.607996 0.096966 0.
0.609996 0.0969677 0.
0.611995 0.0969691 0.
0.613994 0.09697 0.
0.615993 0.096971 0.
0.617993 0.096972 0.
0.619994 0.096973 0.
0.621994 0.0969739 0.
0.623994 0.0969746 0.
0.625994 0.0969752 0.
0.627994 0.096976 0.
0.629994 0.0969777 0.
0.631994 0.0969794 0.
0.633994 0.0969811 0.
0.635994 0.0969826 0.
0.637994 0.0969841 0.
0.639994 0.0969862 0.
0.641994 0.0969885 0.
0.643994 0.0969909 0.
0.645994 0.0969921 0.
0.647994 0.0969929 0.
0.649994 0.0969937 0.
0.651994 0.0969946 0.
0.653995 0.0969955 0.
0.655996 0.0969965 0.
0.657996 0.096998 0.
0.659997 0.0969994 0.
0.661997 0.0970013 0.
0.663997 0.0970036 0.
0.665997 0.0970058 0.
0.667998 0.0970074 0.
0.669998 0.0970087 0.
0.671998 0.09701 0.
0.673998 0.0970126 0.
0.675997 0.0970152 0.
0.677997 0.0970179 0.
0.679996 0.0970197 0.
0.681996 0.0970216 0.
0.683995 0.0970236 0.
0.685996 0.0970259 0.
0.687996 0.0970282 0.
0.689996 0.0970307 0.
0.691996 0.0970334 0.
0.693995 0.097036 0.
0.695995 0.0970386 0.
0.697995 0.0970413 0.
0.500005 0.0990361 0.
0.502005 0.0990349 0.
0.504005 0.0990334 0.
0.506005 0.0990315 0.
0.508005 0.0990287 0.
0.510005 0.0990259 0.
0.512005 0.0990228 0.
0.514005 0.0990195 0.
0.516005 0.0990162 0.
0.518005 0.0990135 0.
0.520004 0.0990111 0.
0.522003 0.0990088 0.
0.524003 0.0990075 0.
0.526003 0.0990063 0.
0.528003 0.0990051 0.
0.530002 0.099003 0.
0.532001 0.0990009 0.
0.534001 0.098999 0.
0.536001 0.0989976 0.
0.538002 0.0989962 0.
0.540001 0.0989951 0.
0.542001 0.0989943 0.
0.544 0.0989934 0.
0.546 0.0989921 0.
0.548001 0.0989905 0.
0.550002 0.098989 0.
0.552002 0.0989871 0.
0.554002 0.0989852 0.
0.556002 0.0989835 0.
0.558001 0.0989827 0.
0.560001 0.0989819 0.
0.562001 0.0989808 0.
0.564001 0.0989794 0.
0.566001 0.098978 0.
0.568 0.0989774 0.
0.57 0.0989772 0.
0.571999 0.098977 0.
0.574 0.0989748 0.
0.576002 0.0989722 0.
0.578003 0.0989698 0.
0.580001 0.0989684 0.
0.582 0.098967 0.
0.583999 0.0989661 0.
0.585999 0.0989661 0.
0.587998 0.0989661 0.
0.589998 0.0989664 0.
0.591998 0.0989669 0.
0.593998 0.0989674 0.
0.595998 0.0989659 0.
0.597998 0.0989639 0.
0.599998 0.0989618 0.
0.601997 0.0989623 0.
0.603996 0.0989628 0.
0.605995 0.0989637 0.
0.607994 0.098966 0.
0.609994 0.0989683 0.
0.611994 0.0989699 0.
0.613993 0.0989707 0.
0.615992 0.0989715 0.
0.617992 0.0989721 0.
0.619993 0.0989724 0.
0.621994 0.0989728 0.
0.623994 0.0989737 0.
0.625993 0.0989748 0.
0.627993 0.0989759 0.
0.629993 0.0989777 0.
0.631993 0.0989796 0.
0.633993 0.0989813 0.
0.635993 0.0989828 0.
0.637993 0.0989843 0.
0.639993 0.0989863 0.
0.641993 0.0989887 0.
0.643993 0.098991 0.
0.645992 0.0989922 0.
0.647992 0.0989931 0.
0.649992 0.0989939 0.
0.651992 0.0989946 0.
0.653993 0.0989953 0.
0.655994 0.0989962 0.
0.657994 0.0989977 0.
0.659995 0.0989993 0.
0.661995 0.0990011 0.
0.663995 0.0990034 0.
0.665995 0.0990057 0.
0.667996 0.0990074 0.
0.669997 0.0990087 0.
0.671998 0.0990101 0.
0.673997 0.0990127 0.
0.675995 0.0990156 0.
0.677994 0.0990183 0.
0.679994 0.0990199 0.
0.681993 0.0990215 0.
0.683993 0.0990233 0.
0.685993 0.0990256 0.
0.687993 0.0990279 0.
0.689993 0.0990306 0.
0.691993 0.0990334 0.
0.693992 0.0990362 0.
0.695992 0.0990387 0.
0.697993 0.0990413 0.
CELLS 5000 10000
1 0
1 1
1 2
1 3
1 4
1 5
1 6
1 7
1 8
1 9
1 10
1 11
1 12
1 13
1 14
1 15
1 16
1 17
1 18
1 19
1 20
1 21
1 22
1 23
1 24
1 25
1 26
1 27
1 28
1 29
1 30
1 31
1 32
1 33
1 34
1 35
1 36
1 37
1 38
1 39
1 40
1 41
1 42
1 43
1 44
1 45
1 46
1 47
1 48
1 49
1 50
1 51
1 52
1 53
1 54
1 55
1 56
1 57
1 58
1 59
1 60
1 61
1 62
1 63
1 64
1 65
1 66
1 67
1 68
1 69
1 70
1 71
1 72
1 73
1 74
1 75
1 76
1 77
1 78
1 79
1 80
1 81
1 82
1 83
1 84
1 85
1 86
1 87
1 88
1 89
1 90
1 91
1 92
1 93
1 94
1 95
1 96
1 97
1 98
1 99
1 100
1 101
1 102
1 103
1 104
1 105
1 106
1 107
1 108
1 109
1 110
1 111
1 112
1 113
1 114
1 115
1 116
1 117
1 118
1 119
1 120
1 121
1 122
1 123
1 124
1 125
1 126
1 127
1 128
1 129
1 130
1 131
1 132
1 133
1 134
1 135
1 136
1 137
1 138
1 139
1 140
1 141
1 142
1 143
1 144
1 145
1 146
1 147
1 148
1 149
1 150
1 151
1 152
1 153
1 154
1 155
1 156
1 157
1 158
1 159
1 160
1 161
1 162
1 163
1 164
1 165
1 166
1 167
1 168
1 169
1 170
1 171
1 172
1 173
1 174
1 175
1 176
1 177
1 178
1 179
1 180
1 181
1 182
1 183
1 184
1 185
1 186
1 187
1 188
1 189
1 190
1 191
1 192
1 193
1 194
1 195
1 196
1 197
1 198
1 199
1 200
1 201
1 202
1 203
1 204
1 205
1 206
1 207
1 208
1 209
1 210
1 211
1 212
1 213
1 214
1 215
1 216
1 217
1 218
1 219
1 220
1 221
1 222
1 223
1 224
1 225
1 226
1 227
1 228
1 229
1 230
1 231
1 232
1 233
1 234
1 235
1 236
1 237
1 238
1 239
1 240
1 241
1 242
1 243
1 244
1 245
1 246
1 247
1 248
1 249
1 250
1 251
1 252
1 253
1 254
1 255
1 256
1 257
1 258
1 259
1 260
1 261
1 262
1 263
1 264
1 265
1 266
1 267
1 268
1 269
1 270
1 271
1 272
1 273
1 274
1 275
1 276
1 277
1 278
1 279
1 280
1 281
1 282
1 283
1 284
1 285
1 286
1 287
1 288
1 289
1 290
1 291
1 292
1 293
1 294
1 295
1 296
1 297
1 298
1 299
1 300
1 301
1 302
1 303
1 304
1 305
1 306
1 307
1 308
1 309
1 310
1 311
1 312
1 313
1 314
1 315
1 316
1 317
1 318
1 319
1 320
1 321
1 322
1 323
1 324
1 325
1 326
1 327
1 328
1 329
1 330
1 331
1 332
1 333
1 334
1 335
1 336
1 337
1 338
1 339
1 340
1 341
1 342
1 343
1 344
1 345
1 346
1 347
1 348
1 349
1 350
1 351
1 352
1 353
1 354
1 355
1 356
1 357
1 358
1 359
1 360
1 361
1 362
1 363
1 364
1 365
1 366
1 367
1 368
1 369
1 370
1 371
1 372
1 373
1 374
1 375
1 376
1 377
1 378
1 379
1 380
1 381
1 382
1 383
1 384
1 385
1 386
1 387
1 388
1 389
1 390
1 391
1 392
1 393
1 394
1 395
1 396
1 397
1 398
1 399
1 400
1 401
1 402
1 403
1 404
1 405
1 406
1 407
1 408
1 409
1 410
1 411
1 412
1 413
1 414
1 415
1 416
1 417
1 418
1 419
1 420
1 421
1 422
1 423
1 424
1 425
1 426
1 427
1 428
1 429
1 430
1 431
1 432
1 433
1 434
1 435
1 436
1 437
1 438
1 439
1 440
1 441
1 442
1 443
1 444
1 445
1 446
1 447
1 448
1 449
1 450
1 451
1 452
1 453
1 454
1 455
1 456
1 457
1 458
1 459
1 460
1 461
1 462
1 463
1 464
1 465
1 466
1 467
1 468
1 469
1 470
1 471
1 472
1 473
1 474
1 475
1 476
1 477
1 478
1 479
1 480
1 481
1 482
1 483
1 484
1 485
1 486
1 487
1 488
1 489
1 490
1 491
1 492
1 493
1 494
1 495
1 496
1 497
1 498
1 499
1 500
1 501
1 502
1 503
1 504
1 505
1 506
1 507
1 508
1 509
1 510
1 511
1 512
1 513
1 514
1 515
1 516
1 517
1 518
1 519
1 520
1 521
1 522
1 523
1 524
1 525
1 526
1 527
1 528
1 529
1 530
1 531
1 532
1 533
1 534
1 535
1 536
1 537
1 538
1 539
1 540
1 541
1 542
1 543
1 544
1 545
1 546
1 547
1 548
1 549
1 550
1 551
1 552
1 553
1 554
1 555
1 556
1 557
1 558
1 559
1 560
1 561
1 562
1 563
1 564
1 565
1 566
1 567
1 568
1 569
1 570
1 571
1 572
1 573
1 574
1 575
1 576
1 577
1 578
1 579
1 580
1 581
1 582
1 583
1 584
1 585
1 586
1 587
1 588
1 589
1 590
1 591
1 592
1 593
1 594
1 595
1 596
1 597
1 598
1 599
1 600
1 601
1 602
1 603
1 604
1 605
1 606
1 607
1 608
1 609
1 610
1 611
1 612
1 613
1 614
1 615
1 616
1 617
1 618
1 619
1 620
1 621
1 622
1 623
1 624
1 625
1 626
1 627
1 628
1 629
1 630
1 631
1 632
1 633
1 634
1 635
1 636
1 637
1 638
1 639
1 640
1 641
1 642
1 643
1 644
1 645
1 646
1 647
1 648
1 649
1 650
1 651
1 652
1 653
1 654
1 655
1 656
1 657
1 658
1 659
1 660
1 661
1 662
1 663
1 664
1 665
1 666
1 667
1 668
1 669
1 670
1 671
1 672
1 673
1 674
1 675
1 676
1 677
1 678
1 679
1 680
1 681
1 682
1 683
1 684
1 685
1 686
1 687
1 688
1 689
1 690
1 691
1 692
1 693
1 694
1 695
1 696
1 697
1 698
1 699
1 700
1 701
1 702
1 703
1 704
1 705
1 706
1 707
1 708
1 709
1 710
1 711
1 712
1 713
1 714
1 715
1 716
1 717
1 718
1 719
1 720
1 721
1 722
1 723
1 724
1 725
1 726
1 727
1 728
1 729
1 730
1 731
1 732
1 733
1 734
1 735
1 736
1 737
1 738
1 739
1 740
1 741
1 742
1 743
1 744
1 745
1 746
1 747
1 748
1 749
1 750
1 751
1 752
1 753
1 754
1 755
1 756
1 757
1 758
1 759
1 760
1 761
1 762
1 763
1 764
1 765
1 766
1 767
1 768
1 769
1 770
1 771
1 772
1 773
1 774
1 775
1 776
1 777
1 778
1 779
1 780
1 781
1 782
1 783
1 784
1 785
1 786
1 787
1 788
1 789
1 790
1 791
1 792
1 793
1 794
1 795
1 796
1 797
1 798
1 799
1 800
1 801
1 802
1 803
1 804
1 805
1 806
1 807
1 808
1 809
1 810
1 811
1 812
1 813
1 814
1 815
1 816
1 817
1 818
1 819
1 820
1 821
1 822
1 823
1 824
1 825
1 826
1 827
1 828
1 829
1 830
1 831
1 832
1 833
1 834
1 835
1 836
1 837
1 838
1 839
1 840
1 841
1 842
1 843
1 844
1 845
1 846
1 847
1 848
1 849
1 850
1 851
1 852
1 853
1 854
1 855
1 856
1 857
1 858
1 859
1 860
1 861
1 862
1 863
1 864
1 865
1 866
1 867
1 868
1 869
1 870
1 871
1 872
1 873
1 874
1 875
1 876
1 877
1 878
1 879
1 880
1 881
1 882
1 883
1 884
1 885
1 886
1 887
1 888
1 889
1 890
1 891
1 892
1 893
1 894
1 895
1 896
1 897
1 898
1 899
1 900
1 901
1 902
1 903
1 904
1 905
1 906
1 907
1 908
1 909
1 910
1 911
1 912
1 913
1 914
1 915
1 916
1 917
1 918
1 919
1 920
1 921
1 922
1 923
1 924
1 925
1 926
1 927
1 928
1 929
1 930
1 931
1 932
1 933
1 934
1 935
1 936
1 937
1 938
1 939
1 940
1 941
1 942
1 943
1 944
1 945
1 946
1 947
1 948
1 949
1 950
1 951
1 952
1 953
1 954
1 955
1 956
1 957
1 958
1 959
1 960
1 961
1 962
1 963
1 964
1 965
1 966
1 967
1 968
1 969
1 970
1 971
1 972
1 973
1 974
1 975
1 976
1 977
1 978
1 979
1 980
1 981
1 982
1 983
1 984
1 985
1 986
1 987
1 988
1 989
1 990
1 991
1 992
1 993
1 994
1 995
1 996
1 997
1 998
1 999
1 1000
1 1001
1 1002
1 1003
1 1004
1 1005
1 1006
1 1007
1 1008
1 1009
1 1010
1 1011
1 1012
1 1013
1 1014
1 1015
1 1016
1 1017
1 1018
1 1019
1 1020
1 1021
1 1022
1 1023
1 1024
1 1025
1 1026
1 1027
1 1028
1 1029
1 1030
1 1031
1 1032
1 1033
1 1034
1 1035
1 1036
1 1037
1 1038
1 1039
1 1040
1 1041
1 1042
1 1043
1 1044
1 1045
1 1046
1 1047
1 1048
1 1049
1 1050
1 1051
1 1052
1 1053
1 1054
1 1055
1 1056
1 1057
1 1058
1 1059
1 1060
1 1061
1 1062
1 1063
1 1064
1 1065
1 1066
1 1067
1 1068
1 1069
1 1070
1 1071
1 1072
1 1073
1 1074
1 1075
1 1076
1 1077
1 1078
1 1079
1 1080
1 1081
1 1082
1 1083
1 1084
1 1085
1 1086
1 1087
1 1088
1 1089
1 1090
1 1091
1 1092
1 1093
1 1094
1 1095
1 1096
1 1097
1 1098
1 1099
1 1100
1 1101
1 1102
1 1103
1 1104
1 1105
1 1106
1 1107
1 1108
1 1109
1 1110
1 1111
1 1112
1 1113
1 1114
1 1115
1 1116
1 1117
1 1118
1 1119
1 1120
1 1121
1 1122
1 1123
1 1124
1 1125
1 1126
1 1127
1 1128
1 1129
1 1130
1 1131
1 1132
1 1133
1 1134
1 1135
1 1136
1 1137
1 1138
1 1139
1 1140
1 1141
1 1142
1 1143
1 1144
1 1145
1 1146
1 1147
1 1148
1 1149
1 1150
1 1151
1 1152
1 1153
1 1154
1 1155
1 1156
1 1157
1 1158
1 1159
1 1160
1 1161
1 1162
1 1163
1 1164
1 1165
1 1166
1 1167
1 1168
1 1169
1 1170
1 1171
1 1172
1 1173
1 1174
1 1175
1 1176
1 1177
1 1178
1 1179
1 1180
1 1181
1 1182
1 1183
1 1184
1 1185
1 1186
1 1187
1 1188
1 1189
1 1190
1 1191
1 1192
1 1193
1 1194
1 1195
1 1196
1 1197
1 1198
1 1199
1 1200
1 1201
1 1202
1 1203
1 1204
1 1205
1 1206
1 1207
1 1208
1 1209
1 1210
1 1211
1 1212
1 1213
1 1214
1 1215
1 1216
1 1217
1 1218
1 1219
1 1220
1 1221
1 1222
1 1223
1 1224
1 1225
1 1226
1 1227
1 1228
1 1229
1 1230
1 1231
1 1232
1 1233
1 1234
1 1235
1 1236
1 1237
1 1238
1 1239
1 1240
1 1241
1 1242
1 1243
1 1244
1 1245
1 1246
1 1247
1 1248
1 1249
1 1250
1 1251
1 1252
1 1253
1 1254
1 1255
1 1256
1 1257
1 1258
1 1259
1 1260
1 1261
1 1262
1 1263
1 1264
1 1265
1 1266
1 1267
1 1268
1 1269
1 1270
1 1271
1 1272
1 1273
1 1274
1 1275
1 1276
1 1277
1 1278
1 1279
1 1280
1 1281
1 1282
1 1283
1 1284
1 1285
1 1286
1 1287
1 1288
1 1289
1 1290
1 1291
1 1292
1 1293
1 1294
1 1295
1 1296
1 1297
1 1298
1 1299
1 1300
1 1301
1 1302
1 1303
1 1304
1 1305
1 1306
1 1307
1 1308
1 1309
1 1310
1 1311
1 1312
1 1313
1 1314
1 1315
1 1316
1 1317
1 1318
1 1319
1 1320
1 1321
1 1322
1 1323
1 1324
1 1325
1 1326
1 1327
1 1328
1 1329
1 1330
1 1331
1 1332
1 1333
1 1334
1 1335
1 1336
1 1337
1 1338
1 1339
1 1340
1 1341
1 1342
1 1343
1 1344
1 1345
1 1346
1 1347
1 1348
1 1349
1 1350
1 1351
1 1352
1 1353
1 1354
1 1355
1 1356
1 1357
1 1358
1 1359
1 1360
1 1361
1 1362
1 1363
1 1364
1 1365
1 1366
1 1367
1 1368
1 1369
1 1370
1 1371
1 1372
1 1373
1 1374
1 1375
1 1376
1 1377
1 1378
1 1379
1 1380
1 1381
1 1382
1 1383
1 1384
1 1385
1 1386
1 1387
1 1388
1 1389
1 1390
1 1391
1 1392
1 1393
1 1394
1 1395
1 1396
1 1397
1 1398
1 1399
1 1400
1 1401
1 1402
1 1403
1 1404
1 1405
1 1406
1 1407
1 1408
1 1409
1 1410
1 1411
1 1412
1 1413
1 1414
1 1415
1 1416
1 1417
1 1418
1 1419
1 1420
1 1421
1 1422
1 1423
1 1424
1 1425
1 1426
1 1427
1 1428
1 1429
1 1430
1 1431
1 1432
1 1433
1 1434
1 1435
1 1436
1 1437
1 1438
1 1439
1 1440
1 1441
1 1442
1 1443
1 1444
1 1445
1 1446
1 1447
1 1448
1 1449
1 1450
1 1451
1 1452
1 1453
1 1454
1 1455
1 1456
1 1457
1 1458
1 1459
1 1460
1 1461
1 1462
1 1463
1 1464
1 1465
1 1466
1 1467
1 1468
1 1469
1 1470
1 1471
1 1472
1 1473
1 1474
1 1475
1 1476
1 1477
1 1478
1 1479
1 1480
1 1481
1 1482
1 1483
1 1484
1 1485
1 1486
1 1487
1 1488
1 1489
1 1490
1 1491
1 1492
1 1493
1 1494
1 1495
1 1496
1 1497
1 1498
1 1499
1 1500
1 1501
1 1502
1 1503
1 1504
1 1505
1 1506
1 1507
1 1508
1 1509
1 1510
1 1511
1 1512
1 1513
1 1514
1 1515
1 1516
1 1517
1 1518
1 1519
1 1520
1 1521
1 1522
1 1523
1 1524
1 1525
1 1526
1 1527
1 1528
1 1529
1 1530
1 1531
1 1532
1 1533
1 1534
1 1535
1 1536
1 1537
1 1538
1 1539
1 1540
1 1541
1 1542
1 1543
1 1544
1 1545
1 1546
1 1547
1 1548
1 1549
1 1550
1 1551
1 1552
1 1553
1 1554
1 1555
1 1556
1 1557
1 1558
1 1559
1 1560
1 1561
1 1562
1 1563
1 1564
1 1565
1 1566
1 1567
1 1568
1 1569
1 1570
1 1571
1 1572
1 1573
1 1574
1 1575
1 1576
1 1577
1 1578
1 1579
1 1580
1 1581
1 1582
1 1583
1 1584
1 1585
1 1586
1 1587
1 1588
1 1589
1 1590
1 1591
1 1592
1 1593
1 1594
1 1595
1 1596
1 1597
1 1598
1 1599
1 1600
1 1601
1 1602
1 1603
1 1604
1 1605
1 1606
1 1607
1 1608
1 1609
1 1610
1 1611
1 1612
1 1613
1 1614
1 1615
1 1616
1 1617
1 1618
1 1619
1 1620
1 1621
1 1622
1 1623
1 1624
1 1625
1 1626
1 1627
1 1628
1 1629
1 1630
1 1631
1 1632
1 1633
1 1634
1 1635
1 1636
1 1637
1 1638
1 1639
1 1640
1 1641
1 1642
1 1643
1 1644
1 1645
1 1646
1 1647
1 1648
1 1649
1 1650
1 1651
1 1652
1 1653
1 1654
1 1655
1 1656
1 1657
1 1658
1 1659
1 1660
1 1661
1 1662
1 1663
1 1664
1 1665
1 1666
1 1667
1 1668
1 1669
1 1670
1 1671
1 1672
1 1673
1 1674
1 1675
1 1676
1 1677
1 1678
1 1679
1 1680
1 1681
1 1682
1 1683
1 1684
1 1685
1 1686
1 1687
1 1688
1 1689
1 1690
1 1691
1 1692
1 1693
1 1694
1 1695
1 1696
1 1697
1 1698
1 1699
1 1700
1 1701
1 1702
1 1703
1 1704
1 1705
1 1706
1 1707
1 1708
1 1709
1 1710
1 1711
1 1712
1 1713
1 1714
1 1715
1 1716
1 1717
1 1718
1 1719
1 1720
1 1721
1 1722
1 1723
1 1724
1 1725
1 1726
1 1727
1 1728
1 1729
1 1730
1 1731
1 1732
1 1733
1 1734
1 1735
1 1736
1 1737
1 1738
1 1739
1 1740
1 1741
1 1742
1 1743
1 1744
1 1745
1 1746
1 1747
1 1748
1 1749
1 1750
1 1751
1 1752
1 1753
1 1754
1 1755
1 1756
1 1757
1 1758
1 1759
1 1760
1 1761
1 1762
1 1763
1 1764
1 1765
1 1766
1 1767
1 1768
1 1769
1 1770
1 1771
1 1772
1 1773
1 1774
1 1775
1 1776
1 1777
1 1778
1 1779
1 1780
1 1781
1 1782
1 1783
1 1784
1 1785
1 1786
1 1787
1 1788
1 1789
1 1790
1 1791
1 1792
1 1793
1 1794
1 1795
1 1796
1 1797
1 1798
1 1799
1 1800
1 1801
1 1802
1 1803
1 1804
1 1805
1 1806
1 1807
1 1808
1 1809
1 1810
1 1811
1 1812
1 1813
1 1814
1 1815
1 1816
1 1817
1 1818
1 1819
1 1820
1 1821
1 1822
1 1823
1 1824
1 1825
1 1826
1 1827
1 1828
1 1829
1 1830
1 1831
1 1832
1 1833
1 1834
1 1835
1 1836
1 1837
1 1838
1 1839
1 1840
1 1841
1 1842
1 1843
1 1844
1 1845
1 1846
1 1847
1 1848
1 1849
1 1850
1 1851
1 1852
1 1853
1 1854
1 1855
1 1856
1 1857
1 1858
1 1859
1 1860
1 1861
1 1862
1 1863
1 1864
1 1865
1 1866
1 1867
1 1868
1 1869
1 1870
1 1871
1 1872
1 1873
1 1874
1 1875
1 1876
1 1877
1 1878
1 1879
1 1880
1 1881
1 1882
1 1883
1 1884
1 1885
1 1886
1 1887
1 1888
1 1889
1 1890
1 1891
1 1892
1 1893
1 1894
1 1895
1 1896
1 1897
1 1898
1 1899
1 1900
1 1901
1 1902
1 1903
1 1904
1 1905
1 1906
1 1907
1 1908
1 1909
1 1910
1 1911
1 1912
1 1913
1 1914
1 1915
1 1916
1 1917
1 1918
1 1919
1 1920
1 1921
1 1922
1 1923
1 1924
1 1925
1 1926
1 1927
1 1928
1 1929
1 1930
1 1931
1 1932
1 1933
1 1934
1 1935
1 1936
1 1937
1 1938
1 1939
1 1940
1 1941
1 1942
1 1943
1 1944
1 1945
1 1946
1 1947
1 1948
1 1949
1 1950
1 1951
1 1952
1 1953
1 1954
1 1955
1 1956
1 1957
1 1958
1 1959
1 1960
1 1961
1 1962
1 1963
1 1964
1 1965
1 1966
1 1967
1 1968
1 1969
1 1970
1 1971
1 1972
1 1973
1 1974
1 1975
1 1976
1 1977
1 1978
1 1979
1 1980
1 1981
1 1982
1 1983
1 1984
1 1985
1 1986
1 1987
1 1988
1 1989
1 1990
1 1991
1 1992
1 1993
1 1994
1 1995
1 1996
1 1997
1 1998
1 1999
1 2000
1 2001
1 2002
1 2003
1 2004
1 2005
1 2006
1 2007
1 2008
1 2009
1 2010
1 2011
1 2012
1 2013
1 2014
1 2015
1 2016
1 2017
1 2018
1 2019
1 2020
1 2021
1 2022
1 2023
1 2024
1 2025
1 2026
1 2027
1 2028
1 2029
1 2030
1 2031
1 2032
1 2033
1 2034
1 2035
1 2036
1 2037
1 2038
1 2039
1 2040
1 2041
1 2042
1 2043
1 2044
1 2045
1 2046
1 2047
1 2048
1 2049
1 2050
1 2051
1 2052
1 2053
1 2054
1 2055
1 2056
1 2057
1 2058
1 2059
1 2060
1 2061
1 2062
1 2063
1 2064
1 2065
1 2066
1 2067
1 2068
1 2069
1 2070
1 2071
1 2072
1 2073
1 2074
1 2075
1 2076
1 2077
1 2078
1 2079
1 2080
1 2081
1 2082
1 2083
1 2084
1 2085
1 2086
1 2087
1 2088
1 2089
1 2090
1 2091
1 2092
1 2093
1 2094
1 2095
1 2096
1 2097
1 2098
1 2099
1 2100
1 2101
1 2102
1 2103
1 2104
1 2105
1 2106
1 2107
1 2108
1 2109
1 2110
1 2111
1 2112
1 2113
1 2114
1 2115
1 2116
1 2117
1 2118
1 2119
1 2120
1 2121
1 2122
1 2123
1 2124
1 2125
1 2126
1 2127
1 2128
1 2129
1 2130
1 2131
1 2132
1 2133
1 2134
1 2135
1 2136
1 2137
1 2138
1 2139
1 2140
1 2141
1 2142
1 2143
1 2144
1 2145
1 2146
1 2147
1 2148
1 2149
1 2150
1 2151
1 2152
1 2153
1 2154
1 2155
1 2156
1 2157
1 2158
1 2159
1 2160
1 2161
1 2162
1 2163
1 2164
1 2165
1 2166
1 2167
1 2168
1 2169
1 2170
1 2171
1 2172
1 2173
1 2174
1 2175
1 2176
1 2177
1 2178
1 2179
1 2180
1 2181
1 2182
1 2183
1 2184
1 2185
1 2186
1 2187
1 2188
1 2189
1 2190
1 2191
1 2192
1 2193
1 2194
1 2195
1 2196
1 2197
1 2198
1 2199
1 2200
1 2201
1 2202
1 2203
1 2204
1 2205
1 2206
1 2207
1 2208
1 2209
1 2210
1 2211
1 2212
1 2213
1 2214
1 2215
1 2216
1 2217
1 2218
1 2219
1 2220
1 2221
1 2222
1 2223
1 2224
1 2225
1 2226
1 2227
1 2228
1 2229
1 2230
1 2231
1 2232
1 2233
1 2234
1 2235
1 2236
1 2237
1 2238
1 2239
1 2240
1 2241
1 2242
1 2243
1 2244
1 2245
1 2246
1 2247
1 2248
1 2249
1 2250
1 2251
1 2252
1 2253
1 2254
1 2255
1 2256
1 2257
1 2258
1 2259
1 2260
1 2261
1 2262
1 2263
1 2264
1 2265
1 2266
1 2267
1 2268
1 2269
1 2270
1 2271
1 2272
1 2273
1 2274
1 2275
1 2276
1 2277
1 2278
1 2279
1 2280
1 2281
1 2282
1 2283
1 2284
1 2285
1 2286
1 2287
1 2288
1 2289
1 2290
1 2291
1 2292
1 2293
1 2294
1 2295
1 2296
1 2297
1 2298
1 2299
1 2300
1 2301
1 2302
1 2303
1 2304
1 2305
1 2306
1 2307
1 2308
1 2309
1 2310
1 2311
1 2312
1 2313
1 2314
1 2315
1 2316
1 2317
1 2318
1 2319
1 2320
1 2321
1 2322
1 2323
1 2324
1 2325
1 2326
1 2327
1 2328
1 2329
1 2330
1 2331
1 2332
1 2333
1 2334
1 2335
1 2336
1 2337
1 2338
1 2339
1 2340
1 2341
1 2342
1 2343
1 2344
1 2345
1 2346
1 2347
1 2348
1 2349
1 2350
1 2351
1 2352
1 2353
1 2354
1 2355
1 2356
1 2357
1 2358
1 2359
1 2360
1 2361
1 2362
1 2363
1 2364
1 2365
1 2366
1 2367
1 2368
1 2369
1 2370
1 2371
1 2372
1 2373
1 2374
1 2375
1 2376
1 2377
1 2378
1 2379
1 2380
1 2381
1 2382
1 2383
1 2384
1 2385
1 2386
1 2387
1 2388
1 2389
1 2390
1 2391
1 2392
1 2393
1 2394
1 2395
1 2396
1 2397
1 2398
1 2399
1 2400
1 2401
1 2402
1 2403
1 2404
1 2405
1 2406
1 2407
1 2408
1 2409
1 2410
1 2411
1 2412
1 2413
1 2414
1 2415
1 2416
1 2417
1 2418
1 2419
1 2420
1 2421
1 2422
1 2423
1 2424
1 2425
1 2426
1 2427
1 2428
1 2429
1 2430
1 2431
1 2432
1 2433
1 2434
1 2435
1 2436
1 2437
1 2438
1 2439
1 2440
1 2441
1 2442
1 2443
1 2444
1 2445
1 2446
1 2447
1 2448
1 2449
1 2450
1 2451
1 2452
1 2453
1 2454
1 2455
1 2456
1 2457
1 2458
1 2459
1 2460
1 2461
1 2462
1 2463
1 2464
1 2465
1 2466
1 2467
1 2468
1 2469
1 2470
1 2471
1 2472
1 2473
1 2474
1 2475
1 2476
1 2477
1 2478
1 2479
1 2480
1 2481
1 2482
1 2483
1 2484
1 2485
1 2486
1 2487
1 2488
1 2489
1 2490
1 2491
1 2492
1 2493
1 2494
1 2495
1 2496
1 2497
1 2498
1 2499
1 2500
1 2501
1 2502
1 2503
1 2504
1 2505
1 2506
1 2507
1 2508
1 2509
1 2510
1 2511
1 2512
1 2513
1 2514
1 2515
1 2516
1 2517
1 2518
1 2519
1 2520
1 2521
1 2522
1 2523
1 2524
1 2525
1 2526
1 2527
1 2528
1 2529
1 2530
1 2531
1 2532
1 2533
1 2534
1 2535
1 2536
1 2537
1 2538
1 2539
1 2540
1 2541
1 2542
1 2543
1 2544
1 2545
1 2546
1 2547
1 2548
1 2549
1 2550
1 2551
1 2552
1 2553
1 2554
1 2555
1 2556
1 2557
1 2558
1 2559
1 2560
1 2561
1 2562
1 2563
1 2564
1 2565
1 2566
1 2567
1 2568
1 2569
1 2570
1 2571
1 2572
1 2573
1 2574
1 2575
1 2576
1 2577
1 2578
1 2579
1 2580
1 2581
1 2582
1 2583
1 2584
1 2585
1 2586
1 2587
1 2588
1 2589
1 2590
1 2591
1 2592
1 2593
1 2594
1 2595
1 2596
1 2597
1 2598
1 2599
1 2600
1 2601
1 2602
1 2603
1 2604
1 2605
1 2606
1 2607
1 2608
1 2609
1 2610
1 2611
1 2612
1 2613
1 2614
1 2615
1 2616
1 2617
1 2618
1 2619
1 2620
1 2621
1 2622
1 2623
1 2624
1 2625
1 2626
1 2627
1 2628
1 2629
1 2630
1 2631
1 2632
1 2633
1 2634
1 2635
1 2636
1 2637
1 2638
1 2639
1 2640
1 2641
1 2642
1 2643
1 2644
1 2645
1 2646
1 2647
1 2648
1 2649
1 2650
1 2651
1 2652
1 2653
1 2654
1 2655
1 2656
1 2657
1 2658
1 2659
1 2660
1 2661
1 2662
1 2663
1 2664
1 2665
1 2666
1 2667
1 2668
1 2669
1 2670
1 2671
1 2672
1 2673
1 2674
1 2675
1 2676
1 2677
1 2678
1 2679
1 2680
1 2681
1 2682
1 2683
1 2684
1 2685
1 2686
1 2687
1 2688
1 2689
1 2690
1 2691
1 2692
1 2693
1 2694
1 2695
1 2696
1 2697
1 2698
1 2699
1 2700
1 2701
1 2702
1 2703
1 2704
1 2705
1 2706
1 2707
1 2708
1 2709
1 2710
1 2711
1 2712
1 2713
1 2714
1 2715
1 2716
1 2717
1 2718
1 2719
1 2720
1 2721
1 2722
1 2723
1 2724
1 2725
1 2726
1 2727
1 2728
1 2729
1 2730
1 2731
1 2732
1 2733
1 2734
1 2735
1 2736
1 2737
1 2738
1 2739
1 2740
1 2741
1 2742
1 2743
1 2744
1 2745
1 2746
1 2747
1 2748
1 2749
1 2750
1 2751
1 2752
1 2753
1 2754
1 2755
1 2756
1 2757
1 2758
1 2759
1 2760
1 2761
1 2762
1 2763
1 2764
1 2765
1 2766
1 2767
1 2768
1 2769
1 2770
1 2771
1 2772
1 2773
1 2774
1 2775
1 2776
1 2777
1 2778
1 2779
1 2780
1 2781
1 2782
1 2783
1 2784
1 2785
1 2786
1 2787
1 2788
1 2789
1 2790
1 2791
1 2792
1 2793
1 2794
1 2795
1 2796
1 2797
1 2798
1 2799
1 2800
1 2801
1 2802
1 2803
1 2804
1 2805
1 2806
1 2807
1 2808
1 2809
1 2810
1 2811
1 2812
1 2813
1 2814
1 2815
1 2816
1 2817
1 2818
1 2819
1 2820
1 2821
1 2822
1 2823
1 2824
1 2825
1 2826
1 2827
1 2828
1 2829
1 2830
1 2831
1 2832
1 2833
1 2834
1 2835
1 2836
1 2837
1 2838
1 2839
1 2840
1 2841
1 2842
1 2843
1 2844
1 2845
1 2846
1 2847
1 2848
1 2849
1 2850
1 2851
1 2852
1 2853
1 2854
1 2855
1 2856
1 2857
1 2858
1 2859
1 2860
1 2861
1 2862
1 2863
1 2864
1 2865
1 2866
1 2867
1 2868
1 2869
1 2870
1 2871
1 2872
1 2873
1 2874
1 2875
1 2876
1 2877
1 2878
1 2879
1 2880
1 2881
1 2882
1 2883
1 2884
1 2885
1 2886
1 2887
1 2888
1 2889
1 2890
1 2891
1 2892
1 2893
1 2894
1 2895
1 2896
1 2897
1 2898
1 2899
1 2900
1 2901
1 2902
1 2903
1 2904
1 2905
1 2906
1 2907
1 2908
1 2909
1 2910
1 2911
1 2912
1 2913
1 2914
1 2915
1 2916
1 2917
1 2918
1 2919
1 2920
1 2921
1 2922
1 2923
1 2924
1 2925
1 2926
1 2927
1 2928
1 2929
1 2930
1 2931
1 2932
1 2933
1 2934
1 2935
1 2936
1 2937
1 2938
1 2939
1 2940
1 2941
1 2942
1 2943
1 2944
1 2945
1 2946
1 2947
1 2948
1 2949
1 2950
1 2951
1 2952
1 2953
1 2954
1 2955
1 2956
1 2957
1 2958
1 2959
1 2960
1 2961
1 2962
1 2963
1 2964
1 2965
1 2966
1 2967
1 2968
1 2969
1 2970
1 2971
1 2972
1 2973
1 2974
1 2975
1 2976
1 2977
1 2978
1 2979
1 2980
1 2981
1 2982
1 2983
1 2984
1 2985
1 2986
1 2987
1 2988
1 2989
1 2990
1 2991
1 2992
1 2993
1 2994
1 2995
1 2996
1 2997
1 2998
1 2999
1 3000
1 3001
1 3002
1 3003
1 3004
1 3005
1 3006
1 3007
1 3008
1 3009
1 3010
1 3011
1 3012
1 3013
1 3014
1 3015
1 3016
1 3017
1 3018
1 3019
1 3020
1 3021
1 3022
1 3023
1 3024
1 3025
1 3026
1 3027
1 3028
1 3029
1 3030
1 3031
1 3032
1 3033
1 3034
1 3035
1 3036
1 3037
1 3038
1 3039
1 3040
1 3041
1 3042
1 3043
1 3044
1 3045
1 3046
1 3047
1 3048
1 3049
1 3050
1 3051
1 3052
1 3053
1 3054
1 3055
1 3056
1 3057
1 3058
1 3059
1 3060
1 3061
1 3062
1 3063
1 3064
1 3065
1 3066
1 3067
1 3068
1 3069
1 3070
1 3071
1 3072
1 3073
1 3074
1 3075
1 3076
1 3077
1 3078
1 3079
1 3080
1 3081
1 3082
1 3083
1 3084
1 3085
1 3086
1 3087
1 3088
1 3089
1 3090
1 3091
1 3092
1 3093
1 3094
1 3095
1 3096
1 3097
1 3098
1 3099
1 3100
1 3101
1 3102
1 3103
1 3104
1 3105
1 3106
1 3107
1 3108
1 3109
1 3110
1 3111
1 3112
1 3113
1 3114
1 3115
1 3116
1 3117
1 3118
1 3119
1 3120
1 3121
1 3122
1 3123
1 3124
1 3125
1 3126
1 3127
1 3128
1 3129
1 3130
1 3131
1 3132
1 3133
1 3134
1 3135
1 3136
1 3137
1 3138
1 3139
1 3140
1 3141
1 3142
1 3143
1 3144
1 3145
1 3146
1 3147
1 3148
1 3149
1 3150
1 3151
1 3152
1 3153
1 3154
1 3155
1 3156
1 3157
1 3158
1 3159
1 3160
1 3161
1 3162
1 3163
1 3164
1 3165
1 3166
1 3167
1 3168
1 3169
1 3170
1 3171
1 3172
1 3173
1 3174
1 3175
1 3176
1 3177
1 3178
1 3179
1 3180
1 3181
1 3182
1 3183
1 3184
1 3185
1 3186
1 3187
1 3188
1 3189
1 3190
1 3191
1 3192
1 3193
1 3194
1 3195
1 3196
1 3197
1 3198
1 3199
1 3200
1 3201
1 3202
1 3203
1 3204
1 3205
1 3206
1 3207
1 3208
1 3209
1 3210
1 3211
1 3212
1 3213
1 3214
1 3215
1 3216
1 3217
1 3218
1 3219
1 3220
1 3221
1 3222
1 3223
1 3224
1 3225
1 3226
1 3227
1 3228
1 3229
1 3230
1 3231
1 3232
1 3233
1 3234
1 3235
1 3236
1 3237
1 3238
1 3239
1 3240
1 3241
1 3242
1 3243
1 3244
1 3245
1 3246
1 3247
1 3248
1 3249
1 3250
1 3251
1 3252
1 3253
1 3254
1 3255
1 3256
1 3257
1 3258
1 3259
1 3260
1 3261
1 3262
1 3263
1 3264
1 3265
1 3266
1 3267
1 3268
1 3269
1 3270
1 3271
1 3272
1 3273
1 3274
1 3275
1 3276
1 3277
1 3278
1 3279
1 3280
1 3281
1 3282
1 3283
1 3284
1 3285
1 3286
1 3287
1 3288
1 3289
1 3290
1 3291
1 3292
1 3293
1 3294
1 3295
1 3296
1 3297
1 3298
1 3299
1 3300
1 3301
1 3302
1 3303
1 3304
1 3305
1 3306
1 3307
1 3308
1 3309
1 3310
1 3311
1 3312
1 3313
1 3314
1 3315
1 3316
1 3317
1 3318
1 3319
1 3320
1 3321
1 3322
1 3323
1 3324
1 3325
1 3326
1 3327
1 3328
1 3329
1 3330
1 3331
1 3332
1 3333
1 3334
1 3335
1 3336
1 3337
1 3338
1 3339
1 3340
1 3341
1 3342
1 3343
1 3344
1 3345
1 3346
1 3347
1 3348
1 3349
1 3350
1 3351
1 3352
1 3353
1 3354
1 3355
1 3356
1 3357
1 3358
1 3359
1 3360
1 3361
1 3362
1 3363
1 3364
1 3365
1 3366
1 3367
1 3368
1 3369
1 3370
1 3371
1 3372
1 3373
1 3374
1 3375
1 3376
1 3377
1 3378
1 3379
1 3380
1 3381
1 3382
1 3383
1 3384
1 3385
1 3386
1 3387
1 3388
1 3389
1 3390
1 3391
1 3392
1 3393
1 3394
1 3395
1 3396
1 3397
1 3398
1 3399
1 3400
1 3401
1 3402
1 3403
1 3404
1 3405
1 3406
1 3407
1 3408
1 3409
1 3410
1 3411
1 3412
1 3413
1 3414
1 3415
1 3416
1 3417
1 3418
1 3419
1 3420
1 3421
1 3422
1 3423
1 3424
1 3425
1 3426
1 3427
1 3428
1 3429
1 3430
1 3431
1 3432
1 3433
1 3434
1 3435
1 3436
1 3437
1 3438
1 3439
1 3440
1 3441
1 3442
1 3443
1 3444
1 3445
1 3446
1 3447
1 3448
1 3449
1 3450
1 3451
1 3452
1 3453
1 3454
1 3455
1 3456
1 3457
1 3458
1 3459
1 3460
1 3461
1 3462
1 3463
1 3464
1 3465
1 3466
1 3467
1 3468
1 3469
1 3470
1 3471
1 3472
1 3473
1 3474
1 3475
1 3476
1 3477
1 3478
1 3479
1 3480
1 3481
1 3482
1 3483
1 3484
1 3485
1 3486
1 3487
1 3488
1 3489
1 3490
1 3491
1 3492
1 3493
1 3494
1 3495
1 3496
1 3497
1 3498
1 3499
1 3500
1 3501
1 3502
1 3503
1 3504
1 3505
1 3506
1 3507
1 3508
1 3509
1 3510
1 3511
1 3512
1 3513
1 3514
1 3515
1 3516
1 3517
1 3518
1 3519
1 3520
1 3521
1 3522
1 3523
1 3524
1 3525
1 3526
1 3527
1 3528
1 3529
1 3530
1 3531
1 3532
1 3533
1 3534
1 3535
1 3536
1 3537
1 3538
1 3539
1 3540
1 3541
1 3542
1 3543
1 3544
1 3545
1 3546
1 3547
1 3548
1 3549
1 3550
1 3551
1 3552
1 3553
1 3554
1 3555
1 3556
1 3557
1 3558
1 3559
1 3560
1 3561
1 3562
1 3563
1 3564
1 3565
1 3566
1 3567
1 3568
1 3569
1 3570
1 3571
1 3572
1 3573
1 3574
1 3575
1 3576
1 3577
1 3578
1 3579
1 3580
1 3581
1 3582
1 3583
1 3584
1 3585
1 3586
1 3587
1 3588
1 3589
1 3590
1 3591
1 3592
1 3593
1 3594
1 3595
1 3596
1 3597
1 3598
1 3599
1 3600
1 3601
1 3602
1 3603
1 3604
1 3605
1 3606
1 3607
1 3608
1 3609
1 3610
1 3611
1 3612
1 3613
1 3614
1 3615
1 3616
1 3617
1 3618
1 3619
1 3620
1 3621
1 3622
1 3623
1 3624
1 3625
1 3626
1 3627
1 3628
1 3629
1 3630
1 3631
1 3632
1 3633
1 3634
1 3635
1 3636
1 3637
1 3638
1 3639
1 3640
1 3641
1 3642
1 3643
1 3644
1 3645
1 3646
1 3647
1 3648
1 3649
1 3650
1 3651
1 3652
1 3653
1 3654
1 3655
1 3656
1 3657
1 3658
1 3659
1 3660
1 3661
1 3662
1 3663
1 3664
1 3665
1 3666
1 3667
1 3668
1 3669
1 3670
1 3671
1 3672
1 3673
1 3674
1 3675
1 3676
1 3677
1 3678
1 3679
1 3680
1 3681
1 3682
1 3683
1 3684
1 3685
1 3686
1 3687
1 3688
1 3689
1 3690
1 3691
1 3692
1 3693
1 3694
1 3695
1 3696
1 3697
1 3698
1 3699
1 3700
1 3701
1 3702
1 3703
1 3704
1 3705
1 3706
1 3707
1 3708
1 3709
1 3710
1 3711
1 3712
1 3713
1 3714
1 3715
1 3716
1 3717
1 3718
1 3719
1 3720
1 3721
1 3722
1 3723
1 3724
1 3725
1 3726
1 3727
1 3728
1 3729
1 3730
1 3731
1 3732
1 3733
1 3734
1 3735
1 3736
1 3737
1 3738
1 3739
1 3740
1 3741
1 3742
1 3743
1 3744
1 3745
1 3746
1 3747
1 3748
1 3749
1 3750
1 3751
1 3752
1 3753
1 3754
1 3755
1 3756
1 3757
1 3758
1 3759
1 3760
1 3761
1 3762
1 3763
1 3764
1 3765
1 3766
1 3767
1 3768
1 3769
1 3770
1 3771
1 3772
1 3773
1 3774
1 3775
1 3776
1 3777
1 3778
1 3779
1 3780
1 3781
1 3782
1 3783
1 3784
1 3785
1 3786
1 3787
1 3788
1 3789
1 3790
1 3791
1 3792
1 3793
1 3794
1 3795
1 3796
1 3797
1 3798
1 3799
1 3800
1 3801
1 3802
1 3803
1 3804
1 3805
1 3806
1 3807
1 3808
1 3809
1 3810
1 3811
1 3812
1 3813
1 3814
1 3815
1 3816
1 3817
1 3818
1 3819
1 3820
1 3821
1 3822
1 3823
1 3824
1 3825
1 3826
1 3827
1 3828
1 3829
1 3830
1 3831
1 3832
1 3833
1 3834
1 3835
1 3836
1 3837
1 3838
1 3839
1 3840
1 3841
1 3842
1 3843
1 3844
1 3845
1 3846
1 3847
1 3848
1 3849
1 3850
1 3851
1 3852
1 3853
1 3854
1 3855
1 3856
1 3857
1 3858
1 3859
1 3860
1 3861
1 3862
1 3863
1 3864
1 3865
1 3866
1 3867
1 3868
1 3869
1 3870
1 3871
1 3872
1 3873
1 3874
1 3875
1 3876
1 3877
1 3878
1 3879
1 3880
1 3881
1 3882
1 3883
1 3884
1 3885
1 3886
1 3887
1 3888
1 3889
1 3890
1 3891
1 3892
1 3893
1 3894
1 3895
1 3896
1 3897
1 3898
1 3899
1 3900
1 3901
1 3902
1 3903
1 3904
1 3905
1 3906
1 3907
1 3908
1 3909
1 3910
1 3911
1 3912
1 3913
1 3914
1 3915
1 3916
1 3917
1 3918
1 3919
1 3920
1 3921
1 3922
1 3923
1 3924
1 3925
1 3926
1 3927
1 3928
1 3929
1 3930
1 3931
1 3932
1 3933
1 3934
1 3935
1 3936
1 3937
1 3938
1 3939
1 3940
1 3941
1 3942
1 3943
1 3944
1 3945
1 3946
1 3947
1 3948
1 3949
1 3950
1 3951
1 3952
1 3953
1 3954
1 3955
1 3956
1 3957
1 3958
1 3959
1 3960
1 3961
1 3962
1 3963
1 3964
1 3965
1 3966
1 3967
1 3968
1 3969
1 3970
1 3971
1 3972
1 3973
1 3974
1 3975
1 3976
1 3977
1 3978
1 3979
1 3980
1 3981
1 3982
1 3983
1 3984
1 3985
1 3986
1 3987
1 3988
1 3989
1 3990
1 3991
1 3992
1 3993
1 3994
1 3995
1 3996
1 3997
1 3998
1 3999
1 4000
1 4001
1 4002
1 4003
1 4004
1 4005
1 4006
1 4007
1 4008
1 4009
1 4010
1 4011
1 4012
1 4013
1 4014
1 4015
1 4016
1 4017
1 4018
1 4019
1 4020
1 4021
1 4022
1 4023
1 4024
1 4025
1 4026
1 4027
1 4028
1 4029
1 4030
1 4031
1 4032
1 4033
1 4034
1 4035
1 4036
1 4037
1 4038
1 4039
1 4040
1 4041
1 4042
1 4043
1 4044
1 4045
1 4046
1 4047
1 4048
1 4049
1 4050
1 4051
1 4052
1 4053
1 4054
1 4055
1 4056
1 4057
1 4058
1 4059
1 4060
1 4061
1 4062
1 4063
1 4064
1 4065
1 4066
1 4067
1 4068
1 4069
1 4070
1 4071
1 4072
1 4073
1 4074
1 4075
1 4076
1 4077
1 4078
1 4079
1 4080
1 4081
1 4082
1 4083
1 4084
1 4085
1 4086
1 4087
1 4088
1 4089
1 4090
1 4091
1 4092
1 4093
1 4094
1 4095
1 4096
1 4097
1 4098
1 4099
1 4100
1 4101
1 4102
1 4103
1 4104
1 4105
1 4106
1 4107
1 4108
1 4109
1 4110
1 4111
1 4112
1 4113
1 4114
1 4115
1 4116
1 4117
1 4118
1 4119
1 4120
1 4121
1 4122
1 4123
1 4124
1 4125
1 4126
1 4127
1 4128
1 4129
1 4130
1 4131
1 4132
1 4133
1 4134
1 4135
1 4136
1 4137
1 4138
1 4139
1 4140
1 4141
1 4142
1 4143
1 4144
1 4145
1 4146
1 4147
1 4148
1 4149
1 4150
1 4151
1 4152
1 4153
1 4154
1 4155
1 4156
1 4157
1 4158
1 4159
1 4160
1 4161
1 4162
1 4163
1 4164
1 4165
1 4166
1 4167
1 4168
1 4169
1 4170
1 4171
1 4172
1 4173
1 4174
1 4175
1 4176
1 4177
1 4178
1 4179
1 4180
1 4181
1 4182
1 4183
1 4184
1 4185
1 4186
1 4187
1 4188
1 4189
1 4190
1 4191
1 4192
1 4193
1 4194
1 4195
1 4196
1 4197
1 4198
1 4199
1 4200
1 4201
1 4202
1 4203
1 4204
1 4205
1 4206
1 4207
1 4208
1 4209
1 4210
1 4211
1 4212
1 4213
1 4214
1 4215
1 4216
1 4217
1 4218
1 4219
1 4220
1 4221
1 4222
1 4223
1 4224
1 4225
1 4226
1 4227
1 4228
1 4229
1 4230
1 4231
1 4232
1 4233
1 4234
1 4235
1 4236
1 4237
1 4238
1 4239
1 4240
1 4241
1 4242
1 4243
1 4244
1 4245
1 4246
1 4247
1 4248
1 4249
1 4250
1 4251
1 4252
1 4253
1 4254
1 4255
1 4256
1 4257
1 4258
1 4259
1 4260
1 4261
1 4262
1 4263
1 4264
1 4265
1 4266
1 4267
1 4268
1 4269
1 4270
1 4271
1 4272
1 4273
1 4274
1 4275
1 4276
1 4277
1 4278
1 4279
1 4280
1 4281
1 4282
1 4283
1 4284
1 4285
1 4286
1 4287
1 4288
1 4289
1 4290
1 4291
1 4292
1 4293
1 4294
1 4295
1 4296
1 4297
1 4298
1 4299
1 4300
1 4301
1 4302
1 4303
1 4304
1 4305
1 4306
1 4307
1 4308
1 4309
1 4310
1 4311
1 4312
1 4313
1 4314
1 4315
1 4316
1 4317
1 4318
1 4319
1 4320
1 4321
1 4322
1 4323
1 4324
1 4325
1 4326
1 4327
1 4328
1 4329
1 4330
1 4331
1 4332
1 4333
1 4334
1 4335
1 4336
1 4337
1 4338
1 4339
1 4340
1 4341
1 4342
1 4343
1 4344
1 4345
1 4346
1 4347
1 4348
1 4349
1 4350
1 4351
1 4352
1 4353
1 4354
1 4355
1 4356
1 4357
1 4358
1 4359
1 4360
1 4361
1 4362
1 4363
1 4364
1 4365
1 4366
1 4367
1 4368
1 4369
1 4370
1 4371
1 4372
1 4373
1 4374
1 4375
1 4376
1 4377
1 4378
1 4379
1 4380
1 4381
1 4382
1 4383
1 4384
1 4385
1 4386
1 4387
1 4388
1 4389
1 4390
1 4391
1 4392
1 4393
1 4394
1 4395
1 4396
1 4397
1 4398
1 4399
1 4400
1 4401
1 4402
1 4403
1 4404
1 4405
1 4406
1 4407
1 4408
1 4409
1 4410
1 4411
1 4412
1 4413
1 4414
1 4415
1 4416
1 4417
1 4418
1 4419
1 4420
1 4421
1 4422
1 4423
1 4424
1 4425
1 4426
1 4427
1 4428
1 4429
1 4430
1 4431
1 4432
1 4433
1 4434
1 4435
1 4436
1 4437
1 4438
1 4439
1 4440
1 4441
1 4442
1 4443
1 4444
1 4445
1 4446
1 4447
1 4448
1 4449
1 4450
1 4451
1 4452
1 4453
1 4454
1 4455
1 4456
1 4457
1 4458
1 4459
1 4460
1 4461
1 4462
1 4463
1 4464
1 4465
1 4466
1 4467
1 4468
1 4469
1 4470
1 4471
1 4472
1 4473
1 4474
1 4475
1 4476
1 4477
1 4478
1 4479
1 4480
1 4481
1 4482
1 4483
1 4484
1 4485
1 4486
1 4487
1 4488
1 4489
1 4490
1 4491
1 4492
1 4493
1 4494
1 4495
1 4496
1 4497
1 4498
1 4499
1 4500
1 4501
1 4502
1 4503
1 4504
1 4505
1 4506
1 4507
1 4508
1 4509
1 4510
1 4511
1 4512
1 4513
1 4514
1 4515
1 4516
1 4517
1 4518
1 4519
1 4520
1 4521
1 4522
1 4523
1 4524
1 4525
1 4526
1 4527
1 4528
1 4529
1 4530
1 4531
1 4532
1 4533
1 4534
1 4535
1 4536
1 4537
1 4538
1 4539
1 4540
1 4541
1 4542
1 4543
1 4544
1 4545
1 4546
1 4547
1 4548
1 4549
1 4550
1 4551
1 4552
1 4553
1 4554
1 4555
1 4556
1 4557
1 4558
1 4559
1 4560
1 4561
1 4562
1 4563
1 4564
1 4565
1 4566
1 4567
1 4568
1 4569
1 4570
1 4571
1 4572
1 4573
1 4574
1 4575
1 4576
1 4577
1 4578
1 4579
1 4580
1 4581
1 4582
1 4583
1 4584
1 4585
1 4586
1 4587
1 4588
1 4589
1 4590
1 4591
1 4592
1 4593
1 4594
1 4595
1 4596
1 4597
1 4598
1 4599
1 4600
1 4601
1 4602
1 4603
1 4604
1 4605
1 4606
1 4607
1 4608
1 4609
1 4610
1 4611
1 4612
1 4613
1 4614
1 4615
1 4616
1 4617
1 4618
1 4619
1 4620
1 4621
1 4622
1 4623
1 4624
1 4625
1 4626
1 4627
1 4628
1 4629
1 4630
1 4631
1 4632
1 4633
1 4634
1 4635
1 4636
1 4637
1 4638
1 4639
1 4640
1 4641
1 4642
1 4643
1 4644
1 4645
1 4646
1 4647
1 4648
1 4649
1 4650
1 4651
1 4652
1 4653
1 4654
1 4655
1 4656
1 4657
1 4658
1 4659
1 4660
1 4661
1 4662
1 4663
1 4664
1 4665
1 4666
1 4667
1 4668
1 4669
1 4670
1 4671
1 4672
1 4673
1 4674
1 4675
1 4676
1 4677
1 4678
1 4679
1 4680
1 4681
1 4682
1 4683
1 4684
1 4685
1 4686
1 4687
1 4688
1 4689
1 4690
1 4691
1 4692
1 4693
1 4694
1 4695
1 4696
1 4697
1 4698
1 4699
1 4700
1 4701
1 4702
1 4703
1 4704
1 4705
1 4706
1 4707
1 4708
1 4709
1 4710
1 4711
1 4712
1 4713
1 4714
1 4715
1 4716
1 4717
1 4718
1 4719
1 4720
1 4721
1 4722
1 4723
1 4724
1 4725
1 4726
1 4727
1 4728
1 4729
1 4730
1 4731
1 4732
1 4733
1 4734
1 4735
1 4736
1 4737
1 4738
1 4739
1 4740
1 4741
1 4742
1 4743
1 4744
1 4745
1 4746
1 4747
1 4748
1 4749
1 4750
1 4751
1 4752
1 4753
1 4754
1 4755
1 4756
1 4757
1 4758
1 4759
1 4760
1 4761
1 4762
1 4763
1 4764
1 4765
1 4766
1 4767
1 4768
1 4769
1 4770
1 4771
1 4772
1 4773
1 4774
1 4775
1 4776
1 4777
1 4778
1 4779
1 4780
1 4781
1 4782
1 4783
1 4784
1 4785
1 4786
1 4787
1 4788
1 4789
1 4790
1 4791
1 4792
1 4793
1 4794
1 4795
1 4796
1 4797
1 4798
1 4799
1 4800
1 4801
1 4802
1 4803
1 4804
1 4805
1 4806
1 4807
1 4808
1 4809
1 4810
1 4811
1 4812
1 4813
1 4814
1 4815
1 4816
1 4817
1 4818
1 4819
1 4820
1 4821
1 4822
1 4823
1 4824
1 4825
1 4826
1 4827
1 4828
1 4829
1 4830
1 4831
1 4832
1 4833
1 4834
1 4835
1 4836
1 4837
1 4838
1 4839
1 4840
1 4841
1 4842
1 4843
1 4844
1 4845
1 4846
1 4847
1 4848
1 4849
1 4850
1 4851
1 4852
1 4853
1 4854
1 4855
1 4856
1 4857
1 4858
1 4859
1 4860
1 4861
1 4862
1 4863
1 4864
1 4865
1 4866
1 4867
1 4868
1 4869
1 4870
1 4871
1 4872
1 4873
1 4874
1 4875
1 4876
1 4877
1 4878
1 4879
1 4880
1 4881
1 4882
1 4883
1 4884
1 4885
1 4886
1 4887
1 4888
1 4889
1 4890
1 4891
1 4892
1 4893
1 4894
1 4895
1 4896
1 4897
1 4898
1 4899
1 4900
1 4901
1 4902
1 4903
1 4904
1 4905
1 4906
1 4907
1 4908
1 4909
1 4910
1 4911
1 4912
1 4913
1 4914
1 4915
1 4916
1 4917
1 4918
1 4919
1 4920
1 4921
1 4922
1 4923
1 4924
1 4925
1 4926
1 4927
1 4928
1 4929
1 4930
1 4931
1 4932
1 4933
1 4934
1 4935
1 4936
1 4937
1 4938
1 4939
1 4940
1 4941
1 4942
1 4943
1 4944
1 4945
1 4946
1 4947
1 4948
1 4949
1 4950
1 4951
1 4952
1 4953
1 4954
1 4955
1 4956
1 4957
1 4958
1 4959
1 4960
1 4961
1 4962
1 4963
1 4964
1 4965
1 4966
1 4967
1 4968
1 4969
1 4970
1 4971
1 4972
1 4973
1 4974
1 4975
1 4976
1 4977
1 4978
1 4979
1 4980
1 4981
1 4982
1 4983
1 4984
1 4985
1 4986
1 4987
1 4988
1 4989
1 4990
1 4991
1 4992
1 4993
1 4994
1 4995
1 4996
1 4997
1 4998
1 4999
CELL_TYPES 5000
1 
1 
1 
1 
1 
1 
1 
1 
1 
1 
1 
1 
1 
1 
1 
1 
1 
1 
1 
1 
1 
1 
1 
1 
1 
1 
1 
1 
1 
1 
1 
1 
1 
1 
1 
1 
1 
1 
1 
1 
1 
1 
1 
1 
1 
1 
1 
1 
1 
1 
1 
1 
1 
1 
1 
1 
1 
1 
1 
1 
1 
1 
1 
1 
1 
1 
1 
1 
1 
1 
1 
1 
1 
1 
1 
1 
1 
1 
1 
1 
1 
1 
1 
1 
1 
1 
1 
1 
1 
1 
1 
1 
1 
1 
1 
1 
1 
1 
1 
1 
1 
1 
1 
1 
1 
1 
1 
1 
1 
1 
1 
1 
1 
1 
1 
1 
1 
1 
1 
1 
1 
1 
1 
1 
1 
1 
1 
1 
1 
1 
1 
1 
1 
1 
1 
1 
1 
1 
1 
1 
1 
1 
1 
1 
1 
1 
1 
1 
1 
1 
1 
1 
1 
1 
1 
1 
1 
1 
1 
1 
1 
1 
1 
1 
1 
1 
1 
1 
1 
1 
1 
1 
1 
1 
1 
1 
1 
1 
1 
1 
1 
1 
1 
1 
1 
1 
1 
1 
1 
1 
1 
1 
1 
1 
1 
1 
1 
1 
1 
1 
1 
1 
1 
1 
1 
1 
1 
1 
1 
1 
1 
1 
1 
1 
1 
1 
1 
1 
1 
1 
1 
1 
1 
1 
1 
1 
1 
1 
1 
1 
1 
1 
1 
1 
1 
1 
1 
1 
1 
1 
1 
1 
1 
1 
1 
1 
1 
1 
1 
1 
1 
1 
1 
1 
1 
1 
1 
1 
1 
1 
1 
1 
1 
1 
1 
1 
1 
1 
1 
1 
1 
1 
1 
1 
1 
1 
1 
1 
1 
1 
1 
1 
1 
1 
1 
1 
1 
1 
1 
1 
1 
1 
1 
1 
1 
1 
1 
1 
1 
1 
1 
1 
1 
1 
1 
1 
1 
1 
1 
1 
1 
1 
1 
1 
1 
1 
1 
1 
1 
1 
1 
1 
1 
1 
1 
1 
1 
1 
1 
1 
1 
1 
1 
1 
1 
1 
1 
1 
1 
1 
1 
1 
1 
1 
1 
1 
1 
1 
1 
1 
1 
1 
1 
1 
1 
1 
1 
1 
1 
1 
1 
1 
1 
1 
1 
1 
1 
1 
1 
1 
1 
1 
1 
1 
1 
1 
1 
1 
1 
1 
1 
1 
1 
1 
1 
1 
1 
1 
1 
1 
1 
1 
1 
1 
1 
1 
1 
1 
1 
1 
1 
1 
1 
1 
1 
1 
1 
1 
1 
1 
1 
1 
1 
1 
1 
1 
1 
1 
1 
1 
1 
1 
1 
1 
1 
1 
1 
1 
1 
1 
1 
1 
1 
1 
1 
1 
1 
1 
1 
1 
1 
1 
1 
1 
1 
1 
1 
1 
1 
1 
1 
1 
1 
1 
1 
1 
1 
1 
1 
1 
1 
1 
1 
1 
1 
1 
1 
1 
1 
1 
1 
1 
1 
1 
1 
1 
1 
1 
1 
1 
1 
1 
1 
1 
1 
1 
1 
1 
1 
1 
1 
1 
1 
1 
1 
1 
1 
1 
1 
1 
1 
1 
1 
1 
1 
1 
1 
1 
1 
1 
1 
1 
1 
1 
1 
1 
1 
1 
1 
1 
1 
1 
1 
1 
1 
1 
1 
1 
1 
1 
1 
1 
1 
1 
1 
1 
1 
1 
1 
1 
1 
1 
1 
1 
1 
1 
1 
1 
1 
1 
1 
1 
1 
1 
1 
1 
1 
1 
1 
1 
1 
1 
1 
1 
1 
1 
1 
1 
1 
1 
1 
1 
1 
1 
1 
1 
1 
1 
1 
1 
1 
1 
1 
1 
1 
1 
1 
1 
1 
1 
1 
1 
1 
1 
1 
1 
1 
1 
1 
1 
1 
1 
1 
1 
1 
1 
1 
1 
1 
1 
1 
1 
1 
1 
1 
1 
1 
1 
1 
1 
1 
1 
1 
1 
1 
1 
1 
1 
1 
1 
1 
1 
1 
1 
1 
1 
1 
1 
1 
1 
1 
1 
1 
1 
1 
1 
1 
1 
1 
1 
1 
1 
1 
1 
1 
1 
1 
1 
1 
1 
1 
1 
1 
1 
1 
1 
1 
1 
1 
1 
1 
1 
1 
1 
1 
1 
1 
1 
1 
1 
1 
1 
1 
1 
1 
1 
1 
1 
1 
1 
1 
1 
1 
1 
1 
1 
1 
1 
1 
1 
1 
1 
1 
1 
1 
1 
1 
1 
1 
1 
1 
1 
1 
1 
1 
1 
1 
1 
1 
1 
1 
1 
1 
1 
1 
1 
1 
1 
1 
1 
1 
1 
1 
1 
1 
1 
1 
1 
1 
1 
1 
1 
1 
1 
1 
1 
1 
1 
1 
1 
1 
1 
1 
1 
1 
1 
1 
1 
1 
1 
1 
1 
1 
1 
1 
1 
1 
1 
1 
1 
1 
1 
1 
1 
1 
1 
1 
1 
1 
1 
1 
1 
1 
1 
1 
1 
1 
1 
1 
1 
1 
1 
1 
1 
1 
1 
1 
1 
1 
1 
1 
1 
1 
1 
1 
1 
1 
1 
1 
1 
1 
1 
1 
1 
1 
1 
1 
1 
1 
1 
1 
1 
1 
1 
1 
1 
1 
1 
1 
1 
1 
1 
1 
1 
1 
1 
1 
1 
1 
1 
1 
1 
1 
1 
1 
1 
1 
1 
1 
1 
1 
1 
1 
1 
1 
1 
1 
1 
1 
1 
1 
1 
1 
1 
1 
1 
1 
1 
1 
1 
1 
1 
1 
1 
1 
1 
1 
1 
1 
1 
1 
1 
1 
1 
1 
1 
1 
1 
1 
1 
1 
1 
1 
1 
1 
1 
1 
1 
1 
1 
1 
1 
1 
1 
1 
1 
1 
1 
1 
1 
1 
1 
1 
1 
1 
1 
1 
1 
1 
1 
1 
1 
1 
1 
1 
1 
1 
1 
1 
1 
1 
1 
1 
1 
1 
1 
1 
1 
1 
1 
1 
1 
1 
1 
1 
1 
1 
1 
1 
1 
1 
1 
1 
1 
1 
1 
1 
1 
1 
1 
1 
1 
1 
1 
1 
1 
1 
1 
1 
1 
1 
1 
1 
1 
1 
1 
1 
1 
1 
1 
1 
1 
1 
1 
1 
1 
1 
1 
1 
1 
1 
1 
1 
1 
1 
1 
1 
1 
1 
1 
1 
1 
1 
1 
1 
1 
1 
1 
1 
1 
1 
1 
1 
1 
1 
1 
1 
1 
1 
1 
1 
1 
1 
1 
1 
1 
1 
1 
1 
1 
1 
1 
1 
1 
1 
1 
1 
1 
1 
1 
1 
1 
1 
1 
1 
1 
1 
1 
1 
1 
1 
1 
1 
1 
1 
1 
1 
1 
1 
1 
1 
1 
1 
1 
1 
1 
1 
1 
1 
1 
1 
1 
1 
1 
1 
1 
1 
1 
1 
1 
1 
1 
1 
1 
1 
1 
1 
1 
1 
1 
1 
1 
1 
1 
1 
1 
1 
1 
1 
1 
1 
1 
1 
1 
1 
1 
1 
1 
1 
1 
1 
1 
1 
1 
1 
1 
1 
1 
1 
1 
1 
1 
1 
1 
1 
1 
1 
1 
1 
1 
1 
1 
1 
1 
1 
1 
1 
1 
1 
1 
1 
1 
1 
1 
1 
1 
1 
1 
1 
1 
1 
1 
1 
1 
1 
1 
1 
1 
1 
1 
1 
1 
1 
1 
1 
1 
1 
1 
1 
1 
1 
1 
1 
1 
1 
1 
1 
1 
1 
1 
1 
1 
1 
1 
1 
1 
1 
1 
1 
1 
1 
1 
1 
1 
1 
1 
1 
1 
1 
1 
1 
1 
1 
1 
1 
1 
1 
1 
1 
1 
1 
1 
1 
1 
1 
1 
1 
1 
1 
1 
1 
1 
1 
1 
1 
1 
1 
1 
1 
1 
1 
1 
1 
1 
1 
1 
1 
1 
1 
1 
1 
1 
1 
1 
1 
1 
1 
1 
1 
1 
1 
1 
1 
1 
1 
1 
1 
1 
1 
1 
1 
1 
1 
1 
1 
1 
1 
1 
1 
1 
1 
1 
1 
1 
1 
1 
1 
1 
1 
1 
1 
1 
1 
1 
1 
1 
1 
1 
1 
1 
1 
1 
1 
1 
1 
1 
1 
1 
1 
1 
1 
1 
1 
1 
1 
1 
1 
1 
1 
1 
1 
1 
1 
1 
1 
1 
1 
1 
1 
1 
1 
1 
1 
1 
1 
1 
1 
1 
1 
1 
1 
1 
1 
1 
1 
1 
1 
1 
1 
1 
1 
1 
1 
1 
1 
1 
1 
1 
1 
1 
1 
1 
1 
1 
1 
1 
1 
1 
1 
1 
1 
1 
1 
1 
1 
1 
1 
1 
1 
1 
1 
1 
1 
1 
1 
1 
1 
1 
1 
1 
1 
1 
1 
1 
1 
1 
1 
1 
1 
1 
1 
1 
1 
1 
1 
1 
1 
1 
1 
1 
1 
1 
1 
1 
1 
1 
1 
1 
1 
1 
1 
1 
1 
1 
1 
1 
1 
1 
1 
1 
1 
1 
1 
1 
1 
1 
1 
1 
1 
1 
1 
1 
1 
1 
1 
1 
1 
1 
1 
1 
1 
1 
1 
1 
1 
1 
1 
1 
1 
1 
1 
1 
1 
1 
1 
1 
1 
1 
1 
1 
1 
1 
1 
1 
1 
1 
1 
1 
1 
1 
1 
1 
1 
1 
1 
1 
1 
1 
1 
1 
1 
1 
1 
1 
1 
1 
1 
1 
1 
1 
1 
1 
1 
1 
1 
1 
1 
1 
1 
1 
1 
1 
1 
1 
1 
1 
1 
1 
1 
1 
1 
1 
1 
1 
1 
1 
1 
1 
1 
1 
1 
1 
1 
1 
1 
1 
1 
1 
1 
1 
1 
1 
1 
1 
1 
1 
1 
1 
1 
1 
1 
1 
1 
1 
1 
1 
1 
1 
1 
1 
1 
1 
1 
1 
1 
1 
1 
1 
1 
1 
1 
1 
1 
1 
1 
1 
1 
1 
1 
1 
1 
1 
1 
1 
1 
1 
1 
1 
1 
1 
1 
1 
1 
1 
1 
1 
1 
1 
1 
1 
1 
1 
1 
1 
1 
1 
1 
1 
1 
1 
1 
1 
1 
1 
1 
1 
1 
1 
1 
1 
1 
1 
1 
1 
1 
1 
1 
1 
1 
1 
1 
1 
1 
1 
1 
1 
1 
1 
1 
1 
1 
1 
1 
1 
1 
1 
1 
1 
1 
1 
1 
1 
1 
1 
1 
1 
1 
1 
1 
1 
1 
1 
1 
1 
1 
1 
1 
1 
1 
1 
1 
1 
1 
1 
1 
1 
1 
1 
1 
1 
1 
1 
1 
1 
1 
1 
1 
1 
1 
1 
1 
1 
1 
1 
1 
1 
1 
1 
1 
1 
1 
1 
1 
1 
1 
1 
1 
1 
1 
1 
1 
1 
1 
1 
1 
1 
1 
1 
1 
1 
1 
1 
1 
1 
1 
1 
1 
1 
1 
1 
1 
1 
1 
1 
1 
1 
1 
1 
1 
1 
1 
1 
1 
1 
1 
1 
1 
1 
1 
1 
1 
1 
1 
1 
1 
1 
1 
1 
1 
1 
1 
1 
1 
1 
1 
1 
1 
1 
1 
1 
1 
1 
1 
1 
1 
1 
1 
1 
1 
1 
1 
1 
1 
1 
1 
1 
1 
1 
1 
1 
1 
1 
1 
1 
1 
1 
1 
1 
1 
1 
1 
1 
1 
1 
1 
1 
1 
1 
1 
1 
1 
1 
1 
1 
1 
1 
1 
1 
1 
1 
1 
1 
1 
1 
1 
1 
1 
1 
1 
1 
1 
1 
1 
1 
1 
1 
1 
1 
1 
1 
1 
1 
1 
1 
1 
1 
1 
1 
1 
1 
1 
1 
1 
1 
1 
1 
1 
1 
1 
1 
1 
1 
1 
1 
1 
1 
1 
1 
1 
1 
1 
1 
1 
1 
1 
1 
1 
1 
1 
1 
1 
1 
1 
1 
1 
1 
1 
1 
1 
1 
1 
1 
1 
1 
1 
1 
1 
1 
1 
1 
1 
1 
1 
1 
1 
1 
1 
1 
1 
1 
1 
1 
1 
1 
1 
1 
1 
1 
1 
1 
1 
1 
1 
1 
1 
1 
1 
1 
1 
1 
1 
1 
1 
1 
1 
1 
1 
1 
1 
1 
1 
1 
1 
1 
1 
1 
1 
1 
1 
1 
1 
1 
1 
1 
1 
1 
1 
1 
1 
1 
1 
1 
1 
1 
1 
1 
1 
1 
1 
1 
1 
1 
1 
1 
1 
1 
1 
1 
1 
1 
1 
1 
1 
1 
1 
1 
1 
1 
1 
1 
1 
1 
1 
1 
1 
1 
1 
1 
1 
1 
1 
1 
1 
1 
1 
1 
1 
1 
1 
1 
1 
1 
1 
1 
1 
1 
1 
1 
1 
1 
1 
1 
1 
1 
1 
1 
1 
1 
1 
1 
1 
1 
1 
1 
1 
1 
1 
1 
1 
1 
1 
1 
1 
1 
1 
1 
1 
1 
1 
1 
1 
1 
1 
1 
1 
1 
1 
1 
1 
1 
1 
1 
1 
1 
1 
1 
1 
1 
1 
1 
1 
1 
1 
1 
1 
1 
1 
1 
1 
1 
1 
1 
1 
1 
1 
1 
1 
1 
1 
1 
1 
1 
1 
1 
1 
1 
1 
1 
1 
1 
1 
1 
1 
1 
1 
1 
1 
1 
1 
1 
1 
1 
1 
1 
1 
1 
1 
1 
1 
1 
1 
1 
1 
1 
1 
1 
1 
1 
1 
1 
1 
1 
1 
1 
1 
1 
1 
1 
1 
1 
1 
1 
1 
1 
1 
1 
1 
1 
1 
1 
1 
1 
1 
1 
1 
1 
1 
1 
1 
1 
1 
1 
1 
1 
1 
1 
1 
1 
1 
1 
1 
1 
1 
1 
1 
1 
1 
1 
1 
1 
1 
1 
1 
1 
1 
1 
1 
1 
1 
1 
1 
1 
1 
1 
1 
1 
1 
1 
1 
1 
1 
1 
1 
1 
1 
1 
1 
1 
1 
1 
1 
1 
1 
1 
1 
1 
1 
1 
1 
1 
1 
1 
1 
1 
1 
1 
1 
1 
1 
1 
1 
1 
1 
1 
1 
1 
1 
1 
1 
1 
1 
1 
1 
1 
1 
1 
1 
1 
1 
1 
1 
1 
1 
1 
1 
1 
1 
1 
1 
1 
1 
1 
1 
1 
1 
1 
1 
1 
1 
1 
1 
1 
1 
1 
1 
1 
1 
1 
1 
1 
1 
1 
1 
1 
1 
1 
1 
1 
1 
1 
1 
1 
1 
1 
1 
1 
1 
1 
1 
1 
1 
1 
1 
1 
1 
1 
1 
1 
1 
1 
1 
1 
1 
1 
1 
1 
1 
1 
1 
1 
1 
1 
1 
1 
1 
1 
1 
1 
1 
1 
1 
1 
1 
1 
1 
1 
1 
1 
1 
1 
1 
1 
1 
1 
1 
1 
1 
1 
1 
1 
1 
1 
1 
1 
1 
1 
1 
1 
1 
1 
1 
1 
1 
1 
1 
1 
1 
1 
1 
1 
1 
1 
1 
1 
1 
1 
1 
1 
1 
1 
1 
1 
1 
1 
1 
1 
1 
1 
1 
1 
1 
1 
1 
1 
1 
1 
1 
1 
1 
1 
1 
1 
1 
1 
1 
1 
1 
1 
1 
1 
1 
1 
1 
1 
1 
1 
1 
1 
1 
1 
1 
1 
1 
1 
1 
1 
1 
1 
1 
1 
1 
1 
1 
1 
1 
1 
1 
1 
1 
1 
1 
1 
1 
1 
1 
1 
1 
1 
1 
1 
1 
1 
1 
1 
1 
1 
1 
1 
1 
1 
1 
1 
1 
1 
1 
1 
1 
1 
1 
1 
1 
1 
1 
1 
1 
1 
1 
1 
1 
1 
1 
1 
1 
1 
1 
1 
1 
1 
1 
1 
1 
1 
1 
1 
1 
1 
1 
1 
1 
1 
1 
1 
1 
1 
1 
1 
1 
1 
1 
1 
1 
1 
1 
1 
1 
1 
1 
1 
1 
1 
1 
1 
1 
1 
1 
1 
1 
1 
1 
1 
1 
1 
1 
1 
1 
1 
1 
1 
1 
1 
1 
1 
1 
1 
1 
1 
1 
1 
1 
1 
1 
1 
1 
1 
1 
1 
1 
1 
1 
1 
1 
1 
1 
1 
1 
1 
1 
1 
1 
1 
1 
1 
1 
1 
1 
1 
1 
1 
1 
1 
1 
1 
1 
1 
1 
1 
1 
1 
1 
1 
1 
1 
1 
1 
1 
1 
1 
1 
1 
1 
1 
1 
1 
1 
1 
1 
1 
1 
1 
1 
1 
1 
1 
1 
1 
1 
1 
1 
1 
1 
1 
1 
1 
1 
1 
1 
1 
1 
1 
1 
1 
1 
1 
1 
1 
1 
1 
1 
1 
1 
1 
1 
1 
1 
1 
1 
1 
1 
1 
1 
1 
1 
1 
1 
1 
1 
1 
1 
1 
1 
1 
1 
1 
1 
1 
1 
1 
1 
1 
1 
1 
1 
1 
1 
1 
1 
1 
1 
1 
1 
1 
1 
1 
1 
1 
1 
1 
1 
1 
1 
1 
1 
1 
1 
1 
1 
1 
1 
1 
1 
1 
1 
1 
1 
1 
1 
1 
1 
1 
1 
1 
1 
1 
1 
1 
1 
1 
1 
1 
1 
1 
1 
1 
1 
1 
1 
1 
1 
1 
1 
1 
1 
1 
1 
1 
1 
1 
1 
1 
1 
1 
1 
1 
1 
1 
1 
1 
1 
1 
1 
1 
1 
1 
1 
1 
1 
1 
1 
1 
1 
1 
1 
1 
1 
1 
1 
1 
1 
1 
1 
1 
1 
1 
1 
1 
1 
1 
1 
1 
1 
1 
1 
1 
1 
1 
1 
1 
1 
1 
1 
1 
1 
1 
1 
1 
1 
1 
1 
1 
1 
1 
1 
1 
1 
1 
1 
1 
1 
1 
1 
1 
1 
1 
1 
1 
1 
1 
1 
1 
1 
1 
1 
1 
1 
1 
1 
1 
1 
1 
1 
1 
1 
1 
1 
1 
1 
1 
1 
1 
1 
1 
1 
1 
1 
1 
1 
1 
1 
1 
1 
1 
1 
1 
1 
1 
1 
1 
1 
1 
1 
1 
1 
1 
1 
1 
1 
1 
1 
1 
1 
1 
1 
1 
1 
1 
1 
1 
1 
1 
1 
1 
1 
1 
1 
1 
1 
1 
1 
1 
1 
1 
1 
1 
1 
1 
1 
1 
1 
1 
1 
1 
1 
1 
1 
1 
1 
1 
1 
1 
1 
1 
1 
1 
1 
1 
1 
1 
1 
1 
1 
1 
1 
1 
1 
1 
1 
1 
1 
1 
1 
1 
1 
1 
1 
1 
1 
1 
1 
1 
1 
1 
1 
1 
1 
1 
1 
1 
1 
1 
1 
1 
1 
1 
1 
1 
1 
1 
1 
1 
1 
1 
1 
1 
1 
1 
1 
1 
1 
1 
1 
1 
1 
1 
1 
1 
1 
1 
1 
1 
1 
1 
1 
1 
1 
1 
1 
1 
1 
1 
1 
1 
1 
1 
1 
1 
1 
1 
1 
1 
1 
1 
1 
1 
1 
1 
1 
1 
1 
1 
1 
1 
1 
1 
1 
1 
1 
1 
1 
1 
1 
1 
1 
1 
1 
1 
1 
1 
1 
1 
1 
1 
1 
1 
1 
1 
1 
1 
1 
1 
1 
1 
1 
1 
1 
1 
1 
1 
1 
1 
1 
1 
1 
1 
1 
1 
1 
1 
1 
1 
1 
1 
1 
1 
1 
1 
1 
1 
1 
1 
1 
1 
1 
1 
1 
1 
1 
1 
1 
1 
1 
1 
1 
1 
1 
1 
1 
1 
1 
1 
1 
1 
1 
1 
1 
1 
1 
1 
1 
1 
1 
1 
1 
1 
1 
1 
1 
1 
1 
1 
1 
1 
1 
1 
1 
1 
1 
1 
1 
1 
1 
1 
1 
1 
1 
1 
1 
1 
1 
1 
1 
1 
1 
1 
1 
1 
1 
1 
1 
1 
1 
1 
1 
1 
1 
1 
1 
1 
1 
1 
1 
1 
1 
1 
1 
1 
1 
1 
1 
1 
1 
1 
1 
1 
1 
1 
1 
1 
1 
1 
1 
1 
1 
1 
1 
1 
1 
1 
1 
1 
1 
1 
1 
1 
1 
1 
1 
1 
1 
1 
1 
1 
1 
1 
1 
1 
1 
1 
1 
1 
1 
1 
1 
1 
1 
1 
1 
1 
1 
1 
1 
1 
1 
1 
1 
1 
1 
1 
1 
1 
1 
1 
1 
1 
1 
1 
1 
1 
1 
1 
1 
1 
1 
1 
1 
1 
1 
1 
1 
1 
1 
1 
1 
1 
1 
1 
1 
1 
1 
1 
1 
1 
1 
1 
1 
1 
1 
1 
1 
1 
1 
1 
1 
1 
1 
1 
1 
1 
1 
1 
1 
1 
1 
1 
1 
1 
1 
1 
1 
1 
1 
1 
1 
1 
1 
1 
1 
1 
1 
1 
1 
1 
1 
1 
1 
1 
1 
1 
1 
1 
1 
1 
1 
1 
1 
1 
1 
1 
1 
1 
1 
1 
1 
1 
1 
1 
1 
1 
1 
1 
1 
1 
1 
1 
1 
1 
1 
1 
1 
1 
1 
1 
1 
1 
1 
1 
1 
1 
1 
1 
1 
1 
1 
1 
1 
1 
1 
1 
1 
1 
1 
1 
1 
1 
1 
1 
1 
1 
1 
1 
1 
1 
1 
1 
1 
1 
1 
1 
1 
1 
1 
1 
1 
1 
1 
1 
1 
1 
1 
1 
1 
1 
1 
1 
1 
1 
1 
1 
1 
1 
1 
1 
1 
1 
1 
1 
1 
1 
1 
1 
1 
1 
1 
1 
1 
1 
1 
1 
1 
1 
1 
1 
1 
1 
1 
1 
1 
1 
1 
1 
1 
1 
1 
1 
1 
1 
1 
1 
1 
1 
1 
1 
1 
1 
1 
1 
1 
1 
1 
1 
1 
1 
1 
1 
1 
1 
1 
1 
1 
1 
1 
1 
1 
1 
1 
1 
1 
1 
1 
1 
1 
1 
1 
1 
1 
1 
1 
1 
1 
1 
1 
1 
1 
1 
1 
1 
1 
1 
1 
1 
1 
1 
1 
1 
1 
1 
1 
1 
1 
1 
1 
1 
1 
1 
1 
1 
1 
1 
1 
1 
1 
1 
1 
1 
1 
1 
1 
1 
1 
1 
1 
1 
1 
1 
1 
1 
1 
1 
1 
1 
1 
1 
1 
1 
1 
1 
1 
1 
1 
1 
1 
1 
1 
1 
1 
1 
1 
1 
1 
1 
1 
1 
1 
1 
1 
1 
1 
1 
1 
1 
1 
1 
1 
1 
1 
1 
1 
1 
1 
1 
1 
1 
1 
1 
1 
1 
1 
1 
1 
1 
1 
1 
1 
1 
1 
1 
1 
1 
1 
1 
1 
1 
1 
1 
1 
1 
1 
1 
1 
1 
1 
1 
1 
1 
1 
1 
1 
1 
1 
1 
1 
1 
1 
1 
1 
1 
1 
1 
1 
1 
1 
1 
1 
1 
1 
1 
1 
1 
1 
1 
1 
1 
1 
1 
1 
1 
1 
1 
1 
1 
1 
1 
1 
1 
1 
1 
1 
1 
1 
1 
1 
1 
1 
1 
1 
1 
1 
1 
1 
1 
1 
1 
1 
1 
1 
1 
1 
1 
1 
1 
1 
1 
1 
1 
1 
1 
1 
1 
1 
1 
1 
1 
1 
1 
1 
1 
1 
1 
1 
1 
1 
1 
1 
1 
1 
1 
1 
1 
1 
1 
1 
1 
1 
1 
1 
1 
1 
1 
1 
1 
1 
1 
1 
1 
1 
1 
1 
1 
1 
1 
1 
1 
1 
1 
1 
1 
1 
1 
1 
1 
1 
1 
1 
1 
1 
1 
1 
1 
1 
1 
1 
1 
1 
1 
1 
1 
1 
1 
1 
1 
1 
1 
1 
1 
1 
1 
1 
1 
1 
1 
1 
1 
1 
1 
1 
1 
1 
1 
1 
1 
1 
1 
1 
1 
1 
1 
1 
1 
1 
1 
1 
1 
1 
1 
1 
1 
1 
1 
1 
1 
1 
1 
1 
1 
1 
1 
1 
1 
1 
1 
1 
1 
1 
1 
1 
1 
1 
1 
1 
1 
1 
1 
1 
1 
1 
1 
1 
1 
1 
1 
1 
1 
1 
1 
1 
1 
1 
1 
1 
1 
1 
1 
1 
1 
1 
1 
1 
1 
1 
1 
1 
1 
1 
1 
1 
1 
1 
1 
1 
1 
1 
1 
1 
1 
1 
1 
1 
1 
1 
1 
1 
1 
1 
1 
1 
1 
1 
1 
1 
1 
1 
1 
1 
1 
1 
1 
1 
1 
1 
1 
1 
1 
1 
1 
1 
1 
1 
1 
1 
1 
1 
1 
1 
1 
1 
1 
1 
1 
1 
1 
1 
1 
1 
1 
1 
1 
1 
1 
1 
1 
1 
1 
1 
1 
1 
1 
1 
1 
1 
1 
1 
1 
1 
1 
1 
1 
1 
1 
1 
1 
1 
1 
1 
1 
1 
1 
1 
1 
1 
1 
1 
1 
1 
1 
1 
1 
1 
1 
1 
1 
1 
1 
1 
1 
1 
1 
1 
1 
1 
1 
1 
1 
1 
1 
1 
1 
1 
1 
1 
1 
1 
1 
1 
1 
1 
1 
1 
1 
1 
1 
1 
1 
1 
1 
1 
1 
1 
1 
1 
1 
1 
1 
1 
1 
1 
1 
1 
1 
1 
1 
1 
1 
1 
1 
1 
1 
1 
1 
1 
1 
1 
1 
1 
1 
1 
1 
1 
1 
1 
1 
1 
1 
1 
1 
1 
1 
1 
1 
1 
1 
1 
1 
1 
1 
1 
1 
1 
1 
1 
1 
1 
1 
1 
1 
1 
1 
1 
1 
1 
1 
1 
1 
1 
1 
1 
1 
1 
1 
1 
1 
1 
1 
1 
1 
1 
1 
1 
1 
1 
1 
1 
1 
1 
1 
1 
1 
1 
1 
1 
1 
1 
1 
1 
1 
1 
1 
1 
1 
1 
1 
1 
1 
1 
1 
1 
1 
1 
1 
1 
1 
1 
1 
1 
1 
1 
1 
1 
1 
1 
1 
1 
1 
1 
1 
1 
1 
1 
1 
1 
1 
1 
1 
1 
1 
1 
1 
1 
1 
1 
1 
1 
1 
1 
1 
1 
1 
1 
1 
1 
1 
1 
1 
1 
1 
1 
1 
1 
1 
1 
1 
1 
1 
1 
1 
1 
1 
1 
1 
1 
1 
1 
1 
1 
1 
1 
1 
1 
1 
1 
1 
1 
1 
1 
1 
1 
1 
1 
1 
1 
1 
1 
1 
1 
1 
1 
1 
1 
1 
1 
1 
1 
1 
1 
1 
1 
1 
1 
1 
1 
1 
1 
1 
1 
1 
1 
1 
1 
1 
1 
1 
1 
1 
1 
1 
1 
1 
1 
1 
1 
1 
1 
1 
1 
1 
1 
1 
1 
1 
1 
1 
1 
1 
1 
1 
1 
1 
1 
1 
1 
1 
1 
1 
1 
1 
1 
1 
1 
1 
1 
1 
1 
1 
1 
1 
1 
1 
1 
1 
1 
1 
1 
1 
1 
1 
1 
1 
1 
1 
1 
1 
1 
1 
1 
1 
1 
1 
1 
1 
1 
1 
1 
1 
1 
1 
1 
1 
1 
1 
1 
1 
1 
1 
1 
1 
1 
1 
1 
1 
1 
1 
1 
1 
1 
1 
1 
1 
1 
1 
1 
1 
1 
1 
1 
1 
1 
1 
1 
1 
1 
1 
1 
1 
1 
1 
1 
1 
1 
1 
1 
1 
1 
1 
1 
1 
1 
1 
1 
1 
1 
1 
1 
1 
1 
1 
1 
1 
1 
1 
1 
1 
1 
1 
1 
1 
1 
1 
1 
1 
1 
1 
1 
1 
1 
1 
1 
1 
1 
1 
1 
1 
1 
1 
1 
1 
1 
1 
1 
1 
1 
1 
1 
1 
1 
1 
1 
1 
1 
1 
1 
1 
1 
1 
1 
1 
1 
1 
1 
1 
1 
1 
1 
1 
1 
1 
1 
1 
1 
1 
1 
1 
1 
1 
1 
1 
1 
1 
1 
1 
1 
1 
1 
1 
1 
1 
1 
1 
1 
1 
1 
1 
1 
1 
1 
1 
1 
1 
1 
1 
1 
1 
1 
1 
1 
1 
1 
1 
1 
1 
1 
1 
1 
1 
1 
1 
1 
1 
1 
1 
1 
1 
1 
1 
1 
1 
1 
1 
1 
1 
1 
1 
1 
1 
1 
1 
1 
1 
1 
1 
1 
1 
1 
1 
1 
1 
1 
1 
1 
1 
1 
1 
1 
1 
1 
1 
1 
1 
1 
1 
1 
1 
1 
1 
1 
1 
1 
1 
1 
1 
1 
1 
1 
1 
1 
1 
1 
1 
1 
1 
1 
1 
1 
1 
1 
1 
1 
1 
1 
1 
1 
1 
1 
1 
1 
1 
1 
1 
1 
1 
1 
1 
1 
1 
1 
1 
1 
1 
1 
1 
1 
1 
1 
1 
1 
1 
1 
1 
1 
1 
1 
1 
1 
1 
1 
1 
1 
1 
1 
1 
1 
1 
1 
1 
1 
1 
1 
1 
1 
1 
1 
1 
1 
1 
1 
1 
1 
1 
1 
1 
1 
1 
1 
1 
1 
1 
1 
1 
1 
1 
1 
1 
1 
1 
1 
1 
1 
1 
1 
1 
1 
1 
1 
1 
1 
1 
1 
1 
1 
1 
1 
1 
1 
1 
1 
1 
1 
1 
1 
1 
1 
1 
1 
1 
1 
1 
1 
1 
1 
1 
1 
1 
1 
1 
1 
1 
1 
1 
1 
1 
1 
1 
1 
1 
1 
1 
1 
1 
1 
1 
1 
1 
1 
1 
1 
1 
1 
1 
1 
1 
1 
1 
1 
1 
1 
1 
1 
1 
1 
1 
1 
1 
1 
1 
1 
1 
1 
1 
1 
1 
1 
1 
1 
1 
1 
1 
1 
1 
1 
1 
1 
1 
1 
1 
1 
1 
1 
1 
1 
1 
1 
1 
1 
1 
1 
1 
1 
1 
1 
1 
1 
1 
1 
1 
1 
1 
1 
1 
1 
1 
1 
1 
1 
1 
1 
1 
1 
1 
1 
1 
1 
1 
1 
1 
1 
1 
1 
1 
1 
1 
1 
1 
1 
1 
1 
1 
1 
1 
1 
1 
1 
1 
1 
1 
1 
1 
1 
1 
1 
1 
1 
1 
1 
1 
1 
1 
1 
1 
1 
1 
1 
1 
1 
1 
1 
1 
1 
1 
1 
1 
1 
1 
1 
1 
1 
1 
1 
1 
1 
1 
1 
1 
1 
1 
1 
1 
1 
1 
1 
1 
1 
1 
1 
1 
1 
1 
1 
1 
1 
1 
1 
1 
1 
1 
1 
1 
1 
1 
1 
1 
1 
1 
1 
1 
1 
1 
1 
1 
1 
1 
1 
1 
1 
1 
1 
1 
1 
1 
1 
1 
1 
1 
1 
1 
1 
1 
1 
1 
1 
1 
1 
1 
1 
1 
1 
1 
1 
1 
1 
1 
1 
1 
1 
1 
1 
1 
1 
1 
1 
1 
1 
1 
1 
1 
1 
1 
1 
1 
1 
1 
1 
1 
1 
1 
1 
1 
1 
1 
1 
1 
1 
1 
1 
1 
1 
1 
1 
1 
1 
1 
1 
1 
1 
1 
1 
1 
1 
1 
1 
1 
1 
1 
1 
1 
1 
1 
1 
1 
1 
1 
1 
1 
1 
1 
1 
1 
1 
1 
1 
1 
1 
1 
1 
1 
1 
1 
1 
1 
1 
1 
1 
1 
1 
1 
1 
1 
1 
1 
1 
1 
1 
1 
1 
1 
1 
1 
1 
1 
1 
1 
1 
1 
1 
1 
1 
1 
1 
1 
1 
1 
1 
1 
1 
1 
1 
1 
1 
1 
1 
1 
1 
1 
1 
1 
1 
1 
1 
1 
1 
1 
1 
1 
1 
1 
1 
1 
1 
1 
1 
1 
1 
1 
1 
1 
1 
1 
1 
1 
1 
1 
1 
1 
1 
POINT_DATA 5000
VECTORS Stress float
93.9543 -255.628 0.
-430.29 -464.558 0.
-405.918 -408.229 0.
468.595 -10.4758 0.
433.949 -91.9893 0.
399.303 -173.503 0.
-597.744 -825.261 0.
-837.824 -1385.64 0.
-1077.9 -1946.03 0.
48.8649 -1492.13 0.
161.585 -1228.57 0.
274.305 -964.998 0.
-1128.07 -1368.26 0.
-1021.14 -1118.94 0.
-1411.01 -1060.69 0.
-1296.96 -794.935 0.
-1182.92 -529.18 0.
172.433 -17.3685 0.
-167.703 -811.94 0.
-507.839 -1606.51 0.
-750.182 -1848.23 0.
-593.704 -1483.59 0.
-437.226 -1118.95 0.
-1131.88 -1217.95 0.
-1043.62 -1011.76 0.
-826.896 -750.519 0.
-3018.94 -1493.74 0.
-2919.6 -1260.98 0.
-2633.15 -1035.76 0.
-2717.31 -1232.29 0.
-2801.46 -1428.82 0.
-3140.65 -1484.87 0.
-2922.76 -975.794 0.
-2704.88 -466.715 0.
-3363.23 -1163.56 0.
-3838.71 -2271.84 0.
-4314.2 -3380.12 0.
-7618.43 -3691.45 0.
-6849.51 -1896.92 0.
-7869.52 -892.226 0.
-7540.43 -125.618 0.
-7211.34 640.99 0.
-10999 -585.762 0.
-11101.8 -822.7 0.
-11204.5 -1059.64 0.
-15344.8 -4008.7 0.
-16417.3 -6508.34 0.
-17489.8 -9007.98 0.
86769.3 36108.3 0.
87292.6 37339.3 0.
-1.18042e+06 -504964 0.
88010.4 37659.2 0.
87495.1 36446.8 0.
-16962.4 -8778.16 0.
-16011.8 -6562.24 0.
-15061.3 -4346.33 0.
-10896.9 -1359.32 0.
-10641.8 -764.834 0.
-10386.8 -170.347 0.
-8178.28 597.507 0.
-8358.45 176.827 0.
-8538.61 -243.853 0.
-7737.92 -446.928 0.
-8046.9 -1166.53 0.
-2694.11 423.951 0.
-3375.07 -1165.6 0.
-4056.02 -2755.16 0.
-2748.03 -2708.19 0.
-2326 -1724.38 0.
-1903.96 -740.564 0.
-2233.45 -665.743 0.
-2315.07 -856.522 0.
-2396.69 -1047.3 0.
-2945 -1057.7 0.
-2782.4 -677.751 0.
-1077.76 340.652 0.
-1396.73 -471.607 0.
-1751.7 -1299.29 0.
-117.731 -1153 0.
-231.343 -1417.44 0.
-344.955 -1681.88 0.
-90.4571 -1427.74 0.
196.721 -756.486 0.
483.899 -85.2297 0.
-905.165 -467.076 0.
-866.087 -374.752 0.
-827.009 -282.428 0.
-1173.1 -795.957 0.
-1387.04 -1294.97 0.
-256.165 -1145.47 0.
-206.051 -1028.06 0.
-155.937 -910.661 0.
-463.508 -908.959 0.
-375.422 -705.168 0.
-287.337 -501.377 0.
-371.948 -463.14 0.
-350.435 -412.958 0.
-328.922 -362.776 0.
-159.619 -306.37 0.
-179.9 -353.233 0.
169.033 -192.399 0.
-265.494 -363.684 0.
-240.994 -308.137 0.
256.924 -67.826 0.
222.636 -149.85 0.
188.348 -231.875 0.
-365.111 -693.105 0.
-604.992 -1253.42 0.
-844.874 -1813.74 0.
1.54126 -1482.13 0.
113.951 -1218.18 0.
226.36 -954.234 0.
-1353.07 -1432.95 0.
-1246.03 -1183.76 0.
-921.955 -821.05 0.
-807.614 -555.318 0.
-693.273 -289.587 0.
-1096.1 -528.934 0.
-1435.43 -1323.48 0.
-1774.77 -2118.02 0.
1196.37 -983.018 0.
1353.29 -618.298 0.
1510.21 -253.579 0.
-1763.56 -1456.23 0.
-1675.78 -1250.63 0.
-1918.7 -1186.76 0.
-2807.21 -1373.67 0.
-2708.53 -1140.53 0.
-2538.36 -964.407 0.
-2622.42 -1161.04 0.
-2706.47 -1357.67 0.
-3019.1 -1400.12 0.
-2801.42 -890.19 0.
-2583.74 -380.261 0.
-2764.61 -877.511 0.
-3240.87 -1985.24 0.
-3717.14 -3092.97 0.
-7451.03 -3587.79 0.
-6682.31 -1792.96 0.
-6732.33 -370.685 0.
-6402.19 395.825 0.
-6072.06 1162.33 0.
-10770.9 -460.498 0.
-10875.4 -695.842 0.
-10979.9 -931.184 0.
-11596.5 -2381.42 0.
-12673.8 -4886.3 0.
-13751 -7391.17 0.
80403 33404.2 0.
80917.6 34634.8 0.
-1.0636e+06 -454864 0.
81415.1 34860.3 0.
80908.4 33648.3 0.
-13298.8 -7190.34 0.
-12344.5 -4969.75 0.
-11390.3 -2749.15 0.
-10553.8 -1185.04 0.
-10298.6 -591.346 0.
-10043.3 2.35408 0.
-6826.39 1211.03 0.
-7006.54 789.806 0.
-7186.7 368.584 0.
-7229.64 -195.459 0.
-7539.46 -914.319 0.
-3060.56 297.308 0.
-3740.87 -1292.08 0.
-4421.18 -2881.46 0.
-1514.99 -2149.04 0.
-1092.12 -1165.15 0.
-669.247 -181.259 0.
-2233.93 -632.342 0.
-2315.45 -823.526 0.
-2396.96 -1014.71 0.
-3128.86 -1105.6 0.
-2966.62 -725.388 0.
-2448.54 -213.369 0.
-2692.76 -992.607 0.
-3047.85 -1819.37 0.
2857.96 152.009 0.
2743.72 -112.591 0.
2629.49 -377.193 0.
-1132.32 -1843.07 0.
-846.122 -1171.75 0.
-559.925 -500.433 0.
-1383.2 -640.594 0.
-1345.02 -548.092 0.
-1306.85 -455.59 0.
-899.928 -646.94 0.
-1114.06 -1146.06 0.
-482.689 -1212 0.
-432.893 -1094.4 0.
-383.097 -976.798 0.
-353.504 -831.552 0.
-264.58 -629.29 0.
-175.656 -427.026 0.
-178.565 -347.329 0.
-157.07 -297.217 0.
-135.575 -247.106 0.
-277.279 -324.641 0.
-297.832 -371.223 0.
115.051 -427.547 0.
-328.598 -790.362 0.
-303.994 -732.989 0.
-654.853 -1765.69 0.
-356.099 -1068.24 0.
-675.764 -1813.78 0.
-1647.64 -4095.29 0.
-1204.59 -3063.21 0.
-3809.26 -9142.44 0.
-5790.75 -14874.3 0.
-1510.73 -4889.74 0.
-1697.41 -5327.46 0.
-3477.33 -5926.18 0.
-3948.24 -7020.39 0.
-4788.34 -10753.3 0.
-1771.02 -3712.42 0.
-2105.04 -4491.32 0.
-4179.63 -5289.51 0.
-3939.79 -4729.8 0.
-6450.31 -10587.6 0.
-32587.9 -83489.3 0.
-1112.57 -10043 0.
-249.324 -8024.93 0.
-4804.92 -7326.3 0.
-4116.89 -5723.02 0.
-4986.58 -7810.69 0.
-4290.1 -5199.78 0.
-4107.85 -4776.91 0.
-3687.5 -3806.58 0.
-3655.49 -3730.73 0.
-4814.54 -6434.02 0.
-8625.76 -14688 0.
-5484.88 -7359.44 0.
-5489.83 -7371.15 0.
-4797.73 -6714.25 0.
-4925.77 -7017.48 0.
-20723.5 -43883.2 0.
-16798.6 -25687.3 0.
-12999.3 -16825.7 0.
-11614 -13902.1 0.
-9618.83 -9252.22 0.
-9752.83 -9570.42 0.
-14068.5 -8612.43 0.
-12685 -5387.86 0.
-12471.8 -4893.87 0.
-10389.9 -6698.99 0.
-12978.9 -12718.2 0.
-45102.6 -87651.8 0.
72904.8 28092.8 0.
80804.7 46638.5 0.
-889479 -357327 0.
81006.1 46604.2 0.
72955.7 27706 0.
-41943.8 -80994.4 0.
-12995.4 -13466.1 0.
-11591.3 -10208 0.
-13432 -8588.77 0.
-13165.5 -7967.52 0.
-14578.4 -11264.9 0.
-9864.65 -8439.82 0.
-8457.85 -5156.12 0.
-8368.11 -4945.58 0.
-8780.61 -4744.43 0.
-9220.07 -5777.53 0.
-7290.76 -8858.56 0.
-6669.7 -7407.42 0.
-8583.25 -11870.3 0.
-27497.2 -65093.5 0.
-3450.72 -8981.73 0.
-3592.2 -9308.53 0.
-5842.16 -9020 0.
-5227.14 -7586.71 0.
-7040.82 -11820.4 0.
-4525.04 -3970.35 0.
-4234.92 -3293.2 0.
-5554.33 -4961.69 0.
-4700.52 -3183.74 0.
-5439.26 -4904.11 0.
-4129.5 -21776.2 0.
-4929.48 -23646.3 0.
-43444.2 -113517 0.
-13515.1 -28722.6 0.
-6868.34 -13215 0.
-7069.99 -13687.1 0.
-3833.33 -5411 0.
-2738.86 -2861.88 0.
-3386.11 -4376.77 0.
-2056.55 -3820.36 0.
-2261.27 -4297.7 0.
-3865.05 -8655.93 0.
-1307.46 -2686.71 0.
-1152.63 -2324.32 0.
-981.548 -2486.4 0.
-827.211 -2122.14 0.
-1770.68 -4319.39 0.
-1056.61 -2736.7 0.
-290.158 -947.895 0.
-167.172 -660.557 0.
-808.673 -1297.83 0.
-1684.85 -3340.58 0.
324.905 431.866 0.
192.032 291.616 0.
111.281 103.279 0.
356.213 89.929 0.
390.874 173.791 0.
425.536 257.653 0.
361.064 670.109 0.
870.005 1856.46 0.
1378.95 3042.82 0.
1546.59 3208.22 0.
1335.53 2713.92 0.
1124.47 2219.62 0.
157.139 1811.72 0.
185.755 1881.28 0.
823.519 2152.71 0.
601.468 1637.18 0.
379.416 1121.66 0.
-731.589 973.006 0.
296.47 3368.39 0.
1324.53 5763.78 0.
4701.83 7428.8 0.
4008.38 5810.84 0.
3314.93 4192.88 0.
-116.336 2149.27 0.
-285.566 1754 0.
95.1206 1594.37 0.
-1195.39 944.379 0.
-1237.63 844.217 0.
-1342.48 900.969 0.
-939.053 1843.55 0.
-535.623 2786.13 0.
-721.706 2923.04 0.
-993.875 2288.95 0.
-1266.04 1654.87 0.
-725.879 3184.44 0.
496.498 6032.77 0.
1718.88 8881.12 0.
-2128.44 6832.46 0.
-2570.96 5795.82 0.
-2321.28 5016.02 0.
-2877.54 3716.51 0.
-3433.79 2417.01 0.
-6455.78 381.993 0.
-6412.29 482.1 0.
-6368.78 582.216 0.
-4602.99 -286.856 0.
-6549.52 -4805.57 0.
-8496 -9324.2 0.
64398.2 30876.8 0.
72002.4 48797.2 0.
-642606 -242805 0.
71970.4 49096.5 0.
64539.7 31564.4 0.
-7638.44 -8052.33 0.
-5550.44 -3203.15 0.
-3462.41 1646.09 0.
-5326.93 2351.27 0.
-5677.41 1534.36 0.
-6027.9 717.454 0.
-3974.33 1613.96 0.
-3868.64 1862.04 0.
-3762.94 2110.12 0.
-4925.32 1134.3 0.
-5174.71 546.081 0.
-2222.91 1760.55 0.
-989.991 4632.7 0.
242.932 7504.86 0.
3386.63 9601.36 0.
2329.78 7134.83 0.
1272.92 4668.3 0.
-292.309 3219.22 0.
-249.819 3313.52 0.
-207.329 3407.83 0.
-971.488 2381.57 0.
-1432.27 1309.52 0.
-1750.75 354.055 0.
-1038.8 2174.98 0.
-243.236 4031.73 0.
6017.73 8284.42 0.
6879.06 10293.6 0.
7740.38 12302.9 0.
3644.93 10150.1 0.
2274.55 6952.31 0.
904.172 3754.52 0.
18.7532 2161.74 0.
-312.916 1385.39 0.
-644.583 609.045 0.
240.772 1035.6 0.
299.173 1175.19 0.
333.014 1248.57 0.
167.937 864.325 0.
2.85968 480.083 0.
231.807 422.917 0.
286.7 556.635 0.
341.592 690.353 0.
263.349 564.918 0.
143.924 287.064 0.
24.4986 9.2085 0.
237.734 454.667 0.
492.866 1052.2 0.
147.704 388.022 0.
278.019 359.469 0.
197.209 171.116 0.
637.256 242.129 0.
671.018 326.531 0.
704.782 410.935 0.
336.344 690.845 0.
845.184 1877.49 0.
1354.03 3064.14 0.
1056.73 3027.32 0.
845.773 2533.54 0.
634.812 2039.76 0.
563.675 2017.78 0.
592.742 2086.6 0.
938.333 2232.31 0.
715.553 1717.18 0.
492.773 1202.06 0.
221.115 1413.1 0.
1250.93 3809.06 0.
2280.74 6205.01 0.
2666.92 6589.5 0.
1975.46 4972.39 0.
1283.99 3355.26 0.
669.718 2518.91 0.
499.7 2123.57 0.
1025.63 2026.41 0.
-614.085 1223.93 0.
-656.665 1123.75 0.
-924.875 1111.26 0.
-521.422 2053.96 0.
-117.969 2996.66 0.
-269.468 3146.51 0.
-541.97 2512.78 0.
-814.471 1879.05 0.
-918.295 3133.18 0.
303.606 5980.98 0.
1525.51 8828.79 0.
-1212.23 7259.57 0.
-1654.93 6222.05 0.
-853.682 5675.51 0.
-1411.54 4376.25 0.
-1969.39 3077 0.
-1835.25 2394.68 0.
-1792.07 2496.14 0.
-1748.88 2597.61 0.
-892.109 1281.2 0.
-2844.56 -3249.79 0.
-4796.95 -7780.71 0.
52638.4 26071.7 0.
60156.4 43854.8 0.
-398931 -138341 0.
59660.1 43948.8 0.
52322 26553.6 0.
-3929.63 -6501.96 0.
-1834.16 -1640.28 0.
261.351 3221.48 0.
-1119.92 4195.92 0.
-1472.2 3376.25 0.
-1824.48 2556.59 0.
-2022.77 2477.29 0.
-1917.09 2725.64 0.
-1811.4 2973.99 0.
-3270.18 1879.32 0.
-3520.18 1291.06 0.
-1574.2 2068.34 0.
-338.438 4940.46 0.
897.33 7812.58 0.
2021.31 9048.2 0.
966.608 6582.84 0.
-88.0974 4117.48 0.
98.752 3421.27 0.
142.028 3514.33 0.
185.304 3607.4 0.
64.6712 2859.57 0.
-397.327 1787.57 0.
-92.0378 1094.36 0.
649.526 2929.1 0.
1447.21 4787.89 0.
2684.07 6889.67 0.
3542.73 8895.53 0.
4401.4 10901.4 0.
4277.46 10458.6 0.
2905.97 7259.55 0.
1534.48 4060.51 0.
778.006 2517.88 0.
445.347 1741.42 0.
112.691 964.957 0.
521.832 1186.94 0.
579.173 1327.12 0.
291.541 1260.42 0.
126.611 876.359 0.
-38.3184 492.294 0.
207.631 444.683 0.
262.043 578.73 0.
316.454 712.777 0.
163.245 553.121 0.
43.6465 275.273 0.
-75.9522 -2.57612 0.
616.641 649.843 0.
871.84 1248.07 0.
-244.722 -114.963 0.
37.4405 -206.651 0.
-43.7296 -392.486 0.
425.477 -319.072 0.
425.784 -317.991 0.
426.089 -316.91 0.
-204.611 -714.299 0.
-370.691 -1100.44 0.
-536.773 -1486.58 0.
-1049.58 -1708.46 0.
-952.312 -1483.32 0.
-855.043 -1258.18 0.
-752.277 -1295.29 0.
-820.022 -1451.79 0.
-556.164 -1435.76 0.
-461.521 -1213.94 0.
-366.877 -992.121 0.
-493.112 -1211.96 0.
-990.767 -2360.66 0.
-1488.42 -3509.36 0.
-2345.28 -3870.67 0.
-1890.7 -2813.05 0.
-1436.12 -1755.43 0.
-753.974 -1393.03 0.
-857.119 -1638.06 0.
-444.391 -1661.9 0.
-1691.03 -1820.61 0.
-1479.88 -1331.25 0.
-1607.22 -1135.49 0.
-1794.31 -1571.4 0.
-1981.4 -2007.31 0.
-2163.36 -2051.61 0.
-1856.2 -1341.24 0.
-1549.04 -630.865 0.
-2637.06 -1645.05 0.
-3266.52 -3118.55 0.
-3895.99 -4592.05 0.
-5090.12 -4926.55 0.
-4878.17 -4435.12 0.
-3337.12 -3428.66 0.
-3485.26 -3772.96 0.
-3633.4 -4117.26 0.
-1642.39 -3813.62 0.
-2297.79 -5330.78 0.
-2953.16 -6847.93 0.
-733.828 -4719.11 0.
1066.37 -476.274 0.
2866.53 3766.51 0.
35885.3 9090.44 0.
28795.2 -7142.62 0.
6725.08 -29776.6 0.
27310.1 -7484.84 0.
34559.4 9092.96 0.
3530.67 4657.67 0.
1482.83 -142.233 0.
-565.077 -4942.16 0.
-3368 -7457.3 0.
-2627.61 -5737.29 0.
-1887.19 -4017.26 0.
-3173.32 -3772.74 0.
-2889.07 -3108.6 0.
-2604.81 -2444.45 0.
-4109.59 -2975.64 0.
-4062.14 -2864.72 0.
-2733.88 -2301.58 0.
-3096.02 -3143.2 0.
-3458.16 -3984.82 0.
-3689.3 -4198.6 0.
-3212.2 -3082.56 0.
-2735.1 -1966.51 0.
-1689.8 -1242.5 0.
-1779.08 -1446.96 0.
-1868.35 -1651.41 0.
-1339.04 -1335.38 0.
-1252.92 -1146.8 0.
-308.295 -605.159 0.
-579.511 -1158.99 0.
-812.464 -1696.43 0.
-2390.46 -2957.15 0.
-2926.95 -4203.29 0.
-3463.44 -5449.42 0.
-1983.68 -4690.13 0.
-1261.52 -3009.81 0.
-539.359 -1329.49 0.
-412.977 -866.555 0.
-404.12 -851.222 0.
-395.264 -835.889 0.
-326.389 -842.578 0.
-349.639 -897.273 0.
-604.329 -1009.69 0.
-496.518 -749.041 0.
-388.708 -488.397 0.
-108.687 -324.597 0.
-236.085 -616.124 0.
-363.483 -907.649 0.
-386.944 -826.236 0.
-230.23 -462.293 0.
-73.516 -98.3498 0.
223.038 -207.578 0.
38.2762 -631.707 0.
-482.963 -190.036 0.
-14.3252 -199.056 0.
-96.632 -383.555 0.
251.617 -365.597 0.
252.603 -364.745 0.
253.589 -363.894 0.
-22.2509 -604.432 0.
-188.781 -990.68 0.
-355.312 -1376.93 0.
-723.534 -1540.4 0.
-626.145 -1315.24 0.
-528.756 -1090.09 0.
-887.111 -1322.13 0.
-955.252 -1478.77 0.
-436.782 -1356.08 0.
-342.98 -1134.01 0.
-249.179 -911.933 0.
-422.949 -1149.54 0.
-919.802 -2299.71 0.
-1416.65 -3449.87 0.
-1635.17 -3532.83 0.
-1180.06 -2475.15 0.
-724.954 -1417.47 0.
-866.798 -1411.3 0.
-969.749 -1656.19 0.
-1597.68 -2126.1 0.
-1686.74 -1789.15 0.
-1476.6 -1299.59 0.
-1315.75 -979.772 0.
-1502.83 -1415.72 0.
-1689.91 -1851.67 0.
-1770.2 -1854.24 0.
-1463.87 -1142.98 0.
-1157.53 -431.715 0.
-1653.27 -1197.39 0.
-2284.67 -2670.28 0.
-2916.08 -4143.18 0.
-2735.16 -3887.24 0.
-2522.41 -3395.57 0.
-1320.52 -2537.63 0.
-1469.73 -2881.71 0.
-1618.92 -3225.79 0.
774.279 -2758.42 0.
116.057 -4277.69 0.
-542.142 -5796.95 0.
2225.9 -3386.68 0.
4033.92 861.021 0.
5841.91 5108.69 0.
24505.8 4122.28 0.
17512.9 -12013.5 0.
2622.01 -31492.6 0.
14581 -12963.2 0.
21720.1 3500.98 0.
6390.94 5962.49 0.
4335.66 1156.01 0.
2280.35 -3650.47 0.
-792.478 -6339.06 0.
-50.8014 -4615.28 0.
690.886 -2891.5 0.
-1357.18 -2970.48 0.
-1072.77 -2305.65 0.
-788.352 -1640.82 0.
-2703.69 -2341.78 0.
-2656.68 -2230.67 0.
-1635.86 -1800.73 0.
-1998.63 -2642.55 0.
-2361.39 -3484.37 0.
-2457.58 -3642.03 0.
-1979.46 -2525.41 0.
-1501.34 -1408.78 0.
-1537.71 -1145.18 0.
-1626.24 -1350.35 0.
-1714.76 -1555.51 0.
-1361.38 -1314.72 0.
-1275.99 -1124.94 0.
-632.488 -712.889 0.
-915.411 -1271.94 0.
-1147.85 -1809.35 0.
-1270.06 -2447.16 0.
-1806.39 -3693.92 0.
-2342.73 -4940.67 0.
-1984.7 -4661.56 0.
-1262.23 -2981.15 0.
-539.755 -1300.74 0.
-494.831 -869.014 0.
-485.82 -853.387 0.
-476.81 -837.761 0.
-546.768 -907.274 0.
-570.185 -961.747 0.
-352.255 -871.152 0.
-244.226 -610.696 0.
-136.198 -350.24 0.
-25.6357 -257.203 0.
-152.721 -548.921 0.
-279.806 -840.638 0.
-147.392 -694.376 0.
8.985 -330.373 0.
165.363 33.629 0.
-188.331 -352.327 0.
-374.457 -775.535 0.
-793.564 -419.891 0.
71.1583 122.679 0.
-67.2512 -203.3 0.
-105.532 -848.007 0.
117.627 -325.724 0.
249.425 -16.5979 0.
-279.961 -1516.19 0.
550.478 426.005 0.
391.094 58.1998 0.
-192.512 -916.354 0.
-508.015 -1649.84 0.
-9.05964 -482.945 0.
-582.059 -320.21 0.
-652.028 -489.761 0.
-141.718 -842.372 0.
113.479 -255.979 0.
-308.441 -1249.54 0.
-898.429 -2342.79 0.
-726.882 -1944.99 0.
-327.795 -1016.29 0.
137.504 -702.155 0.
175.329 -616.886 0.
226.334 -500.906 0.
-589.462 -535.446 0.
-800.989 -1028.06 0.
-626.238 -510.023 0.
-1172.4 -563.592 0.
-1485.02 -1307.14 0.
-1014.04 -786.069 0.
-617.163 136.274 0.
-307.482 855.174 0.
-1664.59 -2339.56 0.
-1357.73 -1627.28 0.
-1002.47 -802 0.
-553.982 -459.933 0.
-1520.57 -2713.02 0.
-2311.59 -4556.55 0.
-745.93 -3645.93 0.
-442.908 -2934.4 0.
70.2391 -3084.3 0.
23.5469 -3187.46 0.
181.11 -2814.13 0.
2947.96 -2179.02 0.
2696.51 -2768.29 0.
3284.51 -1398.95 0.
5880.26 -346.803 0.
5827.49 -472.614 0.
5628.27 -935.807 0.
14394.5 2021.28 0.
14249.1 1693.28 0.
3215.85 -5346.33 0.
9665.79 -411.057 0.
10304 1069.09 0.
6335.3 531.844 0.
5568.18 -1269.75 0.
4819.6 -3028.03 0.
3149.74 -1961.2 0.
3853.26 -324.806 0.
3916.96 -181.3 0.
158.858 -2850.43 0.
-289.452 -3899.78 0.
832.112 -1286 0.
-1606.75 -2434.3 0.
-2093.55 -3563.33 0.
-1054.9 -2472.52 0.
42.5036 88.0928 0.
-397.747 -939.185 0.
-440.698 -1211.77 0.
-543.501 -1450.99 0.
-339.271 -973.766 0.
-1766.78 -1945.17 0.
-902.664 71.894 0.
-1024.55 -211.664 0.
-1735.77 -2120.97 0.
-1998.18 -2730.98 0.
-816.067 -953.256 0.
-1361 -1669.02 0.
-1680.14 -2417.82 0.
549.692 -259.177 0.
74.7163 -1368.24 0.
90.7888 -1331.45 0.
-665.222 -1554.03 0.
-467.166 -1090.81 0.
-306.886 -715.675 0.
-946.814 -1753.55 0.
-864.718 -1555.46 0.
-1207.5 -2348.79 0.
-694.96 -790.979 0.
-329.988 58.7923 0.
498.02 678.368 0.
388.054 409.315 0.
259.591 96.9423 0.
31.6189 -224.826 0.
5.69017 -289.169 0.
464.335 777.16 0.
325.959 -18.2441 0.
232.229 -236.918 0.
246.376 -203.84 0.
-187.255 447.22 0.
-538.48 -384.452 0.
194.372 -54.378 0.
33.1379 -207.507 0.
-17.9436 -330.024 0.
-94.7811 -439.078 0.
-81.2138 -406.97 0.
-67.6471 -374.863 0.
114.428 -407.287 0.
-44.7721 -772.622 0.
-203.972 -1137.96 0.
-153.934 -1166.25 0.
-106.649 -1053.51 0.
-59.362 -940.764 0.
-694.965 -1158.04 0.
-664.99 -1092.09 0.
-337.948 -907.579 0.
-365.698 -977.271 0.
-393.449 -1046.96 0.
-264.011 -1109.33 0.
-409.161 -1449.4 0.
-554.311 -1789.47 0.
-424.539 -1836.58 0.
-393.265 -1766.91 0.
-361.992 -1697.24 0.
-751.365 -1572.62 0.
-555.464 -1116.07 0.
-364.268 -661.374 0.
-1318.31 -1086.16 0.
-1320.13 -1104.66 0.
-851.826 -952.55 0.
-933.533 -1144.91 0.
-1015.24 -1337.26 0.
-899.494 -1473.06 0.
-1020.2 -1757.62 0.
-1140.91 -2042.18 0.
-861.823 -1987.35 0.
-842.83 -1939.25 0.
-823.834 -1891.15 0.
445.818 -1869.84 0.
117.466 -2632.07 0.
729.472 -2940.62 0.
650.68 -3117.01 0.
571.892 -3293.4 0.
2668.37 -2541 0.
2571.88 -2768.04 0.
2475.4 -2995.09 0.
4607.38 -1814.91 0.
4954.2 -1014.35 0.
5301.02 -213.784 0.
11559.1 1284.96 0.
10647.2 -838.168 0.
4165.45 -5344.22 0.
7925.45 -1853.3 0.
8913.85 449.415 0.
5456 229.01 0.
5094.66 -621.727 0.
4733.31 -1472.46 0.
2581.93 -2771.22 0.
2559.32 -2828.77 0.
2536.71 -2886.32 0.
488.779 -3613.91 0.
625.756 -3295.19 0.
762.734 -2976.47 0.
-1178.89 -3202.83 0.
-857.051 -2446.77 0.
-610.022 -1839.24 0.
-681.882 -2007.48 0.
-753.742 -2175.72 0.
-874.096 -2202.49 0.
-709.678 -1819.96 0.
-545.261 -1437.42 0.
-1244.19 -1594.84 0.
-1234.28 -1568.82 0.
-1224.37 -1542.81 0.
-1414.36 -1637.18 0.
-1424.5 -1656.57 0.
-983.473 -1481.14 0.
-1142.35 -1790.92 0.
-1269.41 -2087.06 0.
-41.0595 -1759.75 0.
-73.4898 -1833.39 0.
-105.92 -1907.03 0.
-898.724 -2119.46 0.
-712.152 -1683.75 0.
-525.582 -1248.04 0.
-426.458 -881.164 0.
-261.677 -492.37 0.
-96.8979 -103.575 0.
-565.021 -625.337 0.
-763.342 -1089.19 0.
-303.185 -1210.69 0.
-251.749 -1098.22 0.
-200.313 -985.749 0.
-156.858 -925.599 0.
-179.06 -977.898 0.
-201.262 -1030.2 0.
-286.309 -948.505 0.
-167.864 -671.526 0.
-49.42 -394.547 0.
-395.343 -454.545 0.
-356.909 -373.783 0.
1227.96 417.618 0.
175.311 -117.339 0.
124.362 -239.799 0.
-278.659 -484.251 0.
-264.826 -452.696 0.
-250.994 -421.141 0.
31.6286 -411.826 0.
-128.002 -776.646 0.
-287.632 -1141.47 0.
42.1827 -1049.28 0.
89.436 -936.843 0.
136.69 -824.404 0.
-377.187 -991.338 0.
-348.043 -924.816 0.
-527.299 -956.988 0.
-556.4 -1026.05 0.
-585.501 -1095.12 0.
-118.807 -1017.47 0.
-264.295 -1357.4 0.
-409.783 -1697.33 0.
-501.54 -1839.28 0.
-470.176 -1769.44 0.
-438.811 -1699.61 0.
-388.312 -1385.03 0.
-191.706 -928.758 0.
-13.3865 -480.119 0.
-1204.91 -1004.93 0.
-1206.67 -1023.43 0.
-549.637 -791.432 0.
-632.351 -983.687 0.
-715.066 -1175.94 0.
-401.102 -1230.04 0.
-522.33 -1514.53 0.
-643.558 -1799.02 0.
-421.311 -1768.3 0.
-402.835 -1719.94 0.
-384.356 -1671.59 0.
990.127 -1604.96 0.
661.907 -2367.82 0.
1477.18 -2589.69 0.
1398.02 -2765.48 0.
1318.86 -2941.26 0.
2531.37 -2570.95 0.
2434.92 -2797.02 0.
2338.47 -3023.09 0.
3836.33 -2112.21 0.
4184.96 -1312.86 0.
4533.59 -513.504 0.
8489.95 1.40213 0.
7582.17 -2118.27 0.
831.044 -6746.21 0.
6563.47 -2410.82 0.
7549.23 -109.102 0.
4554.45 -126.244 0.
4192.08 -975.185 0.
3829.7 -1824.13 0.
2326.95 -2851.46 0.
2304.21 -2909.05 0.
2281.47 -2966.64 0.
1309.88 -3231.42 0.
1446.22 -2911.28 0.
1582.56 -2591.13 0.
-236.747 -2771.91 0.
86.0295 -2015.88 0.
-379.94 -1706.54 0.
-451.274 -1874.91 0.
-522.607 -2043.27 0.
-866.392 -2164.27 0.
-701.436 -1782.14 0.
-536.481 -1400.01 0.
-771.247 -1361.12 0.
-762.047 -1334.47 0.
-752.846 -1307.82 0.
-1258.1 -1538.57 0.
-1268.92 -1557.69 0.
-551.309 -1267.07 0.
-794.969 -1611.49 0.
-923.279 -1906.46 0.
37.7533 -1698.63 0.
4.64187 -1771.03 0.
-28.4696 -1843.43 0.
-872.039 -2077.05 0.
-684.947 -1641.3 0.
-497.856 -1205.54 0.
-228.786 -761.714 0.
-63.1665 -373.316 0.
102.452 15.082 0.
-474.915 -552.617 0.
-673.635 -1016.39 0.
-276.942 -1168.06 0.
-226.894 -1054.09 0.
-176.845 -940.123 0.
-5.58225 -833.227 0.
-28.81 -884.692 0.
-52.0375 -936.157 0.
-532.043 -1023.67 0.
-413.853 -746.644 0.
-295.665 -469.624 0.
-160.915 -323.789 0.
-123.622 -242.487 0.
1178.93 155.247 0.
146.299 -143.968 0.
200.349 -20.5604 0.
-161.098 -157.086 0.
-356.638 -619.075 0.
-552.18 -1081.06 0.
-353.344 -1193.94 0.
-316.877 -1119.46 0.
-280.411 -1044.98 0.
-25.8318 -1117.9 0.
-196.906 -1518.65 0.
-367.98 -1919.4 0.
-611.79 -1911.69 0.
-509.731 -1668.54 0.
-728.339 -1572.54 0.
-718.852 -1550.71 0.
-709.365 -1528.88 0.
-256.03 -1402.6 0.
-398.055 -1733.57 0.
-540.079 -2064.53 0.
-655.745 -2178.16 0.
-585.041 -2013.47 0.
-514.336 -1848.77 0.
-480.563 -1830.31 0.
-505.841 -1889.58 0.
-246.024 -1826.6 0.
-1429.99 -2216.33 0.
-1359.33 -2052.79 0.
-642.864 -1694.37 0.
-802.354 -2067.78 0.
-961.844 -2441.2 0.
-698.366 -2548.43 0.
-737.601 -2648.58 0.
-776.836 -2748.72 0.
-562.002 -2958.39 0.
-789.478 -3487.04 0.
-1016.96 -4015.69 0.
438.486 -3604.42 0.
342.89 -3822.07 0.
1210.51 -3613.65 0.
1155.66 -3736.86 0.
1100.81 -3860.09 0.
1998.62 -3439.75 0.
2168.39 -3033.9 0.
2338.17 -2628.05 0.
3290.94 -1782.22 0.
3567.65 -1137.06 0.
3844.36 -491.902 0.
6882.71 537.921 0.
6614.52 -88.5802 0.
138.214 -3377.23 0.
6280.98 -545.097 0.
6388.42 -298.997 0.
3400.17 -1478.3 0.
3260.88 -1802.79 0.
3121.59 -2127.29 0.
2003.27 -2853.03 0.
1893.44 -3103.72 0.
1783.62 -3354.42 0.
1318.14 -3463.98 0.
1434.02 -3190.9 0.
1549.9 -2917.83 0.
303.581 -3111.11 0.
484.862 -2687.89 0.
-649.632 -2885.27 0.
-665.932 -2919.66 0.
-682.23 -2954.05 0.
-1001.08 -3061.74 0.
-948.77 -2936.23 0.
-896.464 -2810.72 0.
-1130.38 -2708.36 0.
-991.79 -2389.96 0.
-853.194 -2071.57 0.
-1375.1 -2182.85 0.
-1325.63 -2076.12 0.
-515.777 -1652.88 0.
-729.178 -1923.58 0.
-818.178 -2140.98 0.
-193.538 -2057.8 0.
-288.26 -2286.52 0.
-382.984 -2515.23 0.
-1076.43 -2811.57 0.
-967.537 -2555.8 0.
-858.646 -2300.03 0.
-726.531 -2105.68 0.
-673.517 -1985.13 0.
-620.504 -1864.58 0.
-794.486 -1519.9 0.
-567.046 -990.265 0.
65.6231 -396.405 0.
-48.8853 -665.217 0.
-163.394 -934.03 0.
-62.61 -940.955 0.
56.3947 -671.777 0.
175.401 -402.598 0.
-451.095 -617.011 0.
-482.907 -687.723 0.
-514.718 -758.435 0.
-51.5244 -453.534 0.
19.5454 -285.666 0.
374.493 -154.859 0.
13.9866 -168.715 0.
67.2441 -44.57 0.
-1.48841 -57.6707 0.
-197.313 -519.688 0.
-393.137 -981.706 0.
-336.509 -1155.31 0.
-299.98 -1081.28 0.
-263.451 -1007.25 0.
-266.649 -1190.96 0.
-437.552 -1592.36 0.
-608.456 -1993.76 0.
-510.199 -1835.09 0.
-407.504 -1592.85 0.
-369.719 -1389.89 0.
-360.865 -1367.72 0.
-352.012 -1345.55 0.
-292.115 -1386.26 0.
-434.3 -1717.13 0.
-576.486 -2048.01 0.
-588.368 -2118.34 0.
-516.989 -1953.88 0.
-445.609 -1789.42 0.
-565.198 -1837.71 0.
-590.955 -1896.64 0.
-4.66889 -1693.2 0.
-799.309 -1914.16 0.
-728.083 -1750.94 0.
-202.477 -1474.87 0.
-362.907 -1848.25 0.
-523.337 -2221.62 0.
-486.147 -2429.8 0.
-526.68 -2529.09 0.
-567.214 -2628.37 0.
-69.179 -2716.47 0.
-298.443 -3244.54 0.
-527.709 -3772.6 0.
682.268 -3469.03 0.
586.246 -3686.36 0.
964.492 -3690.25 0.
909.833 -3813.33 0.
855.174 -3936.41 0.
1759.11 -3511.39 0.
1929.65 -3105.91 0.
2100.18 -2700.43 0.
2382.65 -2137.47 0.
2659.6 -1493.24 0.
2936.55 -849.011 0.
5461.17 -43.1842 0.
5192.69 -668.651 0.
1467.32 -2776.85 0.
5012.97 -1056.49 0.
5119.46 -810.304 0.
2931.58 -1646.19 0.
2792.48 -1971.52 0.
2653.39 -2296.85 0.
1494.13 -3038.26 0.
1384.53 -3290.21 0.
1274.93 -3542.17 0.
827.939 -3640.01 0.
943.347 -3367.08 0.
1058.76 -3094.15 0.
1106.91 -2736.7 0.
1287.91 -2312.9 0.
-289.518 -2700.62 0.
-305.381 -2734.13 0.
-321.242 -2767.64 0.
-391.2 -2769 0.
-338.895 -2643.07 0.
-286.591 -2517.15 0.
-1025.71 -2635.3 0.
-887.096 -2316.92 0.
-748.484 -1998.54 0.
-1099.98 -2030.05 0.
-1050.16 -1923.36 0.
-673.049 -1689.82 0.
-543.435 -1812.85 0.
-632.879 -2029.76 0.
-417.783 -2125.52 0.
-512.952 -2353.25 0.
-608.123 -2580.97 0.
-812.969 -2667.04 0.
-704.049 -2411.27 0.
-595.128 -2155.5 0.
-663.507 -2045.62 0.
-610.76 -1924.7 0.
-558.013 -1803.78 0.
-601.698 -1409.01 0.
-375.36 -877.836 0.
97.5515 -349.353 0.
-16.6944 -618.576 0.
-130.94 -887.799 0.
-199.317 -968.192 0.
-80.976 -698.112 0.
37.3662 -428.031 0.
-410.079 -570.1 0.
-442.049 -640.535 0.
-474.019 -710.969 0.
135.721 -343.853 0.
207.282 -175.351 0.
-211.268 9.62055 0.
-191.823 -364.724 0.
258.832 691.85 0.
162.654 38.0498 0.
70.1584 -170.739 0.
314.876 407.442 0.
501.174 788.482 0.
364.201 470.46 0.
444.041 657.081 0.
279.231 556.895 0.
243.358 474.527 0.
36.6652 -6.3642 0.
180.026 -384.64 0.
-89.9635 -1018.37 0.
166.521 -775.935 0.
759.842 608.942 0.
597.579 230.78 0.
418.418 361.422 0.
277.741 33.3295 0.
97.3368 -387.732 0.
405.651 98.9029 0.
321.451 -98.5132 0.
-403.591 -1791.09 0.
-227.799 -870.152 0.
336.114 439.163 0.
439.151 281.71 0.
555.124 63.6406 0.
-12.2744 -1265.24 0.
203.471 -1312.78 0.
583.269 -429.708 0.
703.66 -151.976 0.
492.961 -521.553 0.
255.646 -1078.65 0.
208.57 -1191.45 0.
1270.99 -480.408 0.
1523.62 104.804 0.
1310.98 -395.011 0.
2706.9 838.334 0.
1919.72 -1003.07 0.
1726.17 -1407.39 0.
1649.02 -1598.92 0.
1826.26 -1196.61 0.
2671.6 -870.19 0.
3034.86 -33.1786 0.
2838.64 -501.105 0.
2185.94 -845.773 0.
2154.38 -919.546 0.
2350.38 -467.013 0.
4473.47 383.553 0.
4678.06 862.597 0.
-1256.54 -127.379 0.
4133.17 -638.948 0.
4154.31 -590.685 0.
3138.42 -260.279 0.
2802.94 -1041.29 0.
2839.72 -950.624 0.
2392.21 61.1652 0.
2211.64 -359.682 0.
2254.04 -260.951 0.
1416.36 -1315.75 0.
1421.57 -1301.81 0.
1568.89 -956.801 0.
2526.44 -892.316 0.
2696.03 -495.188 0.
769.987 -877.969 0.
770.491 -879.373 0.
913.092 -548.895 0.
1022.07 -570.673 0.
1385.93 272.831 0.
930.941 -794.396 0.
-408.935 -1362.98 0.
-89.5986 -616.764 0.
92.7117 -190.525 0.
-182.016 -386.477 0.
293.621 722.871 0.
-549.373 -488.914 0.
163.115 -486.284 0.
534.049 377.089 0.
59.0523 -561.924 0.
-26.4417 -765.338 0.
30.405 -636.85 0.
174.28 -844.875 0.
55.691 -1118.19 0.
288.202 -572.178 0.
2.01648 -590.424 0.
-103.488 -833.055 0.
538.702 668.478 0.
219.926 189.206 0.
388.434 587.275 0.
45.5834 -499.232 0.
249.598 -20.0309 0.
305.626 113.741 0.
-253.656 -807.698 0.
362.8 631.246 0.
460.462 859.106 0.
-359.912 -497.285 0.
-117.77 65.0086 0.
-404.186 -605.822 0.
293.916 -295.996 0.
372.93 -104.837 0.
-377.768 -319.975 0.
-204.118 -532.644 0.
-343.784 -855.244 0.
-252.419 -983.504 0.
-124.474 -679.84 0.
3.46952 -376.177 0.
-62.6228 -391.314 0.
-232.815 -788.187 0.
-403.008 -1185.06 0.
-258.913 -1254.68 0.
-259.847 -1258.3 0.
-260.78 -1261.93 0.
-135.625 -1269.46 0.
-176.712 -1365.04 0.
-269.774 -1482.5 0.
-250.771 -1437.64 0.
-231.769 -1392.78 0.
-172.234 -1351.87 0.
-211.454 -1441.78 0.
-250.673 -1531.7 0.
-322.352 -1603.55 0.
-332.245 -1626.28 0.
-342.138 -1649.01 0.
-543.74 -1686.65 0.
-495.827 -1578.41 0.
-87.3747 -1315.85 0.
-45.4121 -1477.37 0.
-147.283 -1719.59 0.
6.68437 -1844.16 0.
-43.4089 -1964.45 0.
-93.5024 -2084.74 0.
-182.668 -2226.84 0.
-245.027 -2375.7 0.
-307.388 -2524.57 0.
795.111 -2112.02 0.
789.584 -2129.15 0.
784.057 -2146.27 0.
1426.25 -2164.74 0.
1239.06 -2604.13 0.
1044.34 -3006 0.
1130.5 -2814.8 0.
1216.66 -2623.59 0.
1725.07 -2239.81 0.
1830.54 -2004.24 0.
1936.01 -1768.66 0.
1730.75 -1637.63 0.
1859.98 -1340.97 0.
1989.19 -1044.3 0.
3573.75 -330.421 0.
3566.34 -347.932 0.
-791.454 -2228.18 0.
3706.99 -348.178 0.
3680.1 -407.495 0.
2327.69 -1059.82 0.
2261.43 -1208.52 0.
2195.17 -1357.21 0.
1664.21 -1702.85 0.
1598.01 -1859.28 0.
1531.82 -2015.71 0.
1138.91 -2401.04 0.
1002.22 -2717.9 0.
865.535 -3034.75 0.
1321.08 -2597.16 0.
1468.07 -2254.08 0.
438.69 -2443.44 0.
487.145 -2331.56 0.
535.601 -2219.68 0.
266.697 -2229.73 0.
335.531 -2071.95 0.
404.366 -1914.16 0.
-653.943 -2283.31 0.
-630.474 -2227.01 0.
-607.004 -2170.7 0.
-664.37 -2134 0.
-624.652 -2042.72 0.
-594.696 -1957.55 0.
-401.204 -1766.94 0.
-343.025 -1634.25 0.
-369.317 -1589.17 0.
-406.142 -1680.84 0.
-442.968 -1772.51 0.
-46.4134 -1645.6 0.
-62.7623 -1678.71 0.
-79.111 -1711.82 0.
-500.385 -1783.85 0.
-413.93 -1579.8 0.
-327.475 -1375.74 0.
-364.214 -1352.66 0.
-351.497 -1320.8 0.
-348.925 -1267.24 0.
-263.103 -1068.9 0.
-177.281 -870.564 0.
-210.432 -714.922 0.
-100.988 -462.91 0.
8.45591 -210.897 0.
-112.594 -273.809 0.
-187.116 -451.554 0.
-261.637 -629.301 0.
268.458 -125.373 0.
451.964 308.52 0.
-394.383 -299.876 0.
-115.883 -466.218 0.
-254.796 -789.446 0.
-206.043 -928.505 0.
-77.8107 -625.929 0.
50.4208 -323.353 0.
-116.924 -381.968 0.
-286.82 -779.555 0.
-456.718 -1177.14 0.
50.2696 -1088.56 0.
50.441 -1093.01 0.
50.613 -1097.45 0.
-43.326 -1199.41 0.
-85.2982 -1294.31 0.
-418.008 -1514.71 0.
-398.589 -1470.06 0.
-379.171 -1425.41 0.
20.1006 -1237.42 0.
-19.7383 -1326.69 0.
-59.5765 -1415.96 0.
-302.774 -1565.29 0.
-312.628 -1587.57 0.
-322.481 -1609.85 0.
-485.831 -1632.68 0.
-439.062 -1523.26 0.
2.13993 -1245.17 0.
43.3385 -1411.58 0.
-57.8364 -1654.42 0.
63.9583 -1785.95 0.
13.8194 -1906.64 0.
-36.3198 -2027.33 0.
-97.4091 -2155.53 0.
-159.752 -2305.22 0.
-222.096 -2454.9 0.
1086.35 -1954.91 0.
1080.73 -1971.5 0.
1075.11 -1988.09 0.
1449.97 -2125.46 0.
1262.46 -2564.42 0.
1065.99 -2963.72 0.
1151.5 -2772.41 0.
1237 -2581.09 0.
1300.21 -2392.76 0.
1405.86 -2157.26 0.
1511.51 -1921.75 0.
1606.08 -1658.68 0.
1737.21 -1363.15 0.
1868.33 -1067.62 0.
2865.28 -600.911 0.
2858.22 -618.768 0.
-1764.27 -2612.96 0.
3045.62 -599.689 0.
3018.73 -659.553 0.
1769.19 -1263.13 0.
1703.49 -1412.45 0.
1637.8 -1561.77 0.
1715.21 -1651.15 0.
1649.78 -1807.72 0.
1584.35 -1964.3 0.
1384.92 -2264.87 0.
1247.44 -2580.99 0.
1109.96 -2897.12 0.
756.857 -2807.7 0.
903.753 -2464.26 0.
873.449 -2225.95 0.
921.136 -2113.04 0.
968.823 -2000.12 0.
225.891 -2218.21 0.
294.665 -2059.97 0.
363.439 -1901.72 0.
-456.565 -2167.78 0.
-432.343 -2111.79 0.
-408.121 -2055.8 0.
-321.285 -1954.18 0.
-281.164 -1863.39 0.
127.73 -1617.82 0.
-404.736 -1737.96 0.
-347.207 -1605.26 0.
-333.661 -1539.59 0.
-370.353 -1631.73 0.
-407.046 -1723.87 0.
118.237 -1544.88 0.
101.522 -1577.72 0.
84.8069 -1610.57 0.
-473.176 -1741.97 0.
-386.455 -1538.55 0.
-299.734 -1335.12 0.
-253.34 -1274.57 0.
-239.862 -1243.26 0.
-411.09 -1260.65 0.
-323.871 -1063.62 0.
-236.651 -866.597 0.
-187.529 -670.164 0.
-77.0315 -418.88 0.
33.4663 -167.596 0.
89.1656 -156.706 0.
15.1603 -334.432 0.
-58.8449 -512.159 0.
163.925 -139.36 0.
348.37 295.564 0.
-414.708 -603.006 0.
-28.0974 -388.727 0.
22.6535 -270.491 0.
135.927 -211.761 0.
-61.9599 -674.833 0.
-259.847 -1137.91 0.
-514.25 -1421.64 0.
-446.738 -1266.45 0.
-379.226 -1111.26 0.
259.737 -823.482 0.
232.471 -885.58 0.
205.203 -947.677 0.
-15.7865 -1207.29 0.
-118.729 -1445.14 0.
-629.513 -1858.08 0.
-728.221 -2085.36 0.
-826.928 -2312.64 0.
-319.326 -2173.68 0.
-229.622 -1963.51 0.
-139.919 -1753.33 0.
-344.389 -1793.44 0.
-380.973 -1876.04 0.
-417.557 -1958.65 0.
-610.573 -2067.01 0.
-613.158 -2074.48 0.
47.4003 -1797.62 0.
-175.124 -2112.79 0.
-292.513 -2386.63 0.
-204.179 -2485.1 0.
-71.2996 -2173.93 0.
61.5804 -1862.76 0.
137.853 -1839.32 0.
-63.0453 -2308.07 0.
-263.944 -2776.82 0.
885.829 -2502.34 0.
822.527 -2646.51 0.
759.225 -2790.67 0.
1194.65 -2715.95 0.
1133.12 -2856.2 0.
1037.51 -2985.56 0.
1154.99 -2713.82 0.
1272.46 -2442.09 0.
1062.21 -2255.62 0.
1268.18 -1769.81 0.
1474.15 -1283.99 0.
1661.48 -967.165 0.
1725.85 -813.417 0.
1790.22 -659.67 0.
2456.53 -517.172 0.
2343.9 -780.39 0.
-6239.06 -4673.95 0.
2618.37 -749.413 0.
2689.26 -590.145 0.
1480.55 -1061.7 0.
1340.52 -1383.46 0.
1200.5 -1705.23 0.
1628.29 -1779.58 0.
1485.04 -2110.89 0.
1341.8 -2442.2 0.
1148.95 -2655.86 0.
1112.67 -2735.4 0.
1076.39 -2814.95 0.
568.431 -2873.56 0.
661.039 -2649.75 0.
778.065 -2427.68 0.
824.999 -2317.4 0.
871.933 -2207.13 0.
169.054 -2433.45 0.
198.334 -2359.71 0.
227.615 -2285.97 0.
-469.83 -2552 0.
-464.75 -2539.87 0.
-459.671 -2527.75 0.
-185.404 -2273.58 0.
-96.8438 -2066.12 0.
452.266 -1671.42 0.
-613.687 -2087.25 0.
-592.244 -2037 0.
-425.288 -1933.89 0.
-433.938 -1943.02 0.
-442.588 -1952.16 0.
71.3015 -1624.36 0.
189.473 -1351.32 0.
307.645 -1078.28 0.
-261.135 -1324.3 0.
-314.322 -1447.84 0.
-367.509 -1571.38 0.
-223.48 -1346.74 0.
-122.797 -1114.76 0.
-323.383 -1024.26 0.
-286.383 -932.395 0.
-249.383 -840.53 0.
-226.019 -888.544 0.
-360.137 -1198.92 0.
-494.255 -1509.29 0.
-384.446 -1331.96 0.
-192.613 -879.7 0.
-0.781333 -427.445 0.
-73.2753 -406.37 0.
-80.9096 -425.294 0.
-142.525 -456.157 0.
49.5687 -324.722 0.
98.692 -206.122 0.
222.726 -143.158 0.
23.8832 -606.446 0.
-174.959 -1069.73 0.
-311.987 -1303.2 0.
-244.439 -1148.28 0.
-176.891 -993.351 0.
230.23 -803.736 0.
203.473 -866.364 0.
176.716 -928.992 0.
-15.8633 -1178.32 0.
-118.814 -1415.39 0.
-628.045 -1826.93 0.
-726.25 -2054.29 0.
-824.455 -2281.65 0.
-324.274 -2145.11 0.
-234.046 -1935.06 0.
-143.817 -1725.02 0.
-203.272 -1704.17 0.
-240.042 -1786.38 0.
-276.813 -1868.59 0.
-494.433 -1985.93 0.
-497.271 -1993.01 0.
-299.551 -1914.09 0.
-27.3919 -2020.34 0.
-145.256 -2293.93 0.
-161.814 -2436.82 0.
-29.4139 -2124.98 0.
102.986 -1813.14 0.
339.206 -1720.19 0.
138.352 -2189.71 0.
-62.5029 -2659.23 0.
714.401 -2545.1 0.
651.262 -2689.9 0.
588.122 -2834.71 0.
1197.42 -2681.13 0.
1136.39 -2821.17 0.
1007.26 -2968.5 0.
1124.13 -2696.61 0.
1241 -2424.71 0.
783.827 -2343.28 0.
990.045 -1858.82 0.
1196.26 -1374.36 0.
1200.11 -1127.58 0.
1264.95 -975.052 0.
1329.79 -822.52 0.
2100.83 -638.714 0.
1988.22 -901.77 0.
6365.99 759.307 0.
2447.11 -789.593 0.
2516.69 -629.262 0.
1170.86 -1161.14 0.
1030.55 -1482.87 0.
890.232 -1804.59 0.
1518.02 -1797.43 0.
1374.07 -2128.14 0.
1230.13 -2458.84 0.
767.52 -2789.12 0.
731.387 -2869.18 0.
695.257 -2949.25 0.
764.933 -2755.3 0.
857.646 -2532.1 0.
368.114 -2572.74 0.
415.841 -2463.69 0.
463.568 -2354.64 0.
318.008 -2335.61 0.
348.189 -2262.9 0.
378.37 -2190.18 0.
-273.429 -2437.66 0.
-267.868 -2425.66 0.
-262.308 -2413.67 0.
161.812 -2091.43 0.
250.499 -1883.93 0.
330.952 -1692.52 0.
-711.037 -2098.57 0.
-689.471 -2048.51 0.
-256.03 -1828.46 0.
-263.898 -1838.42 0.
-271.765 -1848.38 0.
-80.7556 -1657.3 0.
36.0886 -1384.01 0.
152.933 -1110.73 0.
-169.867 -1254.87 0.
-223.704 -1379.29 0.
-277.54 -1503.72 0.
-169.397 -1293.42 0.
-68.9542 -1061.2 0.
-296.316 -981.991 0.
-258.526 -890.656 0.
-220.735 -799.322 0.
-101.849 -802.242 0.
-235.646 -1113.11 0.
-369.442 -1423.97 0.
-475.66 -1340.03 0.
-283.858 -887.536 0.
-92.0558 -435.04 0.
-239.94 -445.911 0.
-248.361 -465.137 0.
778.824 1261.68 0.
249.299 29.1432 0.
42.7503 -458.969 0.
322.7 -38.6736 0.
288.596 -119.512 0.
686.766 809.58 0.
95.986 -698.144 0.
226.79 -394.463 0.
345.476 -119.742 0.
203.434 -788.948 0.
407.662 -309.621 0.
423.688 -268.965 0.
303.407 -391.138 0.
515.67 107.13 0.
282.121 317.783 0.
-500.583 -1507.6 0.
-458.888 -1408.91 0.
297.545 -660.611 0.
632.684 121.233 0.
668.678 204.972 0.
904.813 648.375 0.
690.88 144.294 0.
737.638 248.96 0.
188.269 -599.107 0.
578.979 310.927 0.
572.632 -216.152 0.
564.74 -895.106 0.
923.987 -57.6798 0.
936.027 72.9918 0.
918.136 35.0479 0.
559.327 -798.311 0.
1250.64 46.0721 0.
893.12 -783.011 0.
1019.33 -483.513 0.
1951.56 708.97 0.
1649.63 1.32213 0.
1448.77 -471.257 0.
2662.86 779.477 0.
2069.43 -601.782 0.
1752.52 -1151.31 0.
2225.37 -56.1854 0.
2179.78 -168.058 0.
1280.91 -606.734 0.
1200.88 -798.362 0.
1554.82 26.7822 0.
1144.79 -333.796 0.
975.555 -735.33 0.
1358.3 153.608 0.
1922.54 -340.946 0.
2324.44 601.212 0.
-6345.08 -794.041 0.
2974.74 809.045 0.
2677.67 117.018 0.
1407.75 14.5808 0.
1155.79 -570.656 0.
1138.06 -609.785 0.
1594.88 -1368.15 0.
1981.52 -470.569 0.
1533.86 -1517.98 0.
1747.1 270.436 0.
1533.9 -234.751 0.
1365.48 -636.442 0.
2219.53 312.321 0.
2166.51 180.887 0.
1198.88 175.051 0.
597.734 -1229.42 0.
692.324 -1010.88 0.
1202.4 -532.075 0.
1069.76 -840.414 0.
1043.29 -901.374 0.
917.255 7.51723 0.
580.154 -781.072 0.
481.52 -1013.08 0.
862.879 -1071.85 0.
871.66 -1050.37 0.
588.714 -442.6 0.
-294.525 -923.713 0.
11.7474 -204.177 0.
559.272 -213.134 0.
462.387 -437.196 0.
59.5038 -1376.1 0.
315.555 -414.512 0.
461.009 -77.2841 0.
375.13 -279.55 0.
262.633 -384.185 0.
234.478 -446.888 0.
497.769 170.299 0.
389.512 -56.0859 0.
154.134 -605.75 0.
331.014 469.864 0.
100.599 -64.5829 0.
-246.568 -872.045 0.
551.504 510.735 0.
850.651 1214.79 0.
684.218 832.483 0.
-36.3304 -110.934 0.
66.2678 125.606 0.
580.49 1323.51 0.
113.859 725.834 0.
126.156 754.681 0.
-118.502 -590.51 0.
-25.8691 -587.433 0.
-93.8033 -748.938 0.
-109.155 -845.027 0.
-57.832 -722.417 0.
-6.5079 -599.808 0.
223.542 -434.152 0.
228.309 -424.034 0.
233.077 -413.915 0.
301.559 -521.438 0.
185.523 -788.465 0.
69.4862 -1055.49 0.
-256.031 -1249.87 0.
-269.416 -1281.99 0.
-122.017 -1248.53 0.
-243.175 -1530.33 0.
-364.333 -1812.12 0.
-408.421 -1980.43 0.
-368.179 -1888.42 0.
-327.937 -1796.41 0.
-132.121 -1680.21 0.
-140.742 -1704.79 0.
-149.364 -1729.37 0.
-187.434 -1787.78 0.
-212.306 -1849.28 0.
31.9433 -1795.34 0.
250.549 -1821.79 0.
185.935 -1971.9 0.
83.9302 -2117.58 0.
65.5608 -2157.78 0.
47.1918 -2197.98 0.
259.359 -2094.42 0.
299.172 -1998.25 0.
338.985 -1902.08 0.
881.687 -1806.81 0.
744.252 -2130.6 0.
606.818 -2454.39 0.
1196.43 -2318.02 0.
1151.88 -2420.17 0.
762.918 -2647.29 0.
862.003 -2422.12 0.
961.09 -2196.94 0.
839.298 -2107 0.
867.477 -2044.53 0.
895.657 -1982.07 0.
367.962 -1977.96 0.
568.257 -1517.83 0.
768.553 -1057.7 0.
1569.25 -628.265 0.
1572.54 -622.207 0.
116.608 -1245.92 0.
1859.57 -836.828 0.
1682.83 -1250.87 0.
596.601 -1971.56 0.
591.014 -1986.36 0.
585.43 -2001.16 0.
1005.71 -1864.77 0.
976.048 -1934.47 0.
946.389 -2004.18 0.
708.153 -2073.02 0.
745.37 -1991.27 0.
782.589 -1909.51 0.
1339.07 -1708.13 0.
1317.05 -1766.29 0.
227.471 -2260.3 0.
259.219 -2191.09 0.
290.967 -2121.88 0.
602.149 -1928.13 0.
641.296 -1837.22 0.
680.443 -1746.3 0.
307.358 -1928.25 0.
267.059 -2025.77 0.
226.759 -2123.29 0.
131.812 -2035.97 0.
222.198 -1821.31 0.
47.8632 -1719.62 0.
-424.038 -2006.81 0.
-471.894 -2112.63 0.
-278.161 -2046.88 0.
-181.379 -1820.25 0.
-84.5974 -1593.61 0.
-108.108 -1521.13 0.
-123.341 -1554.99 0.
-138.573 -1588.86 0.
-334.67 -1557.46 0.
-243.924 -1341.96 0.
-153.179 -1126.46 0.
-228.048 -1245.6 0.
-287.647 -1385.79 0.
-345.531 -1503.22 0.
-305.39 -1407.47 0.
-265.248 -1311.72 0.
-201.645 -1144.45 0.
-88.952 -876.433 0.
23.7411 -608.414 0.
-283.879 -648.821 0.
-276.593 -632.557 0.
-269.307 -616.291 0.
-548.886 -864.785 0.
-632.67 -1060.34 0.
-227.87 -604.285 0.
-21.2588 -551.5 0.
-90.4046 -713.21 0.
-199.728 -855.208 0.
-149.937 -731.941 0.
-100.146 -608.674 0.
256.66 -389.664 0.
261.324 -379.473 0.
265.989 -369.282 0.
295.322 -495.072 0.
179.241 -762.19 0.
63.1603 -1029.31 0.
-473.7 -1311.95 0.
-486.954 -1344.47 0.
223.687 -1068.74 0.
101.813 -1350.42 0.
-20.0607 -1632.1 0.
-563.222 -2013.06 0.
-522.727 -1920.67 0.
-482.232 -1828.29 0.
-164.785 -1668.07 0.
-174.626 -1691.74 0.
-184.468 -1715.42 0.
-3.83853 -1675.23 0.
-28.6804 -1737.37 0.
-482.782 -1983.65 0.
367.8 -1741.17 0.
303.148 -1891.25 0.
208.305 -2035.87 0.
189.78 -2076.08 0.
171.255 -2116.29 0.
188.579 -2091.23 0.
229.14 -1995.59 0.
269.7 -1899.95 0.
909.624 -1761.11 0.
771.766 -2084.34 0.
633.908 -2407.57 0.
1043.25 -2353.55 0.
998.701 -2455.33 0.
352.94 -2792.07 0.
451.368 -2566.35 0.
549.799 -2340.64 0.
1102.42 -1963.03 0.
1130.07 -1900.51 0.
1157.72 -1837.98 0.
303.675 -1974.04 0.
503.33 -1513.47 0.
702.987 -1052.9 0.
1303.04 -712.06 0.
1305.95 -705.488 0.
-593.268 -1519.64 0.
1368.36 -1015.66 0.
1190.88 -1428.38 0.
663.349 -1912.88 0.
658.41 -1928.35 0.
653.474 -1943.82 0.
561.823 -2020.97 0.
532.654 -2091.69 0.
503.486 -2162.42 0.
679.908 -2055.3 0.
717.023 -1973.11 0.
754.139 -1890.91 0.
1335.31 -1678.11 0.
1312.68 -1736.07 0.
337.934 -2180.7 0.
370.507 -2112.3 0.
403.081 -2043.89 0.
611.822 -1893.02 0.
651.547 -1802.22 0.
691.273 -1711.41 0.
593.451 -1774.5 0.
554.167 -1872.7 0.
514.882 -1970.9 0.
-241.42 -2162.35 0.
-151.049 -1946.92 0.
128.626 -1653.56 0.
1.22348 -1793.78 0.
-46.0757 -1900.05 0.
-324.067 -2034.73 0.
-227.37 -1807.92 0.
-130.672 -1581.11 0.
-32.2762 -1458.65 0.
-48.1114 -1492.31 0.
-63.946 -1525.96 0.
-434.423 -1567.85 0.
-343.52 -1353.06 0.
-252.618 -1138.27 0.
-343.92 -1263.72 0.
-402.998 -1404.53 0.
-122.075 -1377.1 0.
-81.8333 -1281.65 0.
-41.59 -1186.2 0.
-236.361 -1124.88 0.
-123.39 -857.282 0.
-10.4183 -589.69 0.
-290.376 -622.494 0.
-283.397 -605.962 0.
-276.418 -589.428 0.
-509.278 -817.126 0.
-592.829 -1012.3 0.
-143.748 -483.77 0.
-34.3305 -618.614 0.
-72.2475 -706.756 0.
-230.696 -858.502 0.
-319.682 -1067.74 0.
-408.668 -1276.98 0.
-84.9251 -1288.07 0.
-145.325 -1423.64 0.
-205.725 -1559.22 0.
-144.529 -1472.66 0.
-57.3117 -1270.91 0.
29.9063 -1069.15 0.
-518.194 -1448.21 0.
-624.099 -1689.5 0.
0.137122 -1582.57 0.
123.356 -1297.68 0.
246.576 -1012.79 0.
-175.555 -1091.51 0.
-279.733 -1331.61 0.
-383.911 -1571.71 0.
-188.506 -1575.47 0.
-180.229 -1561.83 0.
-171.95 -1548.18 0.
34.7085 -1695.82 0.
-137.861 -2096.52 0.
-207.62 -2452.69 0.
148.85 -2273.9 0.
169.944 -2226.11 0.
138.223 -2197.59 0.
146.689 -2179.31 0.
155.156 -2161.04 0.
169.091 -2166.76 0.
146.732 -2221.6 0.
124.374 -2276.44 0.
877.546 -1826.7 0.
998.334 -1548.76 0.
1119.12 -1270.82 0.
1327.12 -1378.24 0.
1189.18 -1702.4 0.
339.21 -2316.34 0.
285.392 -2440.14 0.
231.574 -2563.94 0.
1016.74 -2151.3 0.
1247.49 -1611.17 0.
1478.24 -1071.04 0.
625.39 -1202.65 0.
664.613 -1114.67 0.
703.835 -1026.7 0.
1146.5 -731.845 0.
1213.3 -581.049 0.
-852.18 -1347.61 0.
1330.39 -455.544 0.
1308.97 -508.114 0.
1132.66 -643.527 0.
1061.94 -805.781 0.
991.22 -968.036 0.
777.188 -1108.68 0.
809.788 -1032.26 0.
842.391 -955.852 0.
985.533 -1020.02 0.
874.501 -1273.9 0.
763.471 -1527.78 0.
1354.4 -1415.08 0.
1282.81 -1570.97 0.
491.347 -2032.16 0.
447.326 -2126.96 0.
403.307 -2221.77 0.
389.999 -2310.54 0.
342.339 -2418.72 0.
294.68 -2526.91 0.
314.912 -2458.46 0.
397.712 -2261.76 0.
480.512 -2065.07 0.
-171.264 -2094.93 0.
-38.3315 -1784.04 0.
585.719 -1278.38 0.
238.992 -1408.79 0.
249.805 -1385.5 0.
-183.297 -1550.24 0.
-184.608 -1552.33 0.
-185.92 -1554.42 0.
-118.768 -1524.85 0.
-110.748 -1507.5 0.
-102.728 -1490.15 0.
-430.231 -1555.4 0.
-380.416 -1440.62 0.
-330.601 -1325.84 0.
-365.913 -1367.01 0.
-379.2 -1395.5 0.
-87.2116 -1241.49 0.
29.5794 -969.335 0.
146.37 -697.182 0.
-147.004 -704.091 0.
-163.157 -744.134 0.
-179.311 -784.177 0.
-284.752 -847.999 0.
-292.402 -867.115 0.
-300.053 -886.232 0.
-437.734 -766.767 0.
-312.856 -487.819 0.
51.2688 -371.902 0.
24.0343 -562.923 0.
-14.127 -651.56 0.
-158.615 -795.881 0.
-248.44 -1004.87 0.
-338.264 -1213.86 0.
2.77344 -1218.78 0.
-57.1629 -1355.2 0.
-117.1 -1491.62 0.
-158.647 -1448.72 0.
-71.9813 -1246.89 0.
14.6843 -1045.05 0.
-253.347 -1300.64 0.
-358.572 -1543.06 0.
-293.702 -1677.29 0.
-171.43 -1392.33 0.
-49.1583 -1107.37 0.
-16.1599 -991.97 0.
-119.514 -1232.92 0.
-222.869 -1473.88 0.
-276.435 -1579.97 0.
-268.072 -1566.5 0.
-259.708 -1553.03 0.
12.5358 -1675.06 0.
-159.694 -2076.36 0.
-307.74 -2467.26 0.
96.7706 -2264.08 0.
117.13 -2215.08 0.
53.1958 -2204.07 0.
61.2358 -2184.95 0.
69.2758 -2165.83 0.
302.406 -2081.3 0.
278.77 -2134.96 0.
255.135 -2188.62 0.
873.884 -1795.62 0.
995.021 -1517.92 0.
1116.16 -1240.21 0.
1182.2 -1412.01 0.
1043.92 -1735.07 0.
242.888 -2325.15 0.
188.393 -2448.32 0.
133.899 -2571.5 0.
767.285 -2231.37 0.
997.347 -1690.3 0.
1227.41 -1149.24 0.
710.13 -1131.71 0.
750.06 -1044.53 0.
789.99 -957.359 0.
1084.27 -728.397 0.
1150.98 -577.791 0.
161.881 -880.594 0.
1197.4 -479.306 0.
1175.88 -531.546 0.
907.659 -708.546 0.
837.178 -871.011 0.
766.696 -1033.47 0.
806.812 -1066.41 0.
840.559 -991.136 0.
874.308 -915.859 0.
693.18 -1114.25 0.
583.631 -1369.41 0.
474.083 -1624.57 0.
1155.8 -1467.04 0.
1084.86 -1623.91 0.
591.785 -1956.93 0.
548.877 -2052.59 0.
505.97 -2148.25 0.
293.297 -2321.55 0.
245.559 -2429.91 0.
197.823 -2538.26 0.
81.8626 -2525.32 0.
164.412 -2328 0.
246.962 -2130.67 0.
329.24 -1853.96 0.
461.171 -1542.34 0.
740.643 -1178.05 0.
50.7812 -1455.93 0.
61.6875 -1432.95 0.
-257.498 -1551.91 0.
-258.53 -1553.81 0.
-259.563 -1555.72 0.
-293.147 -1569.07 0.
-284.134 -1552.18 0.
-275.119 -1535.29 0.
-305.106 -1470.05 0.
-254.245 -1355.84 0.
-203.383 -1241.63 0.
-163.503 -1246.37 0.
-177.133 -1275.3 0.
-323.195 -1312.8 0.
-206.446 -1040.18 0.
-89.6976 -767.556 0.
-291.278 -734.164 0.
-307.685 -773.87 0.
-324.092 -813.575 0.
4.25733 -692.569 0.
-3.58275 -711.931 0.
-11.4239 -731.293 0.
-337.869 -694.862 0.
-213.632 -416.48 0.
386.498 67.9606 0.
527.309 543.605 0.
353.293 132.907 0.
679.504 1060.75 0.
197.198 -72.3321 0.
337.555 248.113 0.
419.771 -378.348 0.
413.27 -392.611 0.
388.787 -448.893 0.
573.219 312.422 0.
608.95 397.549 0.
945.153 1184.05 0.
914.04 956.904 0.
684.561 425.105 0.
207.152 78.5385 0.
-186.451 -840.319 0.
62.1242 -260.205 0.
555.491 62.6999 0.
613.776 203.606 0.
724.62 466.838 0.
34.0205 -657.685 0.
165.964 -339.274 0.
484.173 413.709 0.
798.527 204.051 0.
784.496 175.428 0.
843.263 -471.359 0.
653.777 -847.866 0.
1470.77 1060.01 0.
884 -85.7327 0.
1135.82 504.635 0.
875.038 -100.33 0.
1158.14 -298.549 0.
1574.17 664.581 0.
1390.32 228.386 0.
1522.35 -252.571 0.
1456.45 -403.874 0.
1153.68 -1108.07 0.
1618.91 -80.5159 0.
1205.07 -1052.27 0.
751.038 -908.588 0.
1113.11 -59.5376 0.
880.694 -598.068 0.
1256.68 -579.141 0.
1194.78 -726.024 0.
1432.34 -173.874 0.
1248.52 -11.9515 0.
962.494 -681.648 0.
942.926 -730.414 0.
1307.38 -64.5945 0.
1471.85 319.795 0.
-197.479 -311.589 0.
1276.21 -20.0537 0.
917.666 -855.592 0.
914.611 -225.69 0.
1372.81 842.045 0.
946.632 -152.918 0.
680.556 -1391.18 0.
926.312 -822.816 0.
953.203 -763.383 0.
894.51 -69.1793 0.
781.066 -332.395 0.
1496.38 1337.86 0.
1941.65 765.368 0.
1622.56 12.6428 0.
1333.71 -386.647 0.
1232.43 -620.026 0.
1611.93 270.357 0.
633.456 -1314.67 0.
1191.59 -9.86595 0.
1056.05 -323.507 0.
524.768 -1019.41 0.
710.798 -581.833 0.
1161.58 474.055 0.
1470.36 -114.051 0.
1251.49 -622.763 0.
1114.51 918.629 0.
656.661 340.866 0.
489.299 -50.4992 0.
266.999 -159.829 0.
-83.2518 -979.473 0.
328.901 -20.6901 0.
14.3206 -500.316 0.
306.179 182.561 0.
815.682 1373.12 0.
762.258 800.137 0.
595.9 413.123 0.
27.6111 -910.171 0.
658.084 315.189 0.
246.302 -644.778 0.
-146.132 -416.816 0.
324.797 681.661 0.
144.805 261.157 0.
-583.442 -1125.54 0.
-171.709 -166.089 0.
-192.653 -216.269 0.
341.534 -411.66 0.
271.201 -574.564 0.
822.561 712.009 0.
84.8014 122.873 0.
-123.79 -355.455 0.
-33.607 -972.842 0.
-115.491 -850.79 0.
-71.2536 -751.292 0.
51.9994 -646.126 0.
26.2871 -713.417 0.
0.574947 -780.709 0.
235.667 -825.24 0.
92.7056 -1158.02 0.
-50.2557 -1490.8 0.
-172.466 -1453.93 0.
-17.1259 -1092.63 0.
138.215 -731.323 0.
254.065 -781.139 0.
166.035 -983.495 0.
-396.929 -1392.6 0.
-466.129 -1557.1 0.
-535.33 -1721.6 0.
-162.142 -1615.87 0.
-99.6348 -1466.59 0.
-37.1278 -1317.32 0.
-207.885 -1423.19 0.
-302.356 -1636.75 0.
-396.827 -1850.31 0.
-99.3389 -1640.92 0.
-19.3425 -1448.35 0.
-117.314 -1332.24 0.
383.635 -1233.88 0.
325.187 -1373.79 0.
286.501 -1508.63 0.
205.18 -1698.24 0.
123.858 -1887.85 0.
448.754 -1809.6 0.
480.542 -1741.76 0.
512.33 -1673.93 0.
753.896 -1630.71 0.
695.525 -1768.97 0.
637.153 -1907.23 0.
729.326 -1903.26 0.
719.602 -1932.84 0.
252.199 -2119.41 0.
470.513 -1613.68 0.
688.826 -1107.96 0.
920.023 -773.432 0.
851.808 -939.227 0.
783.592 -1105.02 0.
674.704 -1259.85 0.
635.261 -1355.29 0.
595.818 -1450.73 0.
558.325 -1323.17 0.
670.764 -1064.66 0.
2076.06 -254.076 0.
942.818 -876.167 0.
871.086 -1043.12 0.
408.877 -1336.06 0.
431.042 -1287.95 0.
453.208 -1239.84 0.
788.878 -1126.74 0.
730.79 -1263.97 0.
672.702 -1401.19 0.
276.33 -1588.01 0.
291.227 -1553.57 0.
306.125 -1519.12 0.
932.821 -1336.23 0.
884.038 -1456.37 0.
387.608 -1762.98 0.
344.679 -1855.91 0.
301.75 -1948.83 0.
312.287 -1988.14 0.
309.427 -1991.5 0.
306.567 -1994.85 0.
320.074 -1869.33 0.
433.631 -1605.8 0.
547.189 -1342.27 0.
672.628 -1336.95 0.
612.52 -1477.23 0.
708.98 -1541.93 0.
-377.608 -1863.37 0.
-301.546 -1686.87 0.
-37.5638 -1467.86 0.
-40.2433 -1479.84 0.
-42.9207 -1491.83 0.
-410.543 -1574.8 0.
-321.472 -1366.66 0.
-232.4 -1158.53 0.
-13.4717 -993.948 0.
8.68058 -941.117 0.
30.8331 -888.286 0.
-24.6523 -806.791 0.
32.508 -675.712 0.
-283.038 -719.687 0.
-263.445 -673.67 0.
-243.852 -627.653 0.
-213.025 -617.195 0.
-251.601 -708.607 0.
-290.177 -800.02 0.
322.821 -524.704 0.
365.819 -424.745 0.
408.817 -324.786 0.
322.864 -315.243 0.
336.126 -277.466 0.
11.8842 -927.638 0.
-155.163 -839.105 0.
-111.233 -739.117 0.
197.871 -550.334 0.
172.034 -618.139 0.
146.198 -685.943 0.
258.683 -786.439 0.
115.713 -1119.14 0.
-27.2562 -1451.85 0.
-138.22 -1405.65 0.
17.3192 -1045.01 0.
172.859 -684.372 0.
370.399 -701.002 0.
282.405 -903.55 0.
-341.997 -1336.73 0.
-412.391 -1500 0.
-482.786 -1663.28 0.
-142.729 -1578.43 0.
-80.1661 -1428.89 0.
-17.604 -1279.34 0.
-87.5938 -1342.81 0.
-182.025 -1556.49 0.
-276.456 -1770.17 0.
-211.981 -1657.21 0.
-132.049 -1464.65 0.
738.521 -933.566 0.
270.937 -1252.64 0.
213.695 -1393.21 0.
321.289 -1462.8 0.
240.629 -1652.87 0.
159.97 -1842.94 0.
387.249 -1804.71 0.
419.25 -1737.25 0.
451.252 -1669.78 0.
552.237 -1685.39 0.
495.048 -1824.55 0.
437.857 -1963.71 0.
615.244 -1919.73 0.
605.426 -1948.85 0.
301.254 -2063.9 0.
519.682 -1558.57 0.
738.11 -1053.23 0.
625.841 -869.464 0.
557.776 -1035.25 0.
489.708 -1201.04 0.
638.421 -1243.88 0.
599.97 -1339.99 0.
561.518 -1436.1 0.
328.273 -1389.62 0.
441.463 -1131.83 0.
-2039.99 -1985.73 0.
993.737 -823.46 0.
922.083 -990.828 0.
391.732 -1311.24 0.
414.166 -1263.87 0.
436.601 -1216.49 0.
801.038 -1088.99 0.
742.472 -1226.12 0.
683.907 -1363.25 0.
333.277 -1533.8 0.
348.262 -1499.86 0.
363.247 -1465.93 0.
819.42 -1353.29 0.
770.897 -1473.19 0.
-33.2776 -1913.02 0.
-75.8902 -2005.54 0.
-118.503 -2098.05 0.
287.457 -1968.06 0.
284.443 -1971.31 0.
281.43 -1974.57 0.
535.238 -1743.84 0.
649.691 -1480.8 0.
764.145 -1217.76 0.
355.519 -1444.96 0.
295.978 -1585.63 0.
277.275 -1692.93 0.
-470.96 -1870.01 0.
-394.612 -1693.94 0.
289.761 -1296.46 0.
286.963 -1308.85 0.
284.167 -1321.24 0.
-352.635 -1517.92 0.
-262.851 -1310.39 0.
-173.067 -1102.86 0.
-7.5627 -961.216 0.
15.8135 -909.391 0.
39.1901 -857.566 0.
-255.475 -873.306 0.
-198.044 -742.542 0.
-279.146 -686.085 0.
-259.481 -639.797 0.
-239.816 -593.509 0.
-8.63531 -497.459 0.
-47.2563 -589.049 0.
-85.8773 -680.641 0.
373.814 -472.483 0.
416.986 -373.019 0.
460.159 -273.555 0.
862.49 -51.4264 0.
875.893 -15.1868 0.
36.4279 -838.037 0.
-272.31 -1039.32 0.
-239.349 -960.008 0.
141.542 -766.979 0.
78.5057 -908.927 0.
15.4684 -1050.87 0.
143.767 -1017.27 0.
196.806 -892.28 0.
249.846 -767.287 0.
107.803 -898.872 0.
18.635 -1108.51 0.
-70.5332 -1318.15 0.
206.199 -1116.64 0.
269.56 -970.592 0.
-163.438 -1060.78 0.
-203.953 -1156.2 0.
-244.468 -1251.63 0.
-50.5871 -1235.85 0.
-87.7339 -1323.85 0.
-124.88 -1411.86 0.
-103.093 -1348.06 0.
-12.9854 -1141.62 0.
77.1218 -935.175 0.
-6.99701 -1110.24 0.
-129.135 -1390.76 0.
737.771 -1247.17 0.
157.816 -1507.72 0.
144.062 -1534.41 0.
220.394 -1527.6 0.
204.521 -1562.26 0.
188.648 -1596.92 0.
441.944 -1568.67 0.
374.983 -1719.91 0.
308.022 -1871.14 0.
373.227 -1822.22 0.
425.065 -1700.08 0.
476.904 -1577.93 0.
678.248 -1400.15 0.
725.449 -1285.49 0.
586.157 -1255.23 0.
559.653 -1319.84 0.
533.149 -1384.45 0.
220.821 -1505.74 0.
306.161 -1307.27 0.
391.501 -1108.81 0.
630.475 -947.461 0.
628.645 -946.182 0.
626.814 -944.902 0.
595.836 -961.847 0.
593.177 -961.924 0.
249.221 -1110.89 0.
916.472 -765.698 0.
946.637 -694.426 0.
554.674 -861.752 0.
439.348 -1130.01 0.
324.022 -1398.27 0.
595.463 -1440.74 0.
557.509 -1533.08 0.
519.556 -1625.41 0.
175.971 -1913.41 0.
89.9741 -2109.28 0.
3.97772 -2305.13 0.
662.988 -1620.39 0.
908.228 -1047.94 0.
217.302 -955.402 0.
158.758 -1097.4 0.
100.213 -1239.39 0.
579.969 -1153.43 0.
499.445 -1341.19 0.
418.921 -1528.95 0.
534.816 -1548.25 0.
528.337 -1556.14 0.
521.856 -1564.02 0.
-17.6616 -1703.49 0.
38.253 -1576.63 0.
768.596 -1162.63 0.
-204.039 -1547.32 0.
-188.564 -1508.9 0.
318.489 -1256.76 0.
330.621 -1222.45 0.
342.754 -1188.13 0.
-232.165 -1413.13 0.
-221.202 -1387.05 0.
-210.238 -1360.96 0.
-185.924 -1309.23 0.
-161.436 -1253.74 0.
-136.948 -1198.25 0.
-435.186 -1138.44 0.
-325.785 -882 0.
-170.565 -655.494 0.
-219.429 -771.604 0.
-268.291 -887.714 0.
-15.0058 -811.49 0.
17.4098 -738.521 0.
49.8249 -665.552 0.
208.871 -566.325 0.
216.5 -548.754 0.
224.129 -531.184 0.
619.091 -579 0.
487.729 -893.873 0.
-15.491 -825.238 0.
-292.926 -1020.7 0.
-260.212 -940.172 0.
101.909 -749.595 0.
39.5763 -891.956 0.
-22.7574 -1034.32 0.
114.91 -998.626 0.
167.783 -873.828 0.
220.656 -749.029 0.
166.132 -841.433 0.
77.0846 -1051.46 0.
-11.9628 -1261.5 0.
176.825 -1100.17 0.
240.221 -954.175 0.
-29.7437 -967.377 0.
-69.8392 -1062.52 0.
-109.935 -1157.66 0.
-173.203 -1260.95 0.
-211.083 -1347.22 0.
-248.963 -1433.5 0.
-228.659 -1372.3 0.
-137.699 -1165.73 0.
-46.7389 -959.155 0.
75.8108 -1042.45 0.
-45.728 -1323.75 0.
-30.0197 -1546.5 0.
283.081 -1422.55 0.
270.173 -1450.15 0.
39.6987 -1571.77 0.
24.762 -1607.67 0.
9.82542 -1643.56 0.
408.105 -1549.2 0.
342.093 -1701.61 0.
276.081 -1854.02 0.
308.937 -1818.8 0.
361.013 -1697.37 0.
413.089 -1575.94 0.
416.957 -1479.66 0.
465.721 -1365.71 0.
409.869 -1297.01 0.
383.631 -1362.41 0.
357.392 -1427.8 0.
231.485 -1471.09 0.
318.4 -1274.58 0.
405.315 -1078.07 0.
345.233 -1035.02 0.
345.165 -1035.25 0.
345.097 -1035.48 0.
1038.02 -737.653 0.
1037.33 -739.542 0.
-1669.36 -1901.41 0.
674.934 -836.299 0.
703.814 -764.152 0.
512.976 -849.745 0.
396.482 -1117.04 0.
279.989 -1384.34 0.
475.054 -1462.61 0.
437.326 -1555.56 0.
399.599 -1648.51 0.
156.409 -1888.88 0.
71.4204 -2085.58 0.
-13.5678 -2282.27 0.
703.662 -1570.76 0.
949.751 -998.83 0.
289.713 -895.019 0.
229.954 -1036.2 0.
170.194 -1177.38 0.
500.309 -1157.98 0.
419.036 -1344.95 0.
337.763 -1531.92 0.
128.258 -1688.75 0.
120.873 -1695.98 0.
113.487 -1703.21 0.
-296.2 -1795.52 0.
-241.783 -1667.58 0.
801.831 -1114.57 0.
221.522 -1332.12 0.
237.483 -1294.02 0.
63.8555 -1336.14 0.
76.0757 -1302.25 0.
88.2966 -1268.37 0.
-94.9516 -1321.98 0.
-83.7653 -1296.32 0.
-72.5789 -1270.67 0.
-232.199 -1298.12 0.
-207.336 -1242.86 0.
-182.474 -1187.6 0.
-328.422 -1061.53 0.
-217.842 -805.465 0.
95.153 -507.917 0.
46.5593 -623.76 0.
-2.03374 -739.605 0.
126.218 -719.745 0.
158.5 -646.902 0.
190.781 -574.058 0.
-106.927 -668.899 0.
-99.4046 -651.987 0.
-91.8828 -635.076 0.
92.189 -773.687 0.
-39.759 -1089.27 0.
222.998 -97.0946 0.
576.353 1098.03 0.
158.324 119.481 0.
196.19 -421.446 0.
-63.1053 -1027.9 0.
824.446 1041.4 0.
1122.36 1444.53 0.
432.151 -169.731 0.
479.44 -62.1723 0.
514.209 -102.031 0.
228.552 -768.001 0.
826.817 628.944 0.
710.662 226.593 0.
264.071 -814.166 0.
525.116 102.717 0.
723.056 567.335 0.
-0.153363 -1117.82 0.
149.313 -239.455 0.
173.794 -177.26 0.
271.415 55.0722 0.
245.214 -9.28091 0.
294.035 102.86 0.
-104.858 -829.181 0.
427.813 -343.215 0.
793.24 504.38 0.
713.959 811.112 0.
1189.88 475.721 0.
1218.59 544.581 0.
627.573 178.942 0.
776.246 529.396 0.
571.571 55.5598 0.
1069.55 77.2886 0.
229.018 -1885.59 0.
1353.46 736.198 0.
1343.07 753.662 0.
975.278 -102.224 0.
699.772 -742.897 0.
1075.95 592.948 0.
691.409 -301.473 0.
398.872 -969.079 0.
890.5 180.914 0.
673.562 -323.022 0.
685.992 -425.998 0.
852.821 -39.6343 0.
1060.39 441.759 0.
193.556 -808.47 0.
227.619 -734.794 0.
67.5421 -1114.33 0.
1224.02 -1097.73 0.
1723.78 68.4893 0.
1079.66 288.532 0.
600.245 -532.197 0.
416.306 -951.991 0.
546.831 -658.528 0.
589.657 -552.427 0.
972.806 348.365 0.
807.071 -451.886 0.
241.751 -1769.46 0.
458.422 -1261.59 0.
813.103 -284.342 0.
394.146 -1259.13 0.
852.227 -187.493 0.
1577.11 413.356 0.
1266.8 -304.21 0.
657.996 -159.67 0.
871.465 344.828 0.
701.059 -46.6908 0.
90.9241 -1922.8 0.
365.317 -1280.88 0.
1042.31 299.852 0.
177.777 -743.634 0.
317.152 -413.581 0.
744.776 586.862 0.
495.751 599.476 0.
-344.215 -1357.09 0.
798.95 -321.555 0.
1287.34 374.666 0.
958.504 -389.702 0.
629.987 504.222 0.
-45.4835 -1073 0.
250.981 -382.198 0.
514.981 -128.191 0.
413.453 -369.444 0.
173.321 -933.776 0.
-50.2663 -758.855 0.
-42.2345 -738.271 0.
37.3003 -550.615 0.
436.183 538.335 0.
276.664 167.57 0.
251.121 -611.445 0.
716.655 482.176 0.
462.639 -103.966 0.
520.584 -19.481 0.
573.317 107.496 0.
610.31 197.164 0.
-148.859 -153.32 0.
-365.773 -660.269 0.
-241.743 -369.367 0.
-141.302 -289.321 0.
181.806 466.911 0.
-118.877 -195.502 0.
-33.8914 -418.704 0.
-257.395 -942.794 0.
-21.7331 -1129.35 0.
170.342 -681.253 0.
362.419 -233.16 0.
320.551 -109.846 0.
225.641 -336.536 0.
130.729 -563.226 0.
200.357 -668.404 0.
157.666 -767.767 0.
114.975 -867.129 0.
413.37 -857.256 0.
338.152 -1027.35 0.
-177.461 -1360.45 0.
-81.05 -1133.21 0.
15.3607 -905.967 0.
-71.7876 -829.961 0.
-101.157 -900.454 0.
-130.525 -970.948 0.
-57.117 -1078.89 0.
-177.177 -1354.71 0.
-297.236 -1630.53 0.
-169.862 -1520.06 0.
-88.7176 -1333.27 0.
402.754 -969.566 0.
301.216 -1201.54 0.
196.537 -1443.9 0.
-135.329 -1746.69 0.
-134.117 -1742.83 0.
-132.905 -1738.97 0.
383.451 -1471.53 0.
441.13 -1338.87 0.
498.809 -1206.21 0.
365.378 -1325.82 0.
276.263 -1528.75 0.
187.147 -1731.67 0.
129.536 -1512.14 0.
283.595 -1143.72 0.
190.02 -936.24 0.
104.922 -1132.5 0.
19.8229 -1328.75 0.
312.021 -1298.44 0.
332.349 -1251.47 0.
352.676 -1204.5 0.
101.514 -1138.51 0.
259.943 -775.259 0.
418.372 -412 0.
1386.43 -217.518 0.
1188.36 -672.599 0.
-962.165 -1962.78 0.
415.564 -1262.12 0.
473.432 -1126.36 0.
313.52 -1091.45 0.
353.679 -995.748 0.
393.837 -900.049 0.
419.473 -909.231 0.
346.259 -1077.75 0.
273.044 -1246.26 0.
292.027 -1261.99 0.
306.139 -1228.78 0.
320.251 -1195.58 0.
576.471 -1308.42 0.
449.338 -1610.45 0.
19.8721 -1984.88 0.
131.676 -1723.28 0.
243.479 -1461.68 0.
227.226 -1287.34 0.
293.144 -1131.68 0.
359.061 -976.017 0.
171.752 -1027.29 0.
143.319 -1092.52 0.
114.886 -1157.75 0.
-336.379 -1392.57 0.
-356.574 -1439.91 0.
1134.54 -845.14 0.
382.948 -1252.76 0.
336.556 -1358.1 0.
-207.006 -1596.7 0.
-74.4501 -1284.07 0.
58.1059 -971.439 0.
201.772 -874.752 0.
83.5149 -1152.01 0.
-34.7421 -1429.27 0.
-462.911 -1535.27 0.
-345.912 -1266.3 0.
-228.913 -997.327 0.
91.2575 -802.909 0.
116.914 -744.526 0.
9.70126 -741.399 0.
24.2823 -703.308 0.
38.8617 -665.218 0.
93.8446 -602.894 0.
121.425 -538.327 0.
149.002 -473.76 0.
-78.3956 -481.298 0.
-12.6256 -327.306 0.
53.1449 -173.314 0.
-51.5641 -38.3038 0.
43.915 187.976 0.
-471.187 -320.314 0.
29.8002 -360.988 0.
-193.688 -884.884 0.
102.119 -1043.35 0.
293.941 -594.542 0.
485.764 -145.731 0.
170.65 -142.45 0.
76.3002 -369.831 0.
-18.0519 -597.212 0.
129.131 -669.422 0.
86.5265 -768.736 0.
43.922 -868.049 0.
630.74 -732.321 0.
555.505 -902.225 0.
-258.807 -1366.59 0.
-162.402 -1138.76 0.
-65.9985 -910.936 0.
-11.7947 -772.186 0.
-40.5959 -843.051 0.
-69.3972 -913.916 0.
151.964 -957.144 0.
32.1573 -1233.09 0.
-87.6486 -1509.04 0.
-267.211 -1528.66 0.
-186.63 -1341.52 0.
569.51 -863.777 0.
108.001 -1253.3 0.
3.55665 -1495.53 0.
-40.493 -1675.79 0.
-39.768 -1671.13 0.
-39.0431 -1666.47 0.
373.45 -1443.3 0.
431.269 -1310.5 0.
489.089 -1177.7 0.
274.806 -1333.51 0.
186.571 -1537.21 0.
98.3358 -1740.92 0.
90.8314 -1496.55 0.
244.149 -1127.07 0.
-63.9236 -1014.91 0.
-148.961 -1211.54 0.
-233.999 -1408.16 0.
326.277 -1262.29 0.
347.092 -1216.28 0.
367.907 -1170.27 0.
176.97 -1072.49 0.
335.7 -709.808 0.
494.432 -347.124 0.
1132.75 -294.535 0.
934.927 -749.559 0.
-1829.78 -2303.4 0.
592.866 -1153.72 0.
649.71 -1017.28 0.
276.199 -1078.29 0.
316.031 -982.525 0.
355.863 -886.756 0.
202.213 -968.879 0.
128.733 -1137.6 0.
55.2535 -1306.32 0.
185.292 -1278.48 0.
199.086 -1244.47 0.
212.88 -1210.47 0.
270.856 -1406.9 0.
143.804 -1709.03 0.
219.443 -1864.91 0.
331.982 -1604.24 0.
444.522 -1343.56 0.
74.7845 -1321.37 0.
140.901 -1165.88 0.
207.018 -1010.39 0.
332.898 -927.406 0.
303.303 -991.845 0.
273.707 -1056.28 0.
-285.762 -1338.2 0.
-305.47 -1386 0.
1481.96 -665.34 0.
147.618 -1323.28 0.
101.812 -1429.16 0.
-116.883 -1525.61 0.
15.7786 -1212.55 0.
148.44 -899.503 0.
225.863 -835.471 0.
107.761 -1113 0.
-10.3406 -1390.53 0.
-539.474 -1533.73 0.
-421.539 -1265.93 0.
-303.603 -998.118 0.
393.122 -639.686 0.
419.222 -581.349 0.
-204.867 -802.94 0.
-190.06 -765.212 0.
-175.255 -727.485 0.
-100.904 -652.633 0.
-73.9101 -588.117 0.
-46.9194 -523.602 0.
195.914 -333.638 0.
261.667 -180.094 0.
327.42 -26.5497 0.
-59.0524 -11.702 0.
36.0921 214.829 0.
-907.502 -1320.45 0.
-222.003 -1071.01 0.
-187.301 -988.249 0.
242.506 -719.329 0.
279.967 -634.565 0.
317.426 -549.8 0.
-148.96 -670.731 0.
-81.0408 -511.105 0.
-13.1236 -351.477 0.
242.13 -331.15 0.
123.308 -608.139 0.
4.48657 -885.128 0.
661.962 -658.181 0.
652.932 -679.419 0.
-114.58 -1014.73 0.
-115.142 -1013.38 0.
-115.703 -1012.04 0.
-40.4773 -995.469 0.
-87.8201 -1098.56 0.
-135.163 -1201.65 0.
97.5962 -1109.44 0.
129.941 -1031.91 0.
162.286 -954.379 0.
-73.654 -1044.59 0.
-80.064 -1058.11 0.
462.714 -836.191 0.
150.548 -990.197 0.
139.736 -1014.59 0.
254.178 -1014.64 0.
194.014 -1159.77 0.
133.849 -1304.91 0.
385.641 -1251.93 0.
394.624 -1229.82 0.
403.607 -1207.7 0.
209.334 -1178.91 0.
300.678 -966.915 0.
392.023 -754.919 0.
233.574 -823.331 0.
219.896 -859.907 0.
-2.8798 -977.182 0.
9.31465 -948.468 0.
21.5092 -919.754 0.
407.226 -751.9 0.
392.208 -787.188 0.
377.191 -822.476 0.
267.51 -868.46 0.
278.448 -840.767 0.
289.386 -813.075 0.
932.253 -603.958 0.
888.128 -710.82 0.
-1055.71 -1632.44 0.
808.255 -697.65 0.
882.397 -529.719 0.
370.878 -649.299 0.
361.573 -683.655 0.
352.268 -718.012 0.
228.818 -807.29 0.
206.07 -861.743 0.
183.322 -916.196 0.
172.4 -913.856 0.
184.815 -885.696 0.
197.232 -857.535 0.
477.653 -865.719 0.
400.007 -1039.73 0.
448.233 -1156.84 0.
394.137 -1283.34 0.
340.04 -1409.84 0.
-204.917 -1655.39 0.
-121.004 -1463.53 0.
-37.0926 -1271.67 0.
228.406 -1070.69 0.
244.334 -1035.56 0.
260.262 -1000.43 0.
-106.61 -1208.19 0.
-143.088 -1293.05 0.
-55.1382 -1313.76 0.
47.9042 -1140.33 0.
116.026 -982.238 0.
156.643 -948.842 0.
-13.8602 -1349 0.
-184.364 -1749.17 0.
-135.811 -1680.68 0.
103.614 -1118.05 0.
343.039 -555.434 0.
-248.133 -785.215 0.
-335.476 -981.572 0.
-422.817 -1177.93 0.
281.96 -930.115 0.
256.869 -989.445 0.
-498.941 -1325.06 0.
-378.099 -1044.76 0.
-257.258 -764.465 0.
10.437 -507.067 0.
4.17324 -517.493 0.
-2.09011 -527.916 0.
170.431 -508.843 0.
117.211 -634.32 0.
63.9906 -759.798 0.
-615.514 -1138.27 0.
-656.402 -1232.06 0.
-527.214 -1125.52 0.
-151.384 -1009.32 0.
-116.218 -926.775 0.
158.836 -723.819 0.
196.737 -639.656 0.
234.638 -555.491 0.
-200.356 -656.479 0.
-131.23 -498.392 0.
-62.1061 -340.304 0.
258.464 -293.592 0.
139.24 -570.481 0.
20.0166 -847.37 0.
490.424 -700.014 0.
481.283 -720.778 0.
-13.2067 -940.356 0.
-14.9819 -937.665 0.
-16.7563 -934.975 0.
72.6346 -920.153 0.
24.578 -1021.99 0.
-23.4782 -1123.82 0.
-42.429 -1137.47 0.
-10.225 -1059.68 0.
21.9794 -981.887 0.
31.9293 -968.855 0.
26.1569 -983.026 0.
131.435 -948.976 0.
214.575 -931.301 0.
204.101 -955.622 0.
217.824 -998.788 0.
158.554 -1144.25 0.
99.2834 -1289.72 0.
269.675 -1269.61 0.
279.087 -1248.11 0.
288.499 -1226.62 0.
3.97722 -1235.03 0.
95.504 -1023.43 0.
187.031 -811.827 0.
-60.5535 -917.343 0.
-74.8222 -953.096 0.
416.259 -768.108 0.
428.719 -738.891 0.
441.178 -709.673 0.
80.3743 -861.867 0.
64.3147 -896.691 0.
48.2559 -931.516 0.
230.34 -853.894 0.
242.852 -828.19 0.
255.364 -802.486 0.
1052.34 -519.166 0.
1008.59 -626.363 0.
-1738.16 -1892.84 0.
696.044 -713.396 0.
769.692 -544.562 0.
247.828 -674.629 0.
237.204 -707.307 0.
226.58 -739.983 0.
394.106 -707.689 0.
371.151 -761.651 0.
348.197 -815.613 0.
-102.031 -1002.11 0.
-90.6785 -973.027 0.
-79.3255 -943.945 0.
774.313 -707.074 0.
697.439 -881.919 0.
101.703 -1272.31 0.
46.8536 -1398.28 0.
-7.99612 -1524.26 0.
-347.364 -1686.12 0.
-265.066 -1492.84 0.
-182.77 -1299.55 0.
-1.00774 -1139.02 0.
14.9967 -1103.79 0.
31.0014 -1068.56 0.
181.333 -1052.38 0.
144.36 -1136.85 0.
-136.264 -1320.52 0.
-127.919 -1187.49 0.
-60.0973 -1029.45 0.
167.029 -913.311 0.
-4.15526 -1312.75 0.
-175.34 -1712.18 0.
-116.132 -1643.78 0.
123.761 -1081.35 0.
363.653 -518.915 0.
-216.212 -736.479 0.
-303.482 -933.322 0.
-390.751 -1130.16 0.
59.3364 -994.64 0.
34.4286 -1053.6 0.
-415.457 -1259.91 0.
-294.985 -979.09 0.
-174.513 -698.274 0.
329.106 -335.939 0.
322.22 -345.757 0.
315.335 -355.574 0.
59.1091 -526.993 0.
6.44509 -652.936 0.
-46.2185 -778.88 0.
-744.672 -1162.63 0.
-785.147 -1256.69 0.
293.85 -196.148 0.
370.606 140.885 0.
-195.702 -1175.25 0.
-218.079 -1423.32 0.
650.67 606.784 0.
494.238 244.683 0.
78.037 115.426 0.
-227.97 -594.935 0.
-205.227 -537.951 0.
558.183 412.651 0.
233.62 -344.868 0.
180.319 -469.97 0.
445.21 -449.336 0.
63.0247 -1344.07 0.
319.81 -313.439 0.
613.637 369.385 0.
725.034 627.129 0.
605.388 148.769 0.
521.698 -45.5671 0.
628.969 205.45 0.
246.931 -161.093 0.
195.162 -290.203 0.
126.977 -455.999 0.
610.415 191.334 0.
597.478 164.395 0.
1194.73 -47.015 0.
126.109 -1210.24 0.
564.968 -189.961 0.
679.869 167.593 0.
456.285 -358.206 0.
506.527 -244.118 0.
770.911 144.832 0.
1160.88 1058.23 0.
668.586 -85.4061 0.
322.848 -74.7282 0.
413.243 138.589 0.
60.9696 -681.328 0.
395.122 742.178 0.
208.731 298.237 0.
1079.27 1.30186 0.
767.411 -730.141 0.
813.137 -627.336 0.
-41.11 -490.647 0.
31.3763 -319.05 0.
3.56447 -381.13 0.
623.951 154.516 0.
474.715 -189.877 0.
131.443 -986.797 0.
1125.2 -561.472 0.
1470.81 240.595 0.
-9316 -3054.74 0.
1192.29 709.771 0.
853.915 -82.8089 0.
43.1541 -886.205 0.
131.087 -686.582 0.
-87.2232 -1201.35 0.
457.387 -845.312 0.
317.2 -1172.77 0.
741.725 -182.504 0.
380.2 669.823 0.
-146.956 -561.028 0.
-407.177 -1168.17 0.
1237.95 -159.19 0.
2025.83 1684.78 0.
519.485 400.215 0.
182.92 -385.696 0.
266.415 -188.924 0.
161.46 -181.919 0.
158.803 -186.525 0.
79.5761 -370.242 0.
-45.0827 -780.331 0.
792.512 1173.76 0.
811.244 1215.7 0.
1268.97 964.195 0.
1008.84 364.94 0.
-564.595 -1010.21 0.
489.344 613.18 0.
198.207 -62.9644 0.
664.358 250.234 0.
351.804 -480.884 0.
281.345 -647.523 0.
319.655 -640.048 0.
595.9 13.6536 0.
241.431 -803.824 0.
130.066 45.1114 0.
-20.1054 -313.333 0.
-710.932 -1932.76 0.
54.8396 -545.885 0.
583.5 692.144 0.
90.9242 -204.145 0.
528.602 812.237 0.
103.298 -184.998 0.
523.839 -426.2 0.
692.119 -33.3016 0.
622.275 -197.207 0.
-7.45975 -441.216 0.
361.248 425.73 0.
201.631 59.3673 0.
111.304 1074.38 0.
-512.994 -388.18 0.
97.5144 -524.996 0.
199.47 -370.219 0.
222.319 -311.794 0.
311.821 -310.348 0.
159.156 -665.592 0.
6.49054 -1020.84 0.
-329.996 -1206.89 0.
-188.32 -873.361 0.
-46.644 -539.832 0.
106.428 -489.588 0.
20.8359 -689.866 0.
-64.7561 -890.144 0.
129.373 -808.088 0.
142.452 -780.12 0.
209.987 -736.264 0.
195.343 -777.491 0.
180.699 -818.718 0.
-45.7478 -964.599 0.
-96.4702 -1088.86 0.
-147.194 -1213.13 0.
-123.784 -1180.75 0.
-60.6766 -1040.54 0.
2.43208 -900.32 0.
33.0058 -828.735 0.
60.7337 -761.91 0.
434.381 -547.036 0.
322.78 -656.001 0.
292.373 -729.046 0.
263.948 -778.458 0.
259.758 -787.263 0.
255.568 -796.068 0.
176.714 -840.479 0.
180.044 -833.997 0.
183.373 -827.515 0.
214.219 -810.144 0.
209.39 -817.481 0.
204.561 -824.818 0.
-370.402 -1130.72 0.
-401.735 -1208.67 0.
468.424 -889.647 0.
495.876 -827.612 0.
523.327 -765.577 0.
-401.477 -1113.31 0.
-380.789 -1067.18 0.
-360.101 -1021.06 0.
227.653 -832.604 0.
147.027 -1012.41 0.
66.4008 -1192.22 0.
1074.71 -594.933 0.
1209.6 -278.496 0.
-2734.64 -1712.1 0.
743.017 -435.012 0.
631.824 -695.449 0.
-293.032 -1253.96 0.
-290.811 -1250.17 0.
-288.589 -1246.38 0.
243.743 -1029.46 0.
231.799 -1057.88 0.
219.855 -1086.3 0.
-351.129 -1309.1 0.
-319.998 -1242.66 0.
-288.867 -1176.23 0.
646.233 -705.453 0.
679.019 -629.044 0.
94.8106 -819.768 0.
128.184 -742.677 0.
161.558 -665.588 0.
182.247 -660.241 0.
112.122 -827.134 0.
41.9975 -994.027 0.
-277.601 -1208.35 0.
-294.053 -1246.2 0.
-310.506 -1284.06 0.
132.816 -1048.79 0.
162.044 -973.136 0.
411.14 -797.917 0.
-170.511 -918.416 0.
-104.286 -759.71 0.
168.058 -548.826 0.
179.297 -526.577 0.
190.536 -504.328 0.
377.406 -467.717 0.
313.242 -613.006 0.
249.077 -758.294 0.
-154.19 -926.042 0.
-120.058 -852.735 0.
-85.9263 -779.426 0.
-71.7768 -727.312 0.
-48.927 -671.725 0.
83.987 -588.962 0.
18.9999 -742.439 0.
-45.9888 -895.917 0.
134.208 -833.977 0.
237.632 -594.023 0.
341.055 -354.068 0.
-38.1504 -433.56 0.
-39.2484 -432.066 0.
-40.3461 -430.573 0.
-549.109 -769.255 0.
-626.723 -951.729 0.
703.661 -240.642 0.
275.126 -307.45 0.
298.212 -249.271 0.
394.538 -242.824 0.
242.747 -599.06 0.
90.955 -955.295 0.
-118.888 -1082.72 0.
23.6564 -749.789 0.
166.2 -416.859 0.
42.4298 -485.004 0.
-43.1875 -685.161 0.
-128.804 -885.318 0.
-52.1796 -853.711 0.
-39.5189 -825.604 0.
314.319 -661.288 0.
298.93 -702.148 0.
283.543 -743.008 0.
-237.983 -1016.5 0.
-288.764 -1140.99 0.
-339.545 -1265.48 0.
-27.9325 -1108.32 0.
34.8712 -967.882 0.
97.676 -827.443 0.
-117.131 -862.027 0.
-88.861 -795.083 0.
-567.65 -945.787 0.
281.005 -643.764 0.
250.817 -716.605 0.
268.378 -746.412 0.
264.521 -755.107 0.
260.665 -763.804 0.
-25.3222 -897.598 0.
-21.8914 -890.671 0.
-18.4623 -883.745 0.
494.823 -657.889 0.
490.905 -666.602 0.
486.985 -675.313 0.
-306.468 -1071.05 0.
-338.568 -1148.57 0.
196.724 -974.297 0.
224.421 -912.676 0.
252.119 -851.055 0.
-493.459 -1122.21 0.
-473.23 -1076.55 0.
-453 -1030.89 0.
269.627 -783.062 0.
189.505 -964.109 0.
109.384 -1145.16 0.
1043.21 -576.485 0.
1178.67 -260.294 0.
-5311.02 -2783.69 0.
820.219 -369.909 0.
709.663 -630.878 0.
-501.7 -1310.89 0.
-499.182 -1307.68 0.
-496.664 -1304.47 0.
89.6875 -1063.4 0.
78.0515 -1093.04 0.
66.416 -1122.69 0.
-187.379 -1204.97 0.
-155.898 -1139.14 0.
-124.416 -1073.31 0.
220.85 -856.088 0.
254.09 -780.193 0.
234.5 -726.796 0.
268.187 -650.379 0.
301.876 -573.964 0.
482.478 -500.181 0.
412.058 -667.37 0.
341.639 -834.559 0.
-320.82 -1194.47 0.
-337.125 -1233.54 0.
-353.43 -1272.61 0.
-188.287 -1154.12 0.
-159.675 -1078.53 0.
408.666 -771.434 0.
-161.653 -885.375 0.
-95.9818 -725.973 0.
-8.74502 -594.718 0.
2.667 -572.099 0.
14.0788 -549.48 0.
378.558 -436.029 0.
314.135 -580.549 0.
249.712 -725.068 0.
22.8508 -819.987 0.
56.5454 -746.281 0.
90.2392 -672.575 0.
-112.546 -712.171 0.
-88.7886 -657.233 0.
287.663 -468.773 0.
222.686 -622.271 0.
157.706 -775.769 0.
-110.636 -908.429 0.
-7.6556 -668.194 0.
95.3243 -427.958 0.
-61.2451 -412.052 0.
-62.1157 -410.737 0.
-62.9859 -409.422 0.
-374.479 -665.211 0.
-452.94 -846.688 0.
-160.889 -1283.49 0.
-43.7083 -872.695 0.
156.655 -408.775 0.
433.998 0.355995 0.
401.446 -71.7262 0.
368.893 -143.807 0.
274.175 -354.236 0.
110.541 -733.539 0.
-53.093 -1112.84 0.
-316.075 -1126.05 0.
-151.883 -740.447 0.
12.3069 -354.849 0.
102.786 -328.089 0.
77.7218 -390.997 0.
389.935 -313.03 0.
321.234 -474.007 0.
252.533 -634.984 0.
-222.496 -928.141 0.
-209.937 -896.014 0.
-197.378 -863.886 0.
169.278 -708.352 0.
158.011 -729.32 0.
146.743 -750.288 0.
-306.873 -1118.56 0.
-432.766 -1411.28 0.
-401.941 -1635.22 0.
-23.6567 -1209.4 0.
114.89 -877.592 0.
349.19 -521.775 0.
439.044 -308.887 0.
528.898 -96.0002 0.
174.071 -263.367 0.
42.1952 -567.483 0.
-89.6797 -871.598 0.
544.409 -609.158 0.
603.242 -472.056 0.
662.074 -334.954 0.
-75.5261 -559.698 0.
-30.9001 -451.78 0.
279.795 -241.771 0.
251.648 -303.993 0.
223.501 -366.215 0.
-170.822 -608.563 0.
-223.564 -733.875 0.
-276.304 -859.187 0.
338.964 -652.515 0.
330.983 -672.774 0.
323.003 -693.034 0.
1023.06 -403.828 0.
1025.91 -398.741 0.
-839.126 -1192.67 0.
776.137 -332.96 0.
861.541 -131.205 0.
-85.8843 -434.434 0.
-146.553 -571.669 0.
-207.219 -708.905 0.
55.9877 -695.62 0.
15.2859 -789.605 0.
-25.4153 -883.591 0.
-25.3109 -858.802 0.
11.5088 -770.912 0.
48.3287 -683.023 0.
118.625 -671.482 0.
108.085 -693.958 0.
262.043 -644.702 0.
240.545 -698.003 0.
219.048 -751.304 0.
362.413 -720.922 0.
374.014 -694.684 0.
385.615 -668.446 0.
16.6883 -789.605 0.
34.5778 -749.963 0.
52.4667 -710.322 0.
-138.812 -740.223 0.
-100.253 -656.775 0.
28.5463 -534.883 0.
-171.663 -624.85 0.
-170.222 -628.04 0.
-60.1027 -611.672 0.
-129.811 -775.944 0.
-199.52 -940.216 0.
144.496 -873.974 0.
140.59 -887.128 0.
136.684 -900.281 0.
-18.314 -841.001 0.
75.3393 -619.869 0.
168.991 -398.738 0.
119.409 -395.047 0.
125.186 -380.074 0.
356.636 -267.768 0.
366.608 -250.984 0.
376.582 -234.2 0.
-93.3853 -431.471 0.
-81.6992 -413.858 0.
-70.0157 -396.244 0.
-101.835 -505.405 0.
-197.766 -732.506 0.
-293.696 -959.607 0.
-413.483 -806.352 0.
-253.058 -433.084 0.
208.974 -1094.08 0.
-282.187 -942.993 0.
-81.7032 -478.959 0.
210.238 -64.0544 0.
178.509 -136.592 0.
146.78 -209.128 0.
288.177 -316.038 0.
124.878 -695.761 0.
-38.4217 -1075.48 0.
-424.647 -1141.6 0.
-259.342 -757.31 0.
-94.0384 -373.019 0.
155.247 -271.493 0.
130.792 -335.2 0.
137.571 -391.121 0.
68.9668 -551.802 0.
0.363304 -712.483 0.
-61.1787 -826.932 0.
-48.4831 -795.007 0.
-35.7874 -763.082 0.
160.972 -681.059 0.
150.188 -702.025 0.
139.404 -722.991 0.
-324.582 -1093.63 0.
-450.677 -1385.62 0.
177.026 -1352.53 0.
-109.659 -1216.35 0.
30.3269 -885.526 0.
315.321 -503.341 0.
405.934 -290.589 0.
496.546 -77.8365 0.
232.26 -208.915 0.
100.408 -513.213 0.
-31.4431 -817.509 0.
351.853 -661.439 0.
410.155 -524.073 0.
468.458 -386.707 0.
-78.4254 -528.75 0.
-33.5531 -421.1 0.
2.34151 -328.764 0.
-25.7902 -391.351 0.
-53.9227 -453.937 0.
204.836 -417.264 0.
152.152 -543.539 0.
99.4686 -669.815 0.
381.369 -601.915 0.
372.847 -622.168 0.
364.325 -642.421 0.
859.619 -442.432 0.
861.985 -437.056 0.
-892.48 -1183.34 0.
532.863 -406.626 0.
618.196 -205.04 0.
283.37 -246.516 0.
222.819 -384.298 0.
162.269 -522.08 0.
-240.019 -787.084 0.
-279.716 -882.702 0.
-319.412 -978.322 0.
-128.473 -870.082 0.
-90.7285 -782.947 0.
-52.9834 -695.813 0.
146.708 -626.993 0.
136.629 -649.964 0.
130.753 -667.813 0.
109.655 -721.494 0.
88.5576 -775.176 0.
21.6645 -836.444 0.
32.5817 -809.663 0.
43.4981 -782.881 0.
490.916 -555.124 0.
508.656 -516.331 0.
526.394 -477.54 0.
-80.1662 -685.935 0.
-42.1427 -602.652 0.
236.056 -412.43 0.
-436.512 -705 0.
-434.87 -708.499 0.
42.9339 -536.32 0.
-26.5029 -700.781 0.
-95.9392 -865.242 0.
73.8824 -870.544 0.
69.3948 -883.036 0.
64.9067 -895.527 0.
-233.678 -903.829 0.
-140.164 -682.508 0.
-46.6516 -461.188 0.
430.291 -227.669 0.
436.11 -212.779 0.
169.411 -316.126 0.
179.376 -299.135 0.
189.341 -282.144 0.
-270.149 -478.769 0.
-259.156 -460.021 0.
-248.165 -441.272 0.
-58.2216 -454.814 0.
-153.585 -682.167 0.
-248.948 -909.521 0.
-491.864 -810.056 0.
-331.394 -436.651 0.
111.86 564.178 0.
-462.652 -871.347 0.
100 436.499 0.
73.3264 69.261 0.
-163.328 -479.917 0.
16.8461 -56.1703 0.
-121.838 -1269.79 0.
500.685 184.114 0.
158.66 -611.807 0.
42.3137 185.218 0.
-40.8515 -7.90067 0.
8.07481 107.389 0.
586.348 657.536 0.
443.135 326.132 0.
-340.75 -1002.97 0.
-115.895 -481.165 0.
-320.732 -961.717 0.
530.936 281.444 0.
625.908 501.491 0.
200.794 -493.499 0.
162.853 -615.168 0.
355.037 -170.118 0.
833.327 942.887 0.
-23.7263 -316.312 0.
375.402 613.91 0.
-150.005 -193.356 0.
151.011 -414.197 0.
111.262 -505.55 0.
90.8898 -931.492 0.
176.699 -733.955 0.
391.195 -236.839 0.
537.613 414.853 0.
541.086 424.132 0.
171.578 -436.338 0.
945.442 1108.06 0.
640.646 394.718 0.
250.115 -516.907 0.
-95.5518 -526.031 0.
-297.142 -996.077 0.
132.893 546.39 0.
90.357 447.236 0.
-449.582 -812.203 0.
490.676 -433.421 0.
642.527 -84.5054 0.
710.047 67.8071 0.
857.645 452.865 0.
933.922 629.431 0.
-78.3357 -1733.81 0.
576.039 -753.894 0.
1004.76 241.344 0.
-1088.63 -554.875 0.
582.599 214.127 0.
190.467 -704.6 0.
227.701 -1053.61 0.
553.429 -296.105 0.
529.515 -353.935 0.
-441.132 -650.015 0.
-217.903 -134.952 0.
237.527 922.204 0.
490.428 804.103 0.
232.1 202.568 0.
488.583 802.202 0.
621.952 450.013 0.
330.98 -229.064 0.
203.938 -208.599 0.
65.7156 -537.72 0.
-74.109 -867.636 0.
227.868 328.064 0.
10.4295 -176.262 0.
24.0144 -141.355 0.
794.793 -726.179 0.
1022.31 -191.997 0.
1102.12 -2.39952 0.
219.356 -83.9248 0.
218.785 -77.6714 0.
-512.933 156.325 0.
-192.992 402.425 0.
-805.541 -1025.4 0.
437.734 224.128 0.
218.335 -292.523 0.
166.068 -418.224 0.
666.813 686.327 0.
599.497 523.989 0.
-75.0334 -1056.1 0.
8.04919 106.674 0.
262.894 695.61 0.
-111.538 -184.819 0.
775.174 25.6986 0.
663.009 -232.704 0.
-68.5229 -496.351 0.
191.439 114.673 0.
308.146 391.32 0.
-650.234 -1011.42 0.
-556.777 -792.959 0.
-140.421 178.886 0.
688.734 1231.45 0.
371.769 497.422 0.
513.63 832.942 0.
-210.933 6.0568 0.
-105.654 248.167 0.
-467.038 -503.77 0.
-324.068 -584.848 0.
-387.663 -734.213 0.
-250.473 -761.334 0.
-216.825 -681.699 0.
-183.176 -602.065 0.
233.699 -328.369 0.
301.246 -170.858 0.
368.793 -13.3463 0.
-112.924 -306.524 0.
-218.219 -549.608 0.
-323.514 -792.69 0.
4.72082 -615.042 0.
36.2123 -537.351 0.
-116.252 -562.326 0.
-162.613 -672.474 0.
-208.975 -782.623 0.
-37.9263 -730.965 0.
18.7161 -597.915 0.
75.3589 -464.866 0.
26.7881 -536.819 0.
-75.1314 -775.884 0.
-177.051 -1014.95 0.
-199.203 -865.165 0.
-52.2137 -523.394 0.
-166.862 -293.501 0.
195.165 -246.735 0.
127.002 -405.129 0.
281.753 -455.276 0.
268.042 -489.258 0.
254.329 -523.24 0.
-111.529 -686.95 0.
-103.627 -668.938 0.
-95.7251 -650.925 0.
170.9 -480.583 0.
209.471 -390.568 0.
248.042 -300.555 0.
43.0864 -421.794 0.
18.5482 -479.37 0.
-199.785 -623.527 0.
-263.426 -768.572 0.
-327.067 -913.617 0.
288.877 -706.057 0.
318.754 -637.165 0.
348.632 -568.274 0.
182.033 -617.807 0.
184.264 -617.69 0.
186.496 -617.572 0.
595.708 -384.974 0.
633.233 -300.412 0.
-2351.35 -1513.53 0.
261.459 -526.211 0.
194.501 -686.124 0.
113.645 -792.333 0.
179.609 -637.657 0.
245.572 -482.981 0.
-245.931 -676.548 0.
-306.04 -812.337 0.
-366.149 -948.127 0.
-345.99 -991.569 0.
-365.166 -1028.98 0.
-384.34 -1066.4 0.
-10.6672 -961.569 0.
-41.7408 -1036.15 0.
-302.928 -1195.02 0.
-247.384 -1066.98 0.
-191.839 -938.944 0.
-115.308 -859.099 0.
-160.017 -965.848 0.
-204.725 -1072.6 0.
481.988 -754.153 0.
556.511 -584.628 0.
631.032 -415.104 0.
-209.965 -654.347 0.
-152.633 -519.661 0.
198.354 -262.599 0.
-471.416 -834.19 0.
-622.889 -1185.73 0.
-200.721 -1167.04 0.
-57.6853 -833.806 0.
85.3504 -500.574 0.
178.645 -334.981 0.
152.89 -394.402 0.
127.134 -453.822 0.
-309.392 -648.985 0.
-304.897 -640.677 0.
-300.403 -632.368 0.
589.462 -203.238 0.
615.92 -138.98 0.
-59.1906 -395.891 0.
-129.546 -558.989 0.
-199.901 -722.088 0.
-542.172 -912.902 0.
-472.894 -754.993 0.
-403.614 -597.083 0.
138.306 -282.291 0.
168.979 -206.001 0.
199.652 -129.711 0.
-405.673 -580.495 0.
-542.487 -900.46 0.
405.018 -98.6505 0.
-291.401 -538.992 0.
-355.496 -688.014 0.
-192.737 -706.287 0.
-159.44 -626.45 0.
-126.142 -546.614 0.
193.761 -313.774 0.
261.555 -156.488 0.
329.349 0.797563 0.
-29.1639 -239.513 0.
-133.846 -483.66 0.
-238.529 -727.807 0.
-25.8411 -594.878 0.
6.45029 -518.128 0.
-54.9605 -501.853 0.
-100.899 -612.44 0.
-146.838 -723.027 0.
-186.709 -762.809 0.
-129.92 -629.532 0.
-73.1302 -496.255 0.
-167.168 -590.275 0.
-268.41 -829.852 0.
-369.652 -1069.43 0.
-108.036 -794.333 0.
40.1319 -453.024 0.
-597.424 -447.679 0.
175.047 -223.652 0.
107.833 -382.617 0.
281.384 -422.969 0.
268.611 -457.232 0.
255.837 -491.496 0.
-316.637 -743.834 0.
-308.77 -726.014 0.
-300.904 -708.194 0.
72.4988 -492.598 0.
111.16 -402.8 0.
149.82 -313.002 0.
175.346 -331.251 0.
150.773 -389.379 0.
28.0095 -494.487 0.
-36.2784 -639.964 0.
-100.567 -785.439 0.
192.514 -716.29 0.
221.729 -647.621 0.
250.945 -578.951 0.
-68.7946 -695.479 0.
-66.9372 -695.295 0.
-65.079 -695.11 0.
447.053 -417.014 0.
484.144 -332.804 0.
-1924.78 -1299.51 0.
275.303 -489.598 0.
208.483 -650.064 0.
-159.703 -874.621 0.
-93.2752 -720.86 0.
-26.8473 -567.098 0.
32.6979 -526.041 0.
-26.8629 -663.053 0.
-86.423 -800.064 0.
-418.44 -989.116 0.
-436.463 -1027.4 0.
-454.484 -1065.68 0.
-25.5386 -935.523 0.
-56.2687 -1010.64 0.
-389.462 -1199.3 0.
-333.431 -1072.51 0.
-277.4 -945.724 0.
109.097 -729.052 0.
64.6523 -836.666 0.
20.2071 -944.281 0.
130.221 -872.469 0.
204.888 -703.463 0.
279.552 -534.459 0.
-425.469 -717.668 0.
-368.555 -583.297 0.
84.3234 -278.205 0.
-144.57 -661.066 0.
-295.941 -1013.3 0.
-237.003 -1150.01 0.
-93.6241 -817.707 0.
49.7547 -485.4 0.
130.725 -322.179 0.
104.438 -381.322 0.
78.151 -440.465 0.
-285.833 -607.514 0.
-281.696 -598.632 0.
-277.559 -589.75 0.
499.512 -211.064 0.
526.682 -146.703 0.
-86.9705 -374.386 0.
-156.01 -538.215 0.
-225.049 -702.044 0.
-441.984 -836.355 0.
-372.198 -678.466 0.
-302.41 -520.577 0.
275.807 -191.506 0.
306.686 -115.096 0.
337.565 -38.6856 0.
-320.601 -513.317 0.
-457.908 -832.997 0.
-899.999 -424.674 0.
145.177 142.168 0.
198.097 263.578 0.
286.592 357.453 0.
228.083 217.307 0.
169.573 77.1608 0.
199.26 -64.8325 0.
87.6913 -319.704 0.
-23.8783 -574.573 0.
-130.522 -576.429 0.
-35.2401 -355.678 0.
60.042 -134.927 0.
147.819 -258.925 0.
30.8651 -524.608 0.
-156.106 -776.053 0.
-55.2807 -537.521 0.
45.5441 -298.99 0.
-142.14 -300.315 0.
-221.247 -482.795 0.
-300.356 -665.275 0.
-263.681 -642.969 0.
-186.782 -461.768 0.
-109.884 -280.569 0.
167.796 -148.787 0.
147.31 -191.506 0.
189.297 -207.436 0.
72.326 -444.992 0.
-30.021 -675.557 0.
116.733 -734.669 0.
149.95 -653.393 0.
183.168 -572.118 0.
-277.693 -654.187 0.
-178.513 -417.029 0.
-79.335 -179.873 0.
282.379 28.9535 0.
268.782 2.04349 0.
255.184 -24.8664 0.
246.99 -101.163 0.
204.165 -201.95 0.
119.36 -296.735 0.
209.219 -92.0524 0.
299.079 112.631 0.
519.501 257.468 0.
421.025 27.2484 0.
322.549 -202.971 0.
-65.1035 -431.231 0.
-44.939 -382.595 0.
-24.7746 -333.96 0.
450.111 -104.455 0.
463.167 -71.1123 0.
-263.778 -355.946 0.
420.035 -85.6717 0.
403.484 -118.673 0.
-99.3638 -363.483 0.
-120.415 -409.952 0.
-141.467 -456.422 0.
243.588 -285.579 0.
272.238 -218.49 0.
300.888 -151.4 0.
-84.7377 -233.285 0.
-28.0896 -102.382 0.
28.5592 28.5222 0.
285.729 94.3327 0.
248.704 13.672 0.
103.148 -128.574 0.
-10.903 -386.533 0.
-124.954 -644.491 0.
271.906 -588.851 0.
318.008 -478.755 0.
364.111 -368.659 0.
-51.0173 -514.664 0.
-60.4945 -532.507 0.
-69.9713 -550.349 0.
-424.165 -693.765 0.
-412.19 -667.597 0.
634.397 -191.427 0.
107.172 -404.723 0.
114.685 -385.921 0.
56.9376 -408.995 0.
18.1619 -493.49 0.
-20.6137 -577.986 0.
-8.63111 -529.926 0.
94.9841 -289.155 0.
198.6 -48.3839 0.
-124.966 -287.016 0.
-250.859 -580.232 0.
-376.753 -873.446 0.
199.942 -537.942 0.
264.952 -387.24 0.
-100.57 -426.507 0.
-67.9387 -350.663 0.
-35.3083 -274.819 0.
-193.011 -353.223 0.
-265.75 -524.38 0.
-338.488 -695.537 0.
101.088 -528.61 0.
135.586 -446.511 0.
170.086 -364.412 0.
-89.5355 -474.051 0.
-100.418 -496.889 0.
472.869 196.852 0.
487.941 320.059 0.
540.395 441.962 0.
319.094 399.848 0.
260.465 259.674 0.
201.836 119.499 0.
24.6273 -105.901 0.
-86.4086 -361.256 0.
-197.445 -616.609 0.
-85.9308 -529.106 0.
8.78996 -307.59 0.
103.511 -86.0747 0.
287.906 -165.099 0.
171.606 -430.959 0.
-147.281 -742.399 0.
-46.1405 -504.093 0.
54.9997 -265.786 0.
-342.069 -353.425 0.
-420.392 -536.115 0.
-498.715 -718.805 0.
-231.446 -597.005 0.
-153.712 -416.189 0.
-75.9788 -235.375 0.
103.111 -146.311 0.
81.8397 -188.016 0.
488.875 -45.3359 0.
106.323 -398.199 0.
4.29632 -628.876 0.
69.4929 -726.062 0.
102.426 -644.313 0.
135.36 -562.566 0.
-43.9652 -521.245 0.
55.3748 -284.702 0.
154.714 -48.1598 0.
390.894 108.565 0.
377.348 81.4385 0.
363.802 54.3125 0.
74.6202 -142.825 0.
31.652 -243.76 0.
-54.6366 -338.271 0.
34.8743 -133.921 0.
124.386 70.4305 0.
425.795 250.91 0.
326.636 20.7298 0.
227.478 -209.45 0.
-43.8877 -392.513 0.
-24.2186 -343.849 0.
-4.5495 -295.186 0.
270.677 -150.222 0.
283.579 -117.234 0.
-212.552 -301.617 0.
384.271 -68.6666 0.
368.584 -102.172 0.
-166.195 -357.21 0.
-186.558 -404.578 0.
-206.92 -451.945 0.
247.205 -251.802 0.
275.482 -185.067 0.
303.759 -118.332 0.
48.4138 -144.062 0.
104.76 -12.717 0.
161.106 118.628 0.
17.2384 8.02834 0.
-18.9977 -73.0348 0.
284.385 -17.7932 0.
170.076 -276.073 0.
55.7675 -534.351 0.
324.546 -534.334 0.
370.376 -424.41 0.
416.207 -314.487 0.
-493.013 -673.67 0.
-501.714 -691.816 0.
-510.413 -709.961 0.
-166.59 -551.011 0.
-154.405 -525.017 0.
1356.22 147.836 0.
146.057 -356.419 0.
152.542 -336.125 0.
55.8495 -380.74 0.
17.6331 -465.659 0.
-20.5832 -550.578 0.
-58.5214 -519.54 0.
45.9489 -279.516 0.
150.42 -39.4908 0.
-56.5378 -224.509 0.
-182.93 -517.328 0.
-309.322 -810.145 0.
-68.18 -620.845 0.
-3.56728 -470.196 0.
-12.9259 -359.686 0.
19.532 -283.474 0.
51.9893 -207.262 0.
-166.175 -311.224 0.
-239.109 -481.854 0.
-312.041 -652.484 0.
-67.6524 -568.766 0.
-33.2932 -486.524 0.
1.06674 -404.281 0.
353.919 -255.928 0.
344.058 -280.061 0.
-456.647 503.509 0.
486.283 -285.132 0.
558.352 -118.172 0.
-188.272 -830.445 0.
33.2405 -305.219 0.
279.078 274.179 0.
-243.722 -388.173 0.
-47.6135 74.9345 0.
148.444 537.741 0.
633.862 1099.44 0.
314.202 354.281 0.
-187.701 -814.95 0.
488.645 76.574 0.
806.158 814.959 0.
41.2542 -299.739 0.
208.708 96.3142 0.
138.382 -61.7926 0.
-468.949 -247.406 0.
-115.381 573.006 0.
-292.546 156.024 0.
-339.395 -881.147 0.
-562.881 -1403.01 0.
79.4014 94.5551 0.
181.135 189.905 0.
403.683 713.001 0.
266.454 399.204 0.
360.27 154.086 0.
296.906 3.16847 0.
191.461 -322.885 0.
253.416 -172.672 0.
147.977 -412.602 0.
202.407 -360.799 0.
197.016 -369.432 0.
410.009 130.333 0.
769.496 810.14 0.
251.924 -393.698 0.
209.195 -490.446 0.
-170.311 -346.573 0.
-125.344 -242.814 0.
-297.183 -539.786 0.
-468.347 -936.661 0.
-447.815 -886.201 0.
-38.3944 -617.771 0.
114.444 -261.806 0.
10.8459 -504.181 0.
-354.287 -1118.11 0.
-409.092 -1246.22 0.
-305.121 -1003.75 0.
-168.485 -805.434 0.
371.947 454.205 0.
167.473 347.602 0.
570.678 485.158 0.
723.333 842.482 0.
316.019 926.274 0.
-302.089 -513.959 0.
-274.47 -447.555 0.
623.299 642.146 0.
512.468 385.656 0.
322.01 -56.6998 0.
173.107 -63.2259 0.
216.028 29.5925 0.
565.135 838.506 0.
377.07 1386.49 0.
155.372 872.258 0.
493.59 157.409 0.
145.446 -654.162 0.
755.182 769.285 0.
930.018 814.842 0.
397.048 -436.85 0.
374.986 -495.025 0.
-214.99 848.894 0.
-520.284 131.522 0.
-160.455 966.491 0.
370.427 234.191 0.
721.831 1059.39 0.
833.857 627.184 0.
686.292 854.03 0.
716.153 921.523 0.
-22.5907 -526.035 0.
-107.121 -722.882 0.
399.039 458.266 0.
466.845 833.433 0.
151.888 99.2867 0.
-247.359 -832.317 0.
-96.3848 -413.181 0.
-9.83699 -211.026 0.
-16.9514 -228.376 0.
-32.705 -5.04196 0.
-43.9775 -28.9984 0.
210.154 27.7593 0.
-56.4225 -588.426 0.
479.451 665.566 0.
173.203 450.528 0.
240.895 614.229 0.
-438.766 -966.08 0.
70.5541 100.983 0.
57.3209 68.7822 0.
129.528 233.756 0.
751.45 -117.429 0.
650.965 -354.576 0.
99.1977 -108.721 0.
413.439 -82.6428 0.
349.948 -231.258 0.
-96.7348 -492.701 0.
-52.4592 -386.066 0.
-8.18496 -279.43 0.
-398.285 -415.203 0.
-417.619 -461.369 0.
-436.954 -507.534 0.
-36.6461 -361.066 0.
-47.855 -388.292 0.
-59.064 -415.517 0.
65.4676 -206.428 0.
161.897 15.4096 0.
297.496 226.968 0.
229.621 70.0297 0.
161.746 -86.9087 0.
-433.608 -418.712 0.
-414.808 -377.271 0.
-396.008 -335.83 0.
103.239 -106.548 0.
98.9381 -110.112 0.
94.6368 -113.676 0.
-227.061 -361.203 0.
-296.836 -530.112 0.
111.659 -494.28 0.
100.866 -463.552 0.
122.251 -419.54 0.
-78.4488 -489.897 0.
-111.236 -568.295 0.
-144.023 -646.695 0.
169.612 -519.832 0.
211.345 -426.45 0.
253.08 -333.068 0.
264.47 -296.346 0.
265.576 -296.418 0.
266.683 -296.49 0.
-187.576 -534.783 0.
-207.421 -583.803 0.
-281.763 -647.249 0.
-263.002 -601.637 0.
-244.241 -556.027 0.
-20.3081 -443.911 0.
-31.8687 -472.669 0.
-43.4293 -501.426 0.
-120.873 -418.225 0.
-6.30163 -154.125 0.
108.27 109.975 0.
136.243 21.2071 0.
34.3077 -216.93 0.
-0.996011 -426.418 0.
61.5782 -357.851 0.
81.2995 -308.924 0.
-110.536 -389.084 0.
-192.376 -574.073 0.
-274.216 -759.062 0.
-291.2 -728.29 0.
-144.953 -391.318 0.
1.29596 -54.3436 0.
158.877 59.0562 0.
124.432 -23.1501 0.
89.9868 -105.356 0.
-161.807 -218.916 0.
-163.163 -220.919 0.
441.958 41.4265 0.
462.872 88.0478 0.
483.785 134.67 0.
178.909 29.1345 0.
177.15 19.8056 0.
175.391 10.4764 0.
-473.838 -319.67 0.
-517.662 -419.827 0.
-561.485 -519.984 0.
142.884 -348.74 0.
64.1672 -530.054 0.
354.163 -550.478 0.
-69.5933 -671.296 0.
-31.605 -591.755 0.
-45.5679 -511.085 0.
37.1437 -322.466 0.
119.856 -133.847 0.
87.1515 -150.408 0.
-9.68459 -378.642 0.
-106.521 -606.877 0.
-118.918 -619.913 0.
-71.9726 -509.206 0.
-25.0266 -398.5 0.
-97.5858 -336.75 0.
-50.9179 -225.611 0.
-53.8903 -145.349 0.
-56.2367 -151.607 0.
-58.582 -157.865 0.
-116.894 -161.926 0.
-84.8995 -85.8872 0.
-52.9041 -9.84877 0.
83.7326 4.03335 0.
19.9162 -151.368 0.
-43.9004 -306.77 0.
204.547 -233.434 0.
204.461 -238.654 0.
-111.404 -164.422 0.
231.678 -130.283 0.
168.692 -278.635 0.
-148.681 -483.331 0.
-103.225 -377.587 0.
-57.7693 -271.842 0.
-552.303 -446.202 0.
-570.219 -492.972 0.
-588.137 -539.74 0.
-73.605 -347.324 0.
-84.9534 -374.65 0.
-96.3019 -401.976 0.
-285.823 -324.105 0.
-189.691 -102.732 0.
356.477 284.009 0.
289.126 126.575 0.
221.774 -30.8596 0.
-282.785 -323.667 0.
-264.294 -281.517 0.
-245.803 -239.367 0.
250.242 -12.8198 0.
246.081 -15.5838 0.
241.919 -18.3485 0.
-419.333 -413.984 0.
-489.398 -582.299 0.
59.8047 -486.056 0.
126.006 -420.678 0.
147.205 -376.529 0.
-301.744 -553.92 0.
-334.997 -632.17 0.
-368.25 -710.423 0.
235.302 -460.185 0.
276.197 -366.693 0.
317.094 -273.202 0.
248.543 -271.494 0.
250.717 -272.487 0.
252.891 -273.48 0.
-85.5846 -459.215 0.
-104.577 -508.824 0.
-187.077 -574.276 0.
-168.031 -529.126 0.
-148.984 -483.978 0.
-64.8685 -428.688 0.
-76.0871 -457.718 0.
-87.3056 -486.749 0.
-179.104 -412.169 0.
-64.4351 -147.9 0.
50.2342 116.369 0.
102.66 39.0224 0.
0.853333 -199.281 0.
-98.1373 -437.339 0.
-116.464 -402.678 0.
-97.177 -353.393 0.
76.8446 -276.079 0.
-5.34849 -461.012 0.
-87.5417 -645.944 0.
-676.445 -862.102 0.
-530.55 -524.936 0.
-384.654 -187.769 0.
96.7716 65.1375 0.
61.7958 -16.5662 0.
26.8196 -98.2698 0.
41.5397 -101.515 0.
39.099 -101.866 0.
459.462 78.5669 0.
479.383 125.798 0.
499.304 173.029 0.
-315.861 -153.977 0.
-318.574 -163.123 0.
-321.286 -172.269 0.
-162.345 -155.774 0.
-206.378 -255.787 0.
-250.41 -355.8 0.
180.301 -302.549 0.
102.19 -483.818 0.
720.144 -363.82 0.
-175.175 -684.884 0.
-136.912 -605.22 0.
-63.4072 -487.699 0.
20.1704 -299.946 0.
103.748 -112.193 0.
154.313 -88.7623 0.
57.9612 -317.203 0.
-38.3905 -545.645 0.
-23.1556 -548.511 0.
24.2315 -438.132 0.
71.6195 -327.754 0.
14.0951 -256.299 0.
61.2518 -145.837 0.
-269.869 -206.749 0.
-272.472 -212.855 0.
-275.073 -218.959 0.
-131.668 -136.838 0.
-99.2023 -61.0089 0.
-66.7355 14.8197 0.
167.202 72.062 0.
103.121 -83.6802 0.
39.0407 -239.424 0.
-385.484 -457.114 0.
-385.986 -462.33 0.
150.917 -231.671 0.
193.314 -114.596 0.
283.117 96.4872 0.
35.3213 124.93 0.
36.0826 131.062 0.
36.8432 137.195 0.
-335.423 -41.2792 0.
-361.673 -98.2813 0.
-387.924 -155.283 0.
14.4382 -43.6433 0.
-27.6156 -140.065 0.
-69.6699 -236.486 0.
-364.348 -282.261 0.
-309.303 -147.394 0.
189.167 145.798 0.
105.807 -49.2216 0.
22.449 -244.241 0.
-211.809 -399.309 0.
-125.287 -196.052 0.
-38.7661 7.20481 0.
388.191 254.747 0.
378.49 227.406 0.
368.789 200.064 0.
-265.65 -25.8112 0.
-235.81 46.2144 0.
673.434 493.795 0.
327.076 258.588 0.
283.493 157.362 0.
-136.414 -122.673 0.
-210.914 -296.17 0.
-285.414 -469.668 0.
201.766 -342.47 0.
198.332 -354.74 0.
194.899 -367.01 0.
150.046 -297.334 0.
220.051 -131.123 0.
290.056 35.0883 0.
-6.07141 -203.348 0.
-81.3391 -378.223 0.
-131.523 -545.252 0.
-189.16 -675.727 0.
-246.796 -806.202 0.
-240.933 -792.923 0.
-120.273 -502.892 0.
0.385822 -212.863 0.
-156.905 -164.917 0.
-150.806 -148.092 0.
-144.707 -131.268 0.
26.231 -191.48 0.
-66.1508 -403.879 0.
-499.184 -762.084 0.
-240.339 -550.834 0.
-186.464 -427.9 0.
-11.497 -228.385 0.
104.918 42.6675 0.
221.333 313.72 0.
-421.46 116.815 0.
-474.244 -2.85708 0.
-527.027 -122.529 0.
84.8133 37.8285 0.
31.6178 -87.6863 0.
-21.5774 -213.201 0.
-41.3235 -363.158 0.
-116.953 -542.643 0.
125.073 -550.256 0.
200.72 -375.072 0.
276.367 -199.888 0.
-567.273 -453.658 0.
-546.063 -405.4 0.
-524.853 -357.142 0.
10.283 -42.4089 0.
83.5319 124.488 0.
156.781 291.386 0.
375.192 275.572 0.
279.03 56.1403 0.
509.932 -25.9966 0.
32.8134 -173.482 0.
60.7751 -104.364 0.
164.037 -47.3712 0.
90.1958 -212.997 0.
16.356 -378.623 0.
37.0573 -374.777 0.
119.053 -185.443 0.
201.049 3.89058 0.
120.02 -75.1636 0.
49.5145 -240.55 0.
-20.9909 -405.937 0.
39.2884 -320.95 0.
83.8887 -218.343 0.
-492.137 -383.949 0.
-452.354 -289.625 0.
-412.569 -195.302 0.
-4.65275 -14.0747 0.
-72.4413 -173.419 0.
-140.231 -332.762 0.
-13.6947 -281.701 0.
38.2493 -156.919 0.
90.1936 -32.1383 0.
-411.786 -135.253 0.
-346.891 14.9295 0.
346.201 -115.055 0.
295.894 -37.825 0.
385.967 173.246 0.
-69.5455 111.283 0.
-67.6733 117.774 0.
-65.8016 124.265 0.
-55.5789 110.603 0.
-80.6436 53.5473 0.
-105.71 -3.50891 0.
-24.0863 -30.6132 0.
-65.7519 -127.339 0.
-107.418 -224.064 0.
-227.863 -189.743 0.
-171.599 -56.2359 0.
-106.086 50.2253 0.
-189.453 -144.994 0.
-272.82 -340.214 0.
-69.4317 -304.661 0.
17.4001 -101.599 0.
104.231 101.463 0.
351.906 269.305 0.
341.428 243.351 0.
330.95 217.395 0.
-86.1567 79.1506 0.
-56.0086 150.614 0.
221.448 328.282 0.
116.871 202.368 0.
73.0473 100.872 0.
76.9387 -0.724691 0.
1.7077 -174.178 0.
-73.5227 -347.632 0.
-34.4882 -411.545 0.
-38.0733 -424.036 0.
-41.6578 -436.527 0.
-1.20754 -329.823 0.
69.3846 -164.391 0.
139.976 1.04033 0.
-165.122 -240.598 0.
-239.548 -415.978 0.
-105.227 -501.27 0.
-162.938 -631.903 0.
-220.65 -762.535 0.
-221.081 -751.777 0.
-100.498 -462.08 0.
20.083 -172.384 0.
-284.783 -191.72 0.
-278.935 -174.673 0.
-273.087 -157.626 0.
151.225 -103.366 0.
59.9482 -316.482 0.
435.634 -329.835 0.
-172.141 -489.196 0.
-118.107 -365.895 0.
-425.466 -373.531 0.
-308.856 -103.038 0.
-192.246 167.456 0.
-390.313 164.701 0.
-441.439 43.6007 0.
-492.565 -77.5 0.
172.488 107.472 0.
120.166 -17.8867 0.
67.8444 -143.246 0.
-136.545 -371.609 0.
-211.214 -551.472 0.
-22.2387 -582.465 0.
53.655 -407.105 0.
129.549 -231.745 0.
-327.167 -316.93 0.
-304.884 -269.933 0.
-282.601 -222.936 0.
28.7132 -2.26339 0.
101.884 164.18 0.
175.056 330.624 0.
244.511 251.704 0.
149.218 31.6262 0.
-1050.86 -661.991 0.
152.598 -90.0194 0.
180.624 -20.4454 0.
283.066 36.0921 0.
209.745 -129.787 0.
136.426 -295.666 0.
10.0511 -355.445 0.
92.6338 -166.329 0.
175.217 22.7872 0.
-76.755 -126.273 0.
-146.724 -292.215 0.
-216.694 -458.157 0.
88.2984 -268.152 0.
132.845 -165.756 0.
-601.137 -396.806 0.
-560.444 -303.063 0.
-519.749 -209.319 0.
227.002 113.921 0.
158.881 -44.7192 0.
90.7582 -203.358 0.
-134.464 -300.336 0.
-81.8624 -176.04 0.
-29.2602 -51.7458 0.
-233.311 -27.458 0.
-168.186 123.145 0.
-919.019 -865.91 0.
223.57 -360.817 0.
468.783 213.906 0.
256.222 1074.22 0.
-185.197 55.2622 0.
81.264 687.962 0.
356.877 548.3 0.
-36.8311 -362.162 0.
99.3465 -37.0284 0.
-93.5219 -78.2345 0.
-218.533 -370.113 0.
-179.941 -280.46 0.
145.822 444.967 0.
108.58 360.018 0.
-922.083 -1262.94 0.
-464.389 -195.592 0.
-800.658 -979.575 0.
-221.539 -914.085 0.
-148.226 -739.545 0.
-4.10031 -401.628 0.
330.733 305.881 0.
74.8249 -291.421 0.
-69.2454 -628.876 0.
250.42 560.265 0.
189.356 420.314 0.
-581.582 -29.1996 0.
-182.336 -67.6059 0.
-184.304 -64.0619 0.
174.588 -140.143 0.
743.771 1191.51 0.
107.089 -288.833 0.
-318.469 -594.227 0.
235.181 703.609 0.
-534.042 -1085.1 0.
-152.314 -386.144 0.
-18.4514 -69.6958 0.
467.024 1066.95 0.
-208.148 2.00973 0.
-428.932 -516.117 0.
-438.107 -1293.56 0.
-153.398 -629.096 0.
22.7195 -217.589 0.
233.612 312.579 0.
348.003 579.107 0.
31.7463 -158.964 0.
-488.789 -407.885 0.
-496.107 -415.429 0.
-418.789 -225.191 0.
250.172 -69.3401 0.
285.425 7.37046 0.
-2109.15 -496.807 0.
-157.701 -550.985 0.
66.5483 -31.8725 0.
-657.655 -91.1528 0.
-703.261 -199.579 0.
-776.216 -372.246 0.
-529.804 -198.416 0.
47.3805 1153.15 0.
-10.2621 1023.78 0.
106.212 -180.642 0.
112.293 -160.963 0.
478.469 699.193 0.
-332.112 -633.052 0.
-92.3677 -66.1104 0.
291.897 452.454 0.
12.3342 -199.13 0.
59.7252 -87.8071 0.
209.954 523.77 0.
-49.3592 -81.7196 0.
152.655 388.41 0.
-47.3662 -189.875 0.
-490.203 -1225.93 0.
-46.4562 -192.11 0.
37.0486 54.0583 0.
323.462 723.459 0.
98.8152 -482.22 0.
429.773 354.365 0.
150.414 -286.741 0.
59.4458 -687.175 0.
562.781 493.445 0.
-153.53 -1170.68 0.
-36.8228 -389.808 0.
497.597 857.572 0.
278.131 346.962 0.
-557.029 -846.898 0.
-535.831 -802.817 0.
-60.2085 304.342 0.
304.686 188.739 0.
290.349 153.918 0.
-490.139 101.971 0.
-610.09 -175.832 0.
-899.891 -850.558 0.
-96.5164 -1053.95 0.
528.054 401.304 0.
174.933 -424.755 0.
-390.096 -635.802 0.
-251.363 -314.241 0.
-113.906 5.94396 0.
70.6119 397.229 0.
-279.469 -420.204 0.
112.283 -225.865 0.
168.977 9.21905 0.
214.01 115.547 0.
-18.9659 75.912 0.
-58.4598 -13.4995 0.
-97.9542 -102.911 0.
30.2425 -66.048 0.
57.0839 -2.56474 0.
83.9216 60.9201 0.
-283.894 -77.5884 0.
-287.024 -82.0937 0.
-290.155 -86.6007 0.
-69.5736 -71.5869 0.
-123.933 -190.03 0.
-568.262 -445.969 0.
-487.544 -256.581 0.
-406.825 -67.194 0.
312.396 304.031 0.
250.932 165.488 0.
189.468 26.9455 0.
-167.347 -159.372 0.
-155.269 -138.309 0.
-143.192 -117.248 0.
165.553 -64.1789 0.
112.404 -187.155 0.
654.757 -54.0497 0.
-275.116 -453.386 0.
-278.787 -459.006 0.
-108.579 -336.505 0.
10.5499 -57.7469 0.
129.68 221.012 0.
57.7935 278.616 0.
2.43305 160.844 0.
-52.9259 43.0718 0.
-147.461 -43.2427 0.
-154.374 -57.8373 0.
-161.287 -72.4315 0.
326.625 134.141 0.
317.191 114.651 0.
-403.277 -214.356 0.
-406.125 -225.996 0.
-408.973 -237.637 0.
-87.8002 -75.7634 0.
-33.2963 41.8714 0.
21.2082 159.507 0.
-42.8657 237.121 0.
11.8608 362.715 0.
66.5893 488.312 0.
239.069 448.082 0.
143.886 222.819 0.
-794.74 -362.723 0.
-340.909 -268.018 0.
-393.705 -391.636 0.
-616.944 -499.532 0.
-470.817 -158.371 0.
-324.691 182.791 0.
-284.914 313.163 0.
-333.822 205.167 0.
-382.729 97.1709 0.
357.018 147.904 0.
164.333 -297.761 0.
-28.3534 -743.427 0.
-410.615 -718.037 0.
-276.804 -402.868 0.
-41.002 -72.1032 0.
-20.942 -28.39 0.
-0.881237 15.3214 0.
-16.5488 36.514 0.
-6.70379 60.5319 0.
3.14271 84.5489 0.
74.9075 88.0136 0.
40.6367 8.26013 0.
6.36715 -71.4941 0.
-99.7654 -56.2929 0.
-50.2089 63.6388 0.
76.4651 223.178 0.
480.102 256.089 0.
407.326 84.0762 0.
195.513 -119.348 0.
192.555 -126.577 0.
189.597 -133.805 0.
50.0443 -166.927 0.
89.6443 -67.6939 0.
129.244 31.5401 0.
155.774 66.6879 0.
150.658 55.6608 0.
145.542 44.6342 0.
-218.94 -34.8821 0.
-169.562 80.2568 0.
-367.76 58.5403 0.
-456.825 -146.534 0.
-545.89 -351.608 0.
88.4124 -187.052 0.
99.5819 -166.32 0.
110.75 -145.589 0.
-259.366 -240.984 0.
-204.203 -111.44 0.
-149.039 18.1044 0.
79.2303 76.2565 0.
33.7771 -27.7829 0.
-894.545 -624.037 0.
-73.0189 -63.3954 0.
-27.2104 42.4304 0.
185.371 194.537 0.
147.426 105.227 0.
109.48 15.9157 0.
-19.598 -52.7383 0.
10.1591 10.214 0.
39.9128 73.1679 0.
-508.02 -143.262 0.
-511.07 -146.934 0.
-514.12 -150.608 0.
-41.8806 -30.239 0.
-97.3579 -147.586 0.
-550.935 -407.48 0.
-470.057 -218.2 0.
-389.179 -28.9207 0.
338.168 343.905 0.
276.439 206.005 0.
214.71 68.1046 0.
-518.748 -276.593 0.
-504.793 -255.596 0.
-490.837 -234.598 0.
408.409 71.2768 0.
355.601 -51.4289 0.
-309.773 -436.751 0.
-166.12 -376.569 0.
-170.481 -381.561 0.
-334.853 -403.437 0.
-217.504 -124.122 0.
-100.153 155.193 0.
72.3102 313.347 0.
15.7643 196.027 0.
-40.7799 78.7077 0.
-301.763 -78.3055 0.
-308.632 -93.8774 0.
-315.502 -109.449 0.
932.356 428.427 0.
925.062 406.73 0.
-911.599 -400.932 0.
-914.249 -412.2 0.
-916.898 -423.469 0.
-261.269 -119.158 0.
-207.433 -1.02812 0.
-153.595 117.102 0.
192.767 368.801 0.
247.997 494.907 0.
303.228 621.015 0.
-28.2791 369.704 0.
-121.67 143.191 0.
-401.208 -160.653 0.
-698.032 -389.789 0.
-750.228 -513.528 0.
-328.901 -345.728 0.
-182.22 -4.18606 0.
-35.5402 337.355 0.
-230.232 370.216 0.
-277.685 261.35 0.
-325.136 152.483 0.
511.624 246.89 0.
318.582 -198.087 0.
125.54 -643.064 0.
-443.319 -702.471 0.
-308.423 -387.64 0.
-146.88 -84.008 0.
-125.909 -41.2452 0.
-104.937 1.51584 0.
-31.9388 64.625 0.
-20.9947 87.8362 0.
-10.0492 111.046 0.
104.739 134.806 0.
70.5627 54.9895 0.
36.3871 -24.8273 0.
-199.239 -69.5929 0.
-150.881 51.1158 0.
561.74 461.315 0.
608.393 341.481 0.
534.735 169.886 0.
89.7304 -134.079 0.
86.7556 -141.049 0.
83.7806 -148.02 0.
52.6345 -136.08 0.
92.1826 -35.8833 0.
131.73 64.3141 0.
563.597 272.419 0.
558.168 261.934 0.
552.738 251.449 0.
-724.964 -220.971 0.
-675.769 -106.174 0.
-183.116 169.632 0.
-271.729 -35.5224 0.
-360.341 -240.677 0.
-122.198 -246.031 0.
-110.684 -225.861 0.
-99.1705 -205.69 0.
-293.944 -223.003 0.
-238.435 -93.1707 0.
-182.925 36.6619 0.
277.432 189.867 0.
231.631 87.4404 0.
