# vtk DataFile Version 2.0
test grain
ASCII
DATASET UNSTRUCTURED_GRID
POINTS 5000 float
0.499944 0.00100045 0.
0.501944 0.00100036 0.
0.503945 0.00100021 0.
0.505946 0.00100008 0.
0.507948 0.00100009 0.
0.509949 0.00100009 0.
0.51195 0.00100008 0.
0.513952 0.00100005 0.
0.515953 0.00100001 0.
0.517954 0.001 0.
0.519955 0.001 0.
0.521957 0.00100001 0.
0.523958 0.001 0.
0.52596 0.001 0.
0.527961 0.00100001 0.
0.529961 0.00100006 0.
0.531962 0.00100011 0.
0.533962 0.00100013 0.
0.535963 0.00100008 0.
0.537964 0.00100002 0.
0.539965 0.000999997 0.
0.541966 0.00100001 0.
0.543968 0.00100001 0.
0.545968 0.00100012 0.
0.547969 0.00100026 0.
0.54997 0.00100039 0.
0.551969 0.00100057 0.
0.553969 0.00100074 0.
0.555968 0.00100082 0.
0.557968 0.00100056 0.
0.559967 0.0010003 0.
0.561967 0.00100018 0.
0.563968 0.00100024 0.
0.565968 0.0010003 0.
0.567968 0.00100024 0.
0.569967 0.00100013 0.
0.571966 0.00100001 0.
0.573965 0.00100002 0.
0.575963 0.00100004 0.
0.577962 0.00100012 0.
0.57996 0.0010007 0.
0.581958 0.00100128 0.
0.583955 0.00100175 0.
0.58595 0.00100201 0.
0.587945 0.00100227 0.
0.589939 0.00100189 0.
0.591932 0.00100095 0.
0.593925 0.00100002 0.
0.595944 0.00100091 0.
0.597972 0.0010024 0.
0.6 0.00100388 0.
0.602029 0.00100242 0.
0.604057 0.00100097 0.
0.606077 0.00100001 0.
0.60807 0.0010006 0.
0.610062 0.0010012 0.
0.612056 0.00100152 0.
0.614052 0.00100152 0.
0.616047 0.00100151 0.
0.618044 0.00100152 0.
0.620041 0.00100154 0.
0.622038 0.00100155 0.
0.624035 0.00100135 0.
0.626032 0.00100113 0.
0.62803 0.00100089 0.
0.63003 0.00100054 0.
0.63203 0.0010002 0.
0.63403 0.000999998 0.
0.636031 0.00100007 0.
0.638031 0.00100015 0.
0.640031 0.00100018 0.
0.642032 0.00100018 0.
0.644032 0.00100018 0.
0.646031 0.00100048 0.
0.64803 0.00100085 0.
0.650028 0.0010012 0.
0.652029 0.00100076 0.
0.65403 0.00100032 0.
0.656031 0.000999997 0.
0.658032 0.000999997 0.
0.660033 0.000999996 0.
0.662035 0.001 0.
0.664037 0.00100001 0.
0.666039 0.00100002 0.
0.66804 0.00100013 0.
0.670041 0.00100029 0.
0.672042 0.00100044 0.
0.674043 0.00100029 0.
0.676043 0.00100013 0.
0.678043 0.001 0.
0.680044 0.00100014 0.
0.682045 0.00100028 0.
0.684046 0.00100032 0.
0.686047 0.00100016 0.
0.688048 0.00100001 0.
0.690049 0.00100003 0.
0.69205 0.00100019 0.
0.694051 0.00100034 0.
0.696052 0.00100025 0.
0.698052 0.0010001 0.
0.499945 0.00300137 0.
0.501945 0.00300106 0.
0.503946 0.00300061 0.
0.505947 0.00300026 0.
0.507948 0.00300026 0.
0.509949 0.00300027 0.
0.51195 0.00300024 0.
0.513952 0.00300014 0.
0.515953 0.00300004 0.
0.517955 0.003 0.
0.519956 0.00300001 0.
0.521958 0.00300002 0.
0.523958 0.00300001 0.
0.525959 0.003 0.
0.52796 0.00300002 0.
0.529961 0.00300018 0.
0.531961 0.00300034 0.
0.533962 0.0030004 0.
0.535963 0.00300023 0.
0.537964 0.00300006 0.
0.539965 0.00299999 0.
0.541967 0.00300002 0.
0.543969 0.00300004 0.
0.54597 0.00300036 0.
0.54797 0.00300077 0.
0.549971 0.00300118 0.
0.55197 0.0030017 0.
0.553969 0.00300222 0.
0.555968 0.00300246 0.
0.557968 0.00300168 0.
0.559967 0.00300089 0.
0.561967 0.00300053 0.
0.563967 0.00300072 0.
0.565967 0.0030009 0.
0.567967 0.00300073 0.
0.569967 0.00300037 0.
0.571967 0.00300002 0.
0.573966 0.00300005 0.
0.575965 0.00300012 0.
0.577964 0.00300036 0.
0.579962 0.0030021 0.
0.58196 0.00300383 0.
0.583957 0.00300526 0.
0.585953 0.00300604 0.
0.587948 0.00300683 0.
0.589944 0.00300566 0.
0.591939 0.00300285 0.
0.593935 0.00300004 0.
0.595952 0.00300275 0.
0.597976 0.00300719 0.
0.6 0.00301164 0.
0.602025 0.00300727 0.
0.604049 0.0030029 0.
0.606066 0.00300002 0.
0.608062 0.00300181 0.
0.610058 0.00300359 0.
0.612054 0.00300455 0.
0.61405 0.00300455 0.
0.616046 0.00300454 0.
0.618043 0.00300456 0.
0.62004 0.00300461 0.
0.622037 0.00300465 0.
0.624034 0.00300405 0.
0.626031 0.00300338 0.
0.628029 0.00300266 0.
0.630029 0.00300162 0.
0.632029 0.00300059 0.
0.634029 0.003 0.
0.63603 0.00300022 0.
0.638031 0.00300045 0.
0.640032 0.00300054 0.
0.642032 0.00300054 0.
0.644032 0.00300054 0.
0.646031 0.00300143 0.
0.64803 0.00300254 0.
0.650028 0.00300359 0.
0.652028 0.00300228 0.
0.654027 0.00300097 0.
0.656028 0.00299999 0.
0.658031 0.00299999 0.
0.660035 0.00299999 0.
0.662037 0.003 0.
0.664039 0.00300003 0.
0.666041 0.00300006 0.
0.668042 0.0030004 0.
0.670042 0.00300086 0.
0.672042 0.00300132 0.
0.674042 0.00300088 0.
0.676042 0.00300037 0.
0.678042 0.003 0.
0.680043 0.00300043 0.
0.682044 0.00300085 0.
0.684045 0.00300095 0.
0.686046 0.00300049 0.
0.688048 0.00300002 0.
0.690049 0.0030001 0.
0.69205 0.00300056 0.
0.694051 0.00300102 0.
0.696052 0.00300075 0.
0.698053 0.0030003 0.
0.499945 0.00500228 0.
0.501946 0.00500176 0.
0.503947 0.00500101 0.
0.505948 0.00500044 0.
0.507948 0.00500044 0.
0.509949 0.00500045 0.
0.51195 0.0050004 0.
0.513952 0.00500023 0.
0.515954 0.00500006 0.
0.517955 0.00499999 0.
0.519957 0.00500001 0.
0.521959 0.00500002 0.
0.523959 0.00500002 0.
0.525959 0.00500001 0.
0.527959 0.00500002 0.
0.52996 0.0050003 0.
0.531961 0.00500057 0.
0.533962 0.00500067 0.
0.535963 0.00500038 0.
0.537963 0.0050001 0.
0.539965 0.00499998 0.
0.541968 0.00500002 0.
0.543971 0.00500007 0.
0.545972 0.00500061 0.
0.547971 0.00500129 0.
0.549971 0.00500197 0.
0.55197 0.00500283 0.
0.553968 0.00500369 0.
0.555967 0.00500409 0.
0.557967 0.00500279 0.
0.559967 0.00500148 0.
0.561967 0.00500088 0.
0.563967 0.00500119 0.
0.565966 0.00500151 0.
0.567966 0.00500121 0.
0.569967 0.00500062 0.
0.571967 0.00500004 0.
0.573967 0.00500008 0.
0.575967 0.0050002 0.
0.577967 0.00500061 0.
0.579965 0.0050035 0.
0.581963 0.00500639 0.
0.58396 0.00500876 0.
0.585956 0.00501007 0.
0.587951 0.00501139 0.
0.589949 0.00500941 0.
0.591947 0.00500473 0.
0.593945 0.00500005 0.
0.59596 0.0050046 0.
0.59798 0.00501199 0.
0.6 0.00501938 0.
0.60202 0.00501211 0.
0.60404 0.00500485 0.
0.606055 0.00500003 0.
0.608054 0.005003 0.
0.610053 0.00500597 0.
0.612051 0.00500757 0.
0.614048 0.00500757 0.
0.616044 0.00500757 0.
0.618042 0.00500759 0.
0.620039 0.00500767 0.
0.622037 0.00500775 0.
0.624034 0.00500674 0.
0.626031 0.00500562 0.
0.628028 0.00500443 0.
0.630028 0.0050027 0.
0.632027 0.00500098 0.
0.634027 0.005 0.
0.636029 0.00500037 0.
0.638031 0.00500074 0.
0.640032 0.00500089 0.
0.642033 0.00500089 0.
0.644033 0.0050009 0.
0.646031 0.00500237 0.
0.64803 0.00500422 0.
0.650028 0.00500599 0.
0.652026 0.00500381 0.
0.654025 0.00500162 0.
0.656025 0.00499998 0.
0.65803 0.00499998 0.
0.660036 0.00499998 0.
0.662039 0.00500001 0.
0.664041 0.00500006 0.
0.666043 0.00500011 0.
0.668043 0.00500065 0.
0.670043 0.00500142 0.
0.672042 0.0050022 0.
0.674042 0.00500146 0.
0.676041 0.00500062 0.
0.678041 0.00500001 0.
0.680042 0.00500071 0.
0.682043 0.00500141 0.
0.684045 0.00500159 0.
0.686046 0.00500081 0.
0.688047 0.00500003 0.
0.690049 0.00500018 0.
0.69205 0.00500094 0.
0.694051 0.0050017 0.
0.696052 0.00500125 0.
0.698054 0.00500049 0.
0.499947 0.00700384 0.
0.501948 0.0070033 0.
0.503948 0.00700266 0.
0.505949 0.00700219 0.
0.50795 0.00700234 0.
0.50995 0.0070025 0.
0.511952 0.00700273 0.
0.513953 0.00700301 0.
0.515955 0.00700329 0.
0.517956 0.00700353 0.
0.519958 0.00700378 0.
0.521959 0.00700403 0.
0.52396 0.00700428 0.
0.52596 0.00700453 0.
0.52796 0.00700475 0.
0.529961 0.00700469 0.
0.531963 0.00700464 0.
0.533963 0.00700493 0.
0.535964 0.00700592 0.
0.537964 0.00700692 0.
0.539966 0.00700716 0.
0.541968 0.00700675 0.
0.54397 0.00700635 0.
0.54597 0.0070064 0.
0.547971 0.00700659 0.
0.549971 0.00700678 0.
0.55197 0.00700716 0.
0.553969 0.00700755 0.
0.555969 0.00700783 0.
0.557969 0.00700777 0.
0.559969 0.0070077 0.
0.561969 0.00700766 0.
0.563969 0.00700765 0.
0.565969 0.00700765 0.
0.567969 0.00700833 0.
0.569969 0.0070094 0.
0.571969 0.00701048 0.
0.573969 0.00701088 0.
0.575968 0.00701118 0.
0.577967 0.00701153 0.
0.579966 0.00701234 0.
0.581964 0.00701315 0.
0.583962 0.00701387 0.
0.58596 0.00701442 0.
0.587958 0.00701498 0.
0.589957 0.00701291 0.
0.591957 0.00700866 0.
0.593957 0.00700441 0.
0.595969 0.00700978 0.
0.597985 0.00701805 0.
0.6 0.00702633 0.
0.602016 0.0070185 0.
0.604032 0.00701067 0.
0.606044 0.00700543 0.
0.608045 0.00700853 0.
0.610045 0.00701164 0.
0.612044 0.00701343 0.
0.614042 0.00701365 0.
0.61604 0.00701387 0.
0.618038 0.0070136 0.
0.620036 0.00701314 0.
0.622034 0.00701269 0.
0.624033 0.00701192 0.
0.626031 0.00701113 0.
0.628029 0.00701045 0.
0.630029 0.00701056 0.
0.632028 0.00701067 0.
0.634028 0.00701046 0.
0.636029 0.0070096 0.
0.63803 0.00700874 0.
0.64003 0.00700823 0.
0.64203 0.007008 0.
0.64403 0.00700778 0.
0.64603 0.00700811 0.
0.648029 0.0070086 0.
0.650029 0.00700909 0.
0.652028 0.00700895 0.
0.654028 0.00700881 0.
0.656029 0.00700887 0.
0.658032 0.00700953 0.
0.660035 0.00701018 0.
0.662037 0.00700994 0.
0.664038 0.00700868 0.
0.666039 0.00700742 0.
0.66804 0.00700659 0.
0.67004 0.00700596 0.
0.67204 0.00700534 0.
0.67404 0.00700474 0.
0.676041 0.00700416 0.
0.678041 0.00700366 0.
0.680042 0.00700366 0.
0.682043 0.00700367 0.
0.684044 0.00700354 0.
0.686046 0.00700312 0.
0.688047 0.0070027 0.
0.690048 0.0070026 0.
0.69205 0.00700271 0.
0.694051 0.00700281 0.
0.696052 0.00700325 0.
0.698053 0.00700377 0.
0.499949 0.00900528 0.
0.50195 0.00900484 0.
0.503949 0.00900431 0.
0.50595 0.00900394 0.
0.507951 0.00900424 0.
0.509952 0.00900455 0.
0.511953 0.00900505 0.
0.513955 0.00900578 0.
0.515956 0.00900651 0.
0.517957 0.00900707 0.
0.519958 0.00900755 0.
0.521959 0.00900803 0.
0.52396 0.00900855 0.
0.525961 0.00900906 0.
0.527962 0.00900947 0.
0.529963 0.00900909 0.
0.531964 0.00900872 0.
0.533965 0.00900919 0.
0.535965 0.00901146 0.
0.537966 0.00901374 0.
0.539966 0.00901434 0.
0.541967 0.00901349 0.
0.543968 0.00901264 0.
0.545969 0.0090122 0.
0.54797 0.0090119 0.
0.549971 0.00901159 0.
0.551971 0.0090115 0.
0.553971 0.00901141 0.
0.55597 0.00901157 0.
0.557971 0.00901275 0.
0.559971 0.00901391 0.
0.561971 0.00901443 0.
0.563971 0.00901411 0.
0.565972 0.00901379 0.
0.567972 0.00901544 0.
0.569971 0.00901818 0.
0.571971 0.00902092 0.
0.57397 0.00902169 0.
0.575969 0.00902217 0.
0.577968 0.00902246 0.
0.579966 0.00902119 0.
0.581965 0.00901992 0.
0.583964 0.00901899 0.
0.585964 0.00901878 0.
0.587965 0.00901858 0.
0.589966 0.00901639 0.
0.591967 0.00901257 0.
0.593969 0.00900876 0.
0.595978 0.00901496 0.
0.597989 0.00902412 0.
0.6 0.00903329 0.
0.602012 0.00902489 0.
0.604024 0.00901649 0.
0.606034 0.00901082 0.
0.608035 0.00901407 0.
0.610036 0.0090173 0.
0.612036 0.00901928 0.
0.614036 0.00901973 0.
0.616035 0.00902017 0.
0.618034 0.00901961 0.
0.620033 0.00901861 0.
0.622032 0.00901762 0.
0.624031 0.00901711 0.
0.626031 0.00901664 0.
0.62803 0.00901647 0.
0.63003 0.00901842 0.
0.632029 0.00902037 0.
0.634028 0.00902093 0.
0.636028 0.00901883 0.
0.638028 0.00901674 0.
0.640028 0.00901558 0.
0.642028 0.00901512 0.
0.644028 0.00901465 0.
0.646029 0.00901386 0.
0.648029 0.009013 0.
0.65003 0.00901217 0.
0.65203 0.00901408 0.
0.654031 0.00901599 0.
0.656032 0.00901777 0.
0.658033 0.00901908 0.
0.660034 0.00902038 0.
0.662034 0.00901989 0.
0.664035 0.00901731 0.
0.666035 0.00901473 0.
0.668036 0.00901252 0.
0.670037 0.00901049 0.
0.672038 0.00900847 0.
0.674039 0.00900802 0.
0.67604 0.0090077 0.
0.678041 0.00900731 0.
0.680042 0.00900661 0.
0.682043 0.00900592 0.
0.684044 0.00900549 0.
0.686045 0.00900543 0.
0.688046 0.00900538 0.
0.690048 0.00900503 0.
0.692049 0.00900447 0.
0.694051 0.00900392 0.
0.696052 0.00900525 0.
0.698053 0.00900705 0.
0.49995 0.0110064 0.
0.50195 0.0110059 0.
0.503951 0.0110054 0.
0.505951 0.011005 0.
0.507952 0.0110053 0.
0.509953 0.0110056 0.
0.511954 0.0110061 0.
0.513955 0.0110069 0.
0.515957 0.0110077 0.
0.517958 0.0110084 0.
0.519959 0.011009 0.
0.52196 0.0110097 0.
0.523961 0.0110103 0.
0.525962 0.0110109 0.
0.527963 0.0110114 0.
0.529964 0.0110111 0.
0.531965 0.0110107 0.
0.533965 0.0110113 0.
0.535966 0.0110137 0.
0.537967 0.0110162 0.
0.539967 0.0110169 0.
0.541968 0.0110162 0.
0.543969 0.0110155 0.
0.545969 0.0110149 0.
0.54797 0.0110143 0.
0.549971 0.0110137 0.
0.551971 0.0110136 0.
0.553972 0.0110135 0.
0.555972 0.0110138 0.
0.557972 0.0110153 0.
0.559972 0.0110168 0.
0.561973 0.0110176 0.
0.563973 0.0110174 0.
0.565974 0.0110172 0.
0.567973 0.0110191 0.
0.569973 0.0110221 0.
0.571972 0.0110251 0.
0.573972 0.0110261 0.
0.575971 0.0110268 0.
0.577971 0.0110273 0.
0.57997 0.0110252 0.
0.581969 0.0110232 0.
0.583969 0.0110215 0.
0.58597 0.0110206 0.
0.587971 0.0110198 0.
0.589973 0.0110177 0.
0.591975 0.0110147 0.
0.593977 0.0110117 0.
0.595984 0.0110171 0.
0.597992 0.0110249 0.
0.600001 0.0110327 0.
0.602009 0.0110256 0.
0.604018 0.0110185 0.
0.606025 0.0110137 0.
0.608027 0.0110165 0.
0.610028 0.0110194 0.
0.61203 0.0110214 0.
0.61403 0.0110224 0.
0.61603 0.0110233 0.
0.61803 0.0110228 0.
0.620029 0.0110216 0.
0.622029 0.0110205 0.
0.624029 0.0110199 0.
0.626029 0.0110194 0.
0.628029 0.0110193 0.
0.630028 0.011022 0.
0.632028 0.0110246 0.
0.634028 0.0110255 0.
0.636027 0.011023 0.
0.638027 0.0110206 0.
0.640027 0.0110191 0.
0.642027 0.0110184 0.
0.644027 0.0110177 0.
0.646028 0.0110165 0.
0.648029 0.0110151 0.
0.650029 0.0110137 0.
0.652031 0.0110164 0.
0.654032 0.011019 0.
0.656033 0.0110214 0.
0.658033 0.0110228 0.
0.660033 0.0110242 0.
0.662033 0.0110236 0.
0.664034 0.0110207 0.
0.666034 0.0110178 0.
0.668035 0.0110152 0.
0.670036 0.0110128 0.
0.672037 0.0110103 0.
0.674039 0.0110098 0.
0.67604 0.0110093 0.
0.678041 0.0110088 0.
0.680042 0.011008 0.
0.682043 0.0110073 0.
0.684044 0.0110068 0.
0.686045 0.0110068 0.
0.688046 0.0110067 0.
0.690047 0.0110063 0.
0.692049 0.0110056 0.
0.69405 0.0110048 0.
0.696051 0.0110065 0.
0.698052 0.0110089 0.
0.49995 0.0130071 0.
0.501951 0.0130066 0.
0.503951 0.013006 0.
0.505952 0.0130055 0.
0.507953 0.0130056 0.
0.509954 0.0130057 0.
0.511955 0.0130059 0.
0.513956 0.0130064 0.
0.515957 0.0130069 0.
0.517958 0.0130075 0.
0.519959 0.0130082 0.
0.52196 0.013009 0.
0.523961 0.0130095 0.
0.525962 0.0130101 0.
0.527964 0.0130106 0.
0.529964 0.0130106 0.
0.531965 0.0130106 0.
0.533966 0.0130111 0.
0.535967 0.0130127 0.
0.537968 0.0130143 0.
0.539968 0.013015 0.
0.541969 0.013015 0.
0.54397 0.013015 0.
0.54597 0.0130145 0.
0.547971 0.0130137 0.
0.549972 0.013013 0.
0.551973 0.0130134 0.
0.553973 0.0130138 0.
0.555974 0.0130144 0.
0.557974 0.0130155 0.
0.559974 0.0130165 0.
0.561974 0.0130173 0.
0.563974 0.0130175 0.
0.565975 0.0130178 0.
0.567974 0.0130192 0.
0.569974 0.0130212 0.
0.571974 0.0130231 0.
0.573975 0.0130243 0.
0.575975 0.0130253 0.
0.577976 0.0130261 0.
0.579975 0.0130245 0.
0.581975 0.0130229 0.
0.583975 0.0130214 0.
0.585977 0.01302 0.
0.587978 0.0130186 0.
0.589979 0.0130169 0.
0.591981 0.013015 0.
0.593983 0.0130131 0.
0.595988 0.0130161 0.
0.597994 0.0130205 0.
0.6 0.0130248 0.
0.602007 0.0130208 0.
0.604013 0.0130167 0.
0.606019 0.013014 0.
0.60802 0.013016 0.
0.610022 0.0130179 0.
0.612023 0.0130198 0.
0.614024 0.0130215 0.
0.616025 0.0130233 0.
0.618025 0.0130232 0.
0.620025 0.0130222 0.
0.622025 0.0130212 0.
0.624025 0.0130204 0.
0.626025 0.0130195 0.
0.628025 0.0130191 0.
0.630025 0.0130213 0.
0.632025 0.0130234 0.
0.634025 0.0130242 0.
0.636026 0.0130222 0.
0.638026 0.0130203 0.
0.640027 0.0130189 0.
0.642027 0.013018 0.
0.644027 0.0130171 0.
0.646027 0.013016 0.
0.648028 0.0130149 0.
0.650029 0.0130138 0.
0.652029 0.0130159 0.
0.65403 0.0130179 0.
0.656031 0.0130198 0.
0.658032 0.0130208 0.
0.660033 0.0130219 0.
0.662034 0.0130213 0.
0.664035 0.0130189 0.
0.666036 0.0130166 0.
0.668036 0.0130146 0.
0.670037 0.0130128 0.
0.672038 0.0130109 0.
0.674039 0.0130099 0.
0.67604 0.013009 0.
0.67804 0.0130081 0.
0.680042 0.0130079 0.
0.682043 0.0130077 0.
0.684044 0.0130075 0.
0.686045 0.0130071 0.
0.688046 0.0130068 0.
0.690047 0.0130064 0.
0.692048 0.013006 0.
0.694049 0.0130056 0.
0.696049 0.0130071 0.
0.69805 0.0130092 0.
0.49995 0.0150079 0.
0.501951 0.0150073 0.
0.503952 0.0150065 0.
0.505953 0.0150059 0.
0.507954 0.0150058 0.
0.509955 0.0150057 0.
0.511955 0.0150058 0.
0.513956 0.0150059 0.
0.515957 0.0150061 0.
0.517958 0.0150067 0.
0.519959 0.0150074 0.
0.521961 0.0150082 0.
0.523962 0.0150088 0.
0.525963 0.0150093 0.
0.527964 0.0150098 0.
0.529965 0.0150102 0.
0.531966 0.0150106 0.
0.533967 0.015011 0.
0.535968 0.0150117 0.
0.537969 0.0150124 0.
0.53997 0.0150131 0.
0.54197 0.0150138 0.
0.543971 0.0150145 0.
0.545972 0.015014 0.
0.547972 0.0150132 0.
0.549973 0.0150123 0.
0.551974 0.0150132 0.
0.553975 0.0150142 0.
0.555975 0.015015 0.
0.557975 0.0150156 0.
0.559975 0.0150162 0.
0.561975 0.0150169 0.
0.563975 0.0150177 0.
0.565975 0.0150185 0.
0.567976 0.0150193 0.
0.569976 0.0150202 0.
0.571976 0.0150211 0.
0.573977 0.0150224 0.
0.575979 0.0150237 0.
0.57798 0.0150249 0.
0.579981 0.0150237 0.
0.581981 0.0150226 0.
0.583982 0.0150213 0.
0.585983 0.0150193 0.
0.587984 0.0150174 0.
0.589985 0.0150161 0.
0.591987 0.0150153 0.
0.593989 0.0150146 0.
0.595993 0.0150151 0.
0.597997 0.0150161 0.
0.6 0.015017 0.
0.602005 0.015016 0.
0.604009 0.0150149 0.
0.606012 0.0150143 0.
0.608014 0.0150154 0.
0.610015 0.0150165 0.
0.612017 0.0150182 0.
0.614018 0.0150207 0.
0.61602 0.0150233 0.
0.618021 0.0150236 0.
0.620021 0.0150228 0.
0.622022 0.0150219 0.
0.624021 0.0150208 0.
0.626021 0.0150196 0.
0.628021 0.0150189 0.
0.630022 0.0150206 0.
0.632022 0.0150223 0.
0.634023 0.0150229 0.
0.636025 0.0150214 0.
0.638026 0.01502 0.
0.640027 0.0150187 0.
0.642026 0.0150175 0.
0.644026 0.0150164 0.
0.646027 0.0150155 0.
0.648027 0.0150146 0.
0.650028 0.0150138 0.
0.652028 0.0150153 0.
0.654029 0.0150169 0.
0.65603 0.0150182 0.
0.658031 0.0150188 0.
0.660032 0.0150195 0.
0.662034 0.015019 0.
0.664035 0.0150172 0.
0.666037 0.0150154 0.
0.668038 0.015014 0.
0.670038 0.0150128 0.
0.672038 0.0150115 0.
0.674039 0.0150101 0.
0.676039 0.0150086 0.
0.67804 0.0150074 0.
0.680041 0.0150078 0.
0.682042 0.0150081 0.
0.684043 0.0150081 0.
0.686044 0.0150075 0.
0.688045 0.0150069 0.
0.690046 0.0150066 0.
0.692047 0.0150064 0.
0.694047 0.0150063 0.
0.696048 0.0150077 0.
0.698048 0.0150095 0.
0.499951 0.0170079 0.
0.501952 0.0170076 0.
0.503953 0.0170073 0.
0.505953 0.0170069 0.
0.507954 0.0170068 0.
0.509955 0.0170066 0.
0.511956 0.0170065 0.
0.513956 0.0170065 0.
0.515957 0.0170066 0.
0.517959 0.0170069 0.
0.51996 0.0170074 0.
0.521961 0.0170079 0.
0.523962 0.0170086 0.
0.525964 0.0170091 0.
0.527965 0.0170097 0.
0.529966 0.0170104 0.
0.531966 0.0170111 0.
0.533967 0.0170117 0.
0.535968 0.017012 0.
0.537969 0.0170124 0.
0.53997 0.0170128 0.
0.541971 0.0170132 0.
0.543972 0.0170136 0.
0.545973 0.0170135 0.
0.547974 0.0170134 0.
0.549974 0.0170132 0.
0.551975 0.0170139 0.
0.553975 0.0170146 0.
0.555975 0.0170153 0.
0.557975 0.017016 0.
0.559975 0.0170166 0.
0.561976 0.0170172 0.
0.563976 0.0170179 0.
0.565977 0.0170186 0.
0.567977 0.0170195 0.
0.569978 0.0170205 0.
0.571978 0.0170214 0.
0.573979 0.0170225 0.
0.57598 0.0170237 0.
0.577981 0.0170246 0.
0.579982 0.0170235 0.
0.581983 0.0170224 0.
0.583984 0.0170211 0.
0.585985 0.0170195 0.
0.587986 0.0170178 0.
0.589987 0.0170167 0.
0.591989 0.0170159 0.
0.593991 0.0170152 0.
0.595994 0.0170154 0.
0.597997 0.0170158 0.
0.6 0.0170162 0.
0.602004 0.0170157 0.
0.604007 0.0170151 0.
0.60601 0.0170149 0.
0.608012 0.0170158 0.
0.610013 0.0170167 0.
0.612015 0.0170181 0.
0.614016 0.0170202 0.
0.616018 0.0170222 0.
0.618018 0.0170226 0.
0.620019 0.0170222 0.
0.62202 0.0170218 0.
0.62402 0.017021 0.
0.62602 0.0170201 0.
0.62802 0.0170194 0.
0.630021 0.0170203 0.
0.632021 0.0170211 0.
0.634022 0.0170214 0.
0.636023 0.0170207 0.
0.638025 0.01702 0.
0.640025 0.0170191 0.
0.642026 0.0170181 0.
0.644026 0.0170171 0.
0.646026 0.0170163 0.
0.648027 0.0170155 0.
0.650027 0.0170148 0.
0.652028 0.0170158 0.
0.654028 0.0170169 0.
0.656029 0.0170177 0.
0.65803 0.017018 0.
0.660032 0.0170183 0.
0.662033 0.017018 0.
0.664035 0.0170168 0.
0.666036 0.0170157 0.
0.668037 0.0170146 0.
0.670038 0.0170135 0.
0.672038 0.0170124 0.
0.674039 0.0170108 0.
0.67604 0.0170091 0.
0.67804 0.0170077 0.
0.680041 0.0170079 0.
0.682042 0.017008 0.
0.684043 0.0170079 0.
0.686044 0.0170076 0.
0.688044 0.0170073 0.
0.690045 0.0170073 0.
0.692046 0.0170075 0.
0.694046 0.0170077 0.
0.696047 0.0170088 0.
0.698048 0.0170101 0.
0.499953 0.0190079 0.
0.501953 0.019008 0.
0.503954 0.019008 0.
0.505954 0.019008 0.
0.507955 0.0190078 0.
0.509955 0.0190075 0.
0.511956 0.0190073 0.
0.513957 0.0190072 0.
0.515958 0.019007 0.
0.517959 0.0190071 0.
0.519961 0.0190074 0.
0.521962 0.0190077 0.
0.523963 0.0190083 0.
0.525964 0.019009 0.
0.527966 0.0190097 0.
0.529966 0.0190107 0.
0.531967 0.0190116 0.
0.533968 0.0190123 0.
0.535968 0.0190124 0.
0.537969 0.0190124 0.
0.53997 0.0190125 0.
0.541972 0.0190126 0.
0.543974 0.0190126 0.
0.545974 0.019013 0.
0.547975 0.0190135 0.
0.549976 0.019014 0.
0.551976 0.0190146 0.
0.553975 0.0190151 0.
0.555975 0.0190157 0.
0.557975 0.0190163 0.
0.559975 0.0190169 0.
0.561976 0.0190175 0.
0.563977 0.0190182 0.
0.565978 0.0190188 0.
0.567979 0.0190197 0.
0.569979 0.0190207 0.
0.57198 0.0190217 0.
0.573981 0.0190226 0.
0.575981 0.0190236 0.
0.577982 0.0190243 0.
0.579983 0.0190232 0.
0.581985 0.0190221 0.
0.583986 0.019021 0.
0.585987 0.0190196 0.
0.587988 0.0190182 0.
0.589989 0.0190172 0.
0.591991 0.0190165 0.
0.593992 0.0190159 0.
0.595995 0.0190156 0.
0.597998 0.0190155 0.
0.600001 0.0190153 0.
0.602003 0.0190153 0.
0.604006 0.0190154 0.
0.606009 0.0190155 0.
0.60801 0.0190163 0.
0.610011 0.019017 0.
0.612012 0.0190181 0.
0.614014 0.0190196 0.
0.616015 0.0190211 0.
0.618016 0.0190217 0.
0.620017 0.0190217 0.
0.622018 0.0190217 0.
0.624018 0.0190211 0.
0.626019 0.0190205 0.
0.628019 0.01902 0.
0.63002 0.01902 0.
0.63202 0.01902 0.
0.634021 0.01902 0.
0.636022 0.01902 0.
0.638024 0.0190201 0.
0.640024 0.0190196 0.
0.642025 0.0190187 0.
0.644026 0.0190178 0.
0.646026 0.0190171 0.
0.648026 0.0190164 0.
0.650026 0.0190158 0.
0.652027 0.0190163 0.
0.654027 0.0190169 0.
0.656028 0.0190173 0.
0.65803 0.0190172 0.
0.660031 0.0190171 0.
0.662033 0.0190169 0.
0.664034 0.0190164 0.
0.666035 0.019016 0.
0.668036 0.0190152 0.
0.670037 0.0190142 0.
0.672038 0.0190132 0.
0.674039 0.0190115 0.
0.67604 0.0190097 0.
0.678041 0.0190081 0.
0.680041 0.019008 0.
0.682042 0.0190079 0.
0.684043 0.0190078 0.
0.686043 0.0190078 0.
0.688044 0.0190078 0.
0.690044 0.0190081 0.
0.692045 0.0190086 0.
0.694045 0.0190092 0.
0.696046 0.0190099 0.
0.698047 0.0190106 0.
0.499954 0.0210085 0.
0.501954 0.0210086 0.
0.503955 0.0210086 0.
0.505955 0.0210085 0.
0.507956 0.0210082 0.
0.509956 0.0210078 0.
0.511957 0.0210075 0.
0.513958 0.0210073 0.
0.515959 0.0210071 0.
0.51796 0.021007 0.
0.519962 0.021007 0.
0.521963 0.021007 0.
0.523964 0.0210078 0.
0.525965 0.0210086 0.
0.527966 0.0210095 0.
0.529967 0.0210106 0.
0.531968 0.0210117 0.
0.533969 0.0210125 0.
0.535969 0.0210123 0.
0.53797 0.0210121 0.
0.539971 0.021012 0.
0.541973 0.0210119 0.
0.543975 0.0210117 0.
0.545976 0.0210124 0.
0.547976 0.0210133 0.
0.549976 0.0210141 0.
0.551976 0.0210146 0.
0.553976 0.0210151 0.
0.555976 0.0210156 0.
0.557976 0.0210162 0.
0.559976 0.0210169 0.
0.561977 0.0210175 0.
0.563978 0.021018 0.
0.56598 0.0210185 0.
0.56798 0.0210193 0.
0.569981 0.0210202 0.
0.571982 0.0210212 0.
0.573982 0.0210221 0.
0.575983 0.021023 0.
0.577984 0.0210237 0.
0.579985 0.0210226 0.
0.581986 0.0210214 0.
0.583987 0.0210203 0.
0.585988 0.0210192 0.
0.587989 0.0210182 0.
0.589991 0.0210173 0.
0.591992 0.0210167 0.
0.593994 0.0210161 0.
0.595996 0.0210157 0.
0.597998 0.0210155 0.
0.600001 0.0210152 0.
0.602003 0.0210155 0.
0.604005 0.0210157 0.
0.606007 0.021016 0.
0.608008 0.0210165 0.
0.610009 0.021017 0.
0.612011 0.0210178 0.
0.614012 0.0210189 0.
0.616013 0.0210201 0.
0.618014 0.0210207 0.
0.620015 0.0210211 0.
0.622016 0.0210215 0.
0.624017 0.021021 0.
0.626017 0.0210204 0.
0.628018 0.0210199 0.
0.630018 0.0210195 0.
0.632019 0.0210192 0.
0.63402 0.021019 0.
0.636021 0.0210192 0.
0.638022 0.0210194 0.
0.640023 0.0210192 0.
0.642024 0.0210188 0.
0.644025 0.0210183 0.
0.646025 0.0210176 0.
0.648025 0.0210168 0.
0.650026 0.021016 0.
0.652026 0.0210162 0.
0.654026 0.0210164 0.
0.656027 0.0210165 0.
0.658028 0.0210162 0.
0.66003 0.0210159 0.
0.662031 0.0210157 0.
0.664032 0.0210156 0.
0.666034 0.0210155 0.
0.668035 0.0210149 0.
0.670036 0.0210141 0.
0.672037 0.0210133 0.
0.674038 0.0210116 0.
0.676039 0.0210098 0.
0.67804 0.0210082 0.
0.68004 0.021008 0.
0.682041 0.0210078 0.
0.684042 0.0210077 0.
0.686042 0.0210079 0.
0.688043 0.021008 0.
0.690043 0.0210085 0.
0.692044 0.0210092 0.
0.694044 0.0210099 0.
0.696045 0.0210106 0.
0.698046 0.0210112 0.
0.499955 0.0230096 0.
0.501955 0.0230094 0.
0.503956 0.023009 0.
0.505956 0.0230085 0.
0.507957 0.023008 0.
0.509958 0.0230075 0.
0.511959 0.0230072 0.
0.51396 0.023007 0.
0.515961 0.0230069 0.
0.517962 0.0230066 0.
0.519963 0.0230063 0.
0.521964 0.023006 0.
0.523965 0.0230069 0.
0.525966 0.0230079 0.
0.527967 0.023009 0.
0.529968 0.0230102 0.
0.531969 0.0230114 0.
0.53397 0.0230122 0.
0.53597 0.0230118 0.
0.537971 0.0230114 0.
0.539973 0.0230112 0.
0.541974 0.0230111 0.
0.543976 0.0230109 0.
0.545976 0.0230116 0.
0.547976 0.0230126 0.
0.549976 0.0230135 0.
0.551976 0.0230141 0.
0.553976 0.0230146 0.
0.555976 0.0230151 0.
0.557977 0.0230158 0.
0.559978 0.0230164 0.
0.561979 0.023017 0.
0.56398 0.0230173 0.
0.565981 0.0230176 0.
0.567982 0.0230183 0.
0.569983 0.0230191 0.
0.571983 0.0230199 0.
0.573984 0.0230209 0.
0.575985 0.0230219 0.
0.577986 0.0230227 0.
0.579987 0.0230215 0.
0.581988 0.0230203 0.
0.583989 0.0230192 0.
0.58599 0.0230185 0.
0.587991 0.0230178 0.
0.589993 0.0230171 0.
0.591994 0.0230164 0.
0.593995 0.0230158 0.
0.595997 0.0230157 0.
0.597999 0.0230158 0.
0.600001 0.0230159 0.
0.602003 0.0230161 0.
0.604005 0.0230163 0.
0.606007 0.0230165 0.
0.608007 0.0230166 0.
0.610008 0.0230167 0.
0.612009 0.0230172 0.
0.61401 0.0230182 0.
0.616011 0.0230191 0.
0.618012 0.0230199 0.
0.620013 0.0230206 0.
0.622014 0.0230212 0.
0.624015 0.0230206 0.
0.626016 0.0230198 0.
0.628016 0.0230191 0.
0.630017 0.0230189 0.
0.632018 0.0230187 0.
0.634018 0.0230186 0.
0.63602 0.0230183 0.
0.638021 0.0230181 0.
0.640022 0.0230181 0.
0.642023 0.0230184 0.
0.644023 0.0230187 0.
0.646024 0.0230179 0.
0.648024 0.0230167 0.
0.650024 0.0230156 0.
0.652024 0.0230156 0.
0.654025 0.0230156 0.
0.656025 0.0230155 0.
0.658026 0.023015 0.
0.660028 0.0230145 0.
0.662029 0.0230142 0.
0.66403 0.0230142 0.
0.666031 0.0230141 0.
0.668033 0.0230137 0.
0.670034 0.0230132 0.
0.672036 0.0230126 0.
0.674036 0.0230111 0.
0.676037 0.0230096 0.
0.678037 0.0230082 0.
0.680038 0.023008 0.
0.682039 0.0230079 0.
0.68404 0.0230078 0.
0.68604 0.0230079 0.
0.688041 0.023008 0.
0.690042 0.0230084 0.
0.692043 0.0230092 0.
0.694044 0.0230101 0.
0.696045 0.023011 0.
0.698046 0.0230119 0.
0.499955 0.0250107 0.
0.501956 0.0250103 0.
0.503957 0.0250094 0.
0.505958 0.0250086 0.
0.507959 0.0250079 0.
0.50996 0.0250072 0.
0.511961 0.0250068 0.
0.513962 0.0250067 0.
0.515963 0.0250066 0.
0.517964 0.0250062 0.
0.519965 0.0250055 0.
0.521966 0.0250049 0.
0.523967 0.025006 0.
0.525967 0.0250072 0.
0.527968 0.0250084 0.
0.529969 0.0250098 0.
0.53197 0.0250111 0.
0.533971 0.0250119 0.
0.535972 0.0250113 0.
0.537973 0.0250108 0.
0.539974 0.0250104 0.
0.541976 0.0250103 0.
0.543977 0.0250101 0.
0.545977 0.0250109 0.
0.547977 0.0250119 0.
0.549976 0.025013 0.
0.551976 0.0250135 0.
0.553977 0.025014 0.
0.555977 0.0250146 0.
0.557979 0.0250153 0.
0.55998 0.025016 0.
0.561981 0.0250165 0.
0.563982 0.0250167 0.
0.565983 0.0250169 0.
0.567983 0.0250173 0.
0.569984 0.025018 0.
0.571985 0.0250186 0.
0.573986 0.0250197 0.
0.575987 0.0250209 0.
0.577988 0.0250218 0.
0.579989 0.0250204 0.
0.581989 0.0250191 0.
0.58399 0.025018 0.
0.585991 0.0250177 0.
0.587993 0.0250174 0.
0.589994 0.0250169 0.
0.591995 0.0250162 0.
0.593997 0.0250155 0.
0.595998 0.0250157 0.
0.597999 0.0250161 0.
0.600001 0.0250166 0.
0.602002 0.0250167 0.
0.604004 0.0250169 0.
0.606006 0.0250169 0.
0.608006 0.0250167 0.
0.610007 0.0250165 0.
0.612008 0.0250167 0.
0.614009 0.0250174 0.
0.61601 0.0250182 0.
0.618011 0.0250191 0.
0.620011 0.02502 0.
0.622012 0.025021 0.
0.624013 0.0250202 0.
0.626014 0.0250192 0.
0.628015 0.0250184 0.
0.630016 0.0250183 0.
0.632016 0.0250183 0.
0.634017 0.0250181 0.
0.636018 0.0250174 0.
0.638019 0.0250167 0.
0.64002 0.025017 0.
0.642021 0.0250181 0.
0.644022 0.0250191 0.
0.646022 0.0250182 0.
0.648022 0.0250167 0.
0.650023 0.0250152 0.
0.652023 0.025015 0.
0.654023 0.0250148 0.
0.656024 0.0250144 0.
0.658024 0.0250138 0.
0.660025 0.0250132 0.
0.662026 0.0250128 0.
0.664028 0.0250128 0.
0.666029 0.0250128 0.
0.668031 0.0250126 0.
0.670032 0.0250122 0.
0.672034 0.0250119 0.
0.674034 0.0250106 0.
0.676034 0.0250093 0.
0.678035 0.0250082 0.
0.680036 0.0250081 0.
0.682037 0.025008 0.
0.684038 0.0250079 0.
0.686039 0.0250079 0.
0.688039 0.0250079 0.
0.69004 0.0250084 0.
0.692042 0.0250093 0.
0.694043 0.0250102 0.
0.696044 0.0250113 0.
0.698046 0.0250126 0.
0.499956 0.027011 0.
0.501957 0.0270104 0.
0.503958 0.0270095 0.
0.505959 0.0270087 0.
0.50796 0.027008 0.
0.509961 0.0270074 0.
0.511962 0.0270069 0.
0.513963 0.0270064 0.
0.515964 0.027006 0.
0.517965 0.0270056 0.
0.519966 0.0270052 0.
0.521967 0.0270049 0.
0.523968 0.0270058 0.
0.525969 0.027007 0.
0.527969 0.0270081 0.
0.52997 0.0270091 0.
0.531971 0.0270101 0.
0.533972 0.0270107 0.
0.535973 0.0270104 0.
0.537975 0.0270101 0.
0.539976 0.0270101 0.
0.541977 0.0270103 0.
0.543978 0.0270105 0.
0.545978 0.027011 0.
0.547978 0.0270117 0.
0.549978 0.0270124 0.
0.551978 0.0270131 0.
0.553979 0.0270138 0.
0.555979 0.0270144 0.
0.55798 0.0270149 0.
0.559981 0.0270153 0.
0.561982 0.0270157 0.
0.563983 0.027016 0.
0.565984 0.0270163 0.
0.567985 0.0270168 0.
0.569985 0.0270173 0.
0.571986 0.0270178 0.
0.573987 0.0270189 0.
0.575988 0.0270201 0.
0.577989 0.0270211 0.
0.579989 0.0270198 0.
0.58199 0.0270186 0.
0.583991 0.0270177 0.
0.585992 0.0270173 0.
0.587994 0.0270169 0.
0.589995 0.0270165 0.
0.591996 0.0270161 0.
0.593997 0.0270157 0.
0.595998 0.0270158 0.
0.597999 0.0270161 0.
0.600001 0.0270164 0.
0.602002 0.0270165 0.
0.604004 0.0270165 0.
0.606006 0.0270165 0.
0.608006 0.0270164 0.
0.610006 0.0270164 0.
0.612007 0.0270166 0.
0.614007 0.0270172 0.
0.616008 0.0270178 0.
0.618009 0.0270186 0.
0.62001 0.0270195 0.
0.622011 0.0270204 0.
0.624012 0.0270195 0.
0.626013 0.0270185 0.
0.628014 0.0270176 0.
0.630015 0.0270176 0.
0.632015 0.0270177 0.
0.634016 0.0270175 0.
0.636017 0.0270171 0.
0.638018 0.0270167 0.
0.640019 0.0270168 0.
0.642019 0.0270175 0.
0.64402 0.0270182 0.
0.646021 0.0270173 0.
0.648021 0.027016 0.
0.650022 0.0270147 0.
0.652022 0.0270143 0.
0.654023 0.0270138 0.
0.656023 0.0270134 0.
0.658025 0.0270132 0.
0.660026 0.0270129 0.
0.662027 0.0270126 0.
0.664028 0.0270125 0.
0.666028 0.0270124 0.
0.66803 0.027012 0.
0.670031 0.0270116 0.
0.672032 0.0270111 0.
0.674033 0.0270101 0.
0.676033 0.027009 0.
0.678034 0.0270081 0.
0.680035 0.027008 0.
0.682036 0.0270078 0.
0.684037 0.0270078 0.
0.686037 0.0270081 0.
0.688038 0.0270083 0.
0.690039 0.0270088 0.
0.69204 0.0270095 0.
0.694041 0.0270103 0.
0.696043 0.0270117 0.
0.698044 0.0270132 0.
0.499957 0.0290114 0.
0.501958 0.0290105 0.
0.50396 0.0290096 0.
0.505961 0.0290088 0.
0.507962 0.0290082 0.
0.509963 0.0290076 0.
0.511964 0.029007 0.
0.513965 0.0290062 0.
0.515965 0.0290053 0.
0.517966 0.029005 0.
0.519967 0.0290049 0.
0.521967 0.0290048 0.
0.523969 0.0290057 0.
0.52597 0.0290068 0.
0.527971 0.0290077 0.
0.529972 0.0290084 0.
0.531972 0.0290091 0.
0.533973 0.0290095 0.
0.535975 0.0290095 0.
0.537976 0.0290094 0.
0.539977 0.0290097 0.
0.541978 0.0290103 0.
0.543978 0.0290109 0.
0.545979 0.0290112 0.
0.547979 0.0290115 0.
0.549979 0.0290118 0.
0.55198 0.0290127 0.
0.55398 0.0290136 0.
0.555981 0.0290143 0.
0.557981 0.0290145 0.
0.559982 0.0290147 0.
0.561983 0.029015 0.
0.563984 0.0290154 0.
0.565985 0.0290158 0.
0.567986 0.0290162 0.
0.569987 0.0290166 0.
0.571988 0.0290171 0.
0.573988 0.0290182 0.
0.575988 0.0290194 0.
0.577989 0.0290204 0.
0.57999 0.0290193 0.
0.581991 0.0290182 0.
0.583992 0.0290173 0.
0.585993 0.0290169 0.
0.587994 0.0290164 0.
0.589995 0.0290162 0.
0.591996 0.0290161 0.
0.593997 0.0290159 0.
0.595998 0.029016 0.
0.597999 0.0290161 0.
0.6 0.0290162 0.
0.602002 0.0290162 0.
0.604004 0.0290162 0.
0.606006 0.0290162 0.
0.608006 0.0290162 0.
0.610006 0.0290162 0.
0.612006 0.0290165 0.
0.614006 0.0290169 0.
0.616006 0.0290174 0.
0.618007 0.0290181 0.
0.620008 0.029019 0.
0.622009 0.0290198 0.
0.624011 0.0290189 0.
0.626012 0.0290178 0.
0.628013 0.0290168 0.
0.630014 0.0290169 0.
0.632014 0.029017 0.
0.634015 0.029017 0.
0.636016 0.0290168 0.
0.638016 0.0290166 0.
0.640017 0.0290166 0.
0.642018 0.029017 0.
0.644018 0.0290173 0.
0.646019 0.0290164 0.
0.64802 0.0290153 0.
0.650021 0.0290142 0.
0.652021 0.0290136 0.
0.654022 0.0290129 0.
0.656023 0.0290125 0.
0.658025 0.0290125 0.
0.660026 0.0290125 0.
0.662027 0.0290124 0.
0.664027 0.0290122 0.
0.666028 0.029012 0.
0.668029 0.0290115 0.
0.670029 0.0290109 0.
0.67203 0.0290104 0.
0.674031 0.0290096 0.
0.676032 0.0290087 0.
0.678033 0.029008 0.
0.680034 0.0290078 0.
0.682035 0.0290077 0.
0.684035 0.0290078 0.
0.686036 0.0290082 0.
0.688037 0.0290087 0.
0.690038 0.0290092 0.
0.692039 0.0290098 0.
0.69404 0.0290104 0.
0.696041 0.029012 0.
0.698043 0.0290139 0.
0.499958 0.0310116 0.
0.50196 0.0310105 0.
0.503961 0.0310095 0.
0.505963 0.0310085 0.
0.507964 0.031008 0.
0.509965 0.0310074 0.
0.511966 0.0310067 0.
0.513966 0.0310059 0.
0.515967 0.0310051 0.
0.517968 0.0310048 0.
0.519968 0.0310047 0.
0.521969 0.0310046 0.
0.52397 0.0310054 0.
0.525971 0.0310064 0.
0.527972 0.0310072 0.
0.529973 0.0310077 0.
0.531974 0.0310081 0.
0.533975 0.0310085 0.
0.535976 0.0310088 0.
0.537977 0.031009 0.
0.539978 0.0310095 0.
0.541979 0.0310101 0.
0.543979 0.0310107 0.
0.54598 0.0310109 0.
0.54798 0.0310111 0.
0.549981 0.0310112 0.
0.551981 0.0310121 0.
0.553982 0.031013 0.
0.555982 0.0310138 0.
0.557983 0.0310139 0.
0.559983 0.031014 0.
0.561984 0.0310143 0.
0.563985 0.0310149 0.
0.565986 0.0310154 0.
0.567987 0.0310159 0.
0.569988 0.0310162 0.
0.571989 0.0310166 0.
0.573989 0.0310175 0.
0.575989 0.0310186 0.
0.577989 0.0310195 0.
0.57999 0.0310187 0.
0.581991 0.0310179 0.
0.583992 0.0310173 0.
0.585993 0.0310168 0.
0.587994 0.0310164 0.
0.589995 0.0310161 0.
0.591996 0.0310161 0.
0.593997 0.031016 0.
0.595998 0.0310159 0.
0.597999 0.0310159 0.
0.6 0.0310158 0.
0.602002 0.0310159 0.
0.604004 0.031016 0.
0.606006 0.0310161 0.
0.608006 0.0310162 0.
0.610005 0.0310162 0.
0.612005 0.0310164 0.
0.614006 0.0310168 0.
0.616006 0.0310172 0.
0.618007 0.0310178 0.
0.620008 0.0310184 0.
0.622009 0.031019 0.
0.62401 0.0310182 0.
0.626011 0.0310172 0.
0.628012 0.0310163 0.
0.630013 0.0310164 0.
0.632013 0.0310164 0.
0.634014 0.0310165 0.
0.636014 0.0310166 0.
0.638015 0.0310167 0.
0.640016 0.0310166 0.
0.642016 0.0310166 0.
0.644017 0.0310165 0.
0.646018 0.0310156 0.
0.648019 0.0310145 0.
0.65002 0.0310134 0.
0.652021 0.0310127 0.
0.654021 0.0310121 0.
0.656022 0.0310116 0.
0.658024 0.0310119 0.
0.660025 0.0310121 0.
0.662026 0.0310121 0.
0.664026 0.0310118 0.
0.666027 0.0310115 0.
0.668027 0.031011 0.
0.670028 0.0310103 0.
0.672029 0.0310096 0.
0.67403 0.031009 0.
0.676031 0.0310084 0.
0.678032 0.0310078 0.
0.680032 0.0310077 0.
0.682033 0.0310076 0.
0.684034 0.0310077 0.
0.686035 0.0310082 0.
0.688036 0.0310088 0.
0.690037 0.0310093 0.
0.692038 0.0310098 0.
0.694038 0.0310104 0.
0.69604 0.0310121 0.
0.698041 0.0310142 0.
0.49996 0.0330117 0.
0.501962 0.0330103 0.
0.503963 0.033009 0.
0.505965 0.0330078 0.
0.507966 0.0330073 0.
0.509967 0.0330067 0.
0.511968 0.0330062 0.
0.513968 0.0330058 0.
0.515969 0.0330053 0.
0.51797 0.0330049 0.
0.51997 0.0330046 0.
0.521971 0.0330042 0.
0.523972 0.033005 0.
0.525973 0.0330058 0.
0.527973 0.0330066 0.
0.529974 0.0330069 0.
0.531975 0.0330071 0.
0.533976 0.0330075 0.
0.535977 0.0330082 0.
0.537978 0.0330089 0.
0.539979 0.0330094 0.
0.541979 0.0330096 0.
0.54398 0.0330099 0.
0.545981 0.0330101 0.
0.547981 0.0330104 0.
0.549982 0.0330106 0.
0.551983 0.0330113 0.
0.553983 0.0330121 0.
0.555984 0.0330128 0.
0.557984 0.033013 0.
0.559985 0.0330132 0.
0.561986 0.0330137 0.
0.563986 0.0330145 0.
0.565987 0.0330153 0.
0.567988 0.0330157 0.
0.569989 0.033016 0.
0.571989 0.0330163 0.
0.57399 0.033017 0.
0.57599 0.0330178 0.
0.57799 0.0330184 0.
0.579991 0.0330182 0.
0.581992 0.0330179 0.
0.583993 0.0330176 0.
0.585994 0.0330172 0.
0.587994 0.0330167 0.
0.589995 0.0330164 0.
0.591996 0.0330162 0.
0.593997 0.0330159 0.
0.595998 0.0330156 0.
0.597999 0.0330153 0.
0.6 0.033015 0.
0.602002 0.0330155 0.
0.604004 0.033016 0.
0.606005 0.0330164 0.
0.608005 0.0330164 0.
0.610005 0.0330163 0.
0.612005 0.0330165 0.
0.614006 0.0330168 0.
0.616006 0.0330172 0.
0.618007 0.0330175 0.
0.620008 0.0330179 0.
0.622009 0.0330182 0.
0.624009 0.0330175 0.
0.62601 0.0330167 0.
0.628011 0.033016 0.
0.630011 0.033016 0.
0.632012 0.033016 0.
0.634012 0.0330161 0.
0.636013 0.0330165 0.
0.638014 0.0330169 0.
0.640015 0.0330169 0.
0.642016 0.0330164 0.
0.644016 0.0330158 0.
0.646017 0.0330148 0.
0.648018 0.0330136 0.
0.650019 0.0330124 0.
0.65202 0.0330118 0.
0.65402 0.0330113 0.
0.656021 0.0330109 0.
0.658022 0.0330112 0.
0.660023 0.0330116 0.
0.662024 0.0330116 0.
0.664025 0.0330114 0.
0.666025 0.0330111 0.
0.668026 0.0330105 0.
0.670027 0.0330096 0.
0.672028 0.0330087 0.
0.674029 0.0330083 0.
0.67603 0.033008 0.
0.678031 0.0330077 0.
0.680031 0.0330076 0.
0.682032 0.0330075 0.
0.684033 0.0330077 0.
0.686034 0.0330081 0.
0.688035 0.0330086 0.
0.690036 0.0330092 0.
0.692037 0.0330097 0.
0.694038 0.0330103 0.
0.696039 0.033012 0.
0.698039 0.033014 0.
0.499963 0.0350117 0.
0.501964 0.0350101 0.
0.503965 0.0350085 0.
0.505967 0.0350072 0.
0.507967 0.0350066 0.
0.509968 0.0350061 0.
0.511969 0.0350057 0.
0.51397 0.0350056 0.
0.515971 0.0350055 0.
0.517972 0.0350051 0.
0.519972 0.0350044 0.
0.521973 0.0350038 0.
0.523973 0.0350045 0.
0.525974 0.0350053 0.
0.527975 0.035006 0.
0.529976 0.0350061 0.
0.531976 0.0350062 0.
0.533977 0.0350066 0.
0.535978 0.0350077 0.
0.537979 0.0350088 0.
0.539979 0.0350092 0.
0.54198 0.0350092 0.
0.543981 0.0350091 0.
0.545982 0.0350094 0.
0.547982 0.0350097 0.
0.549983 0.03501 0.
0.551984 0.0350106 0.
0.553985 0.0350112 0.
0.555985 0.0350118 0.
0.557986 0.0350122 0.
0.559987 0.0350125 0.
0.561987 0.0350132 0.
0.563988 0.0350141 0.
0.565988 0.0350151 0.
0.567989 0.0350156 0.
0.569989 0.0350158 0.
0.57199 0.035016 0.
0.573991 0.0350165 0.
0.575991 0.0350169 0.
0.577991 0.0350174 0.
0.579992 0.0350176 0.
0.581992 0.0350179 0.
0.583993 0.0350179 0.
0.585994 0.0350175 0.
0.587994 0.035017 0.
0.589995 0.0350166 0.
0.591996 0.0350162 0.
0.593997 0.0350159 0.
0.595998 0.0350154 0.
0.597999 0.0350148 0.
0.6 0.0350143 0.
0.602002 0.0350152 0.
0.604003 0.035016 0.
0.606004 0.0350166 0.
0.608004 0.0350165 0.
0.610004 0.0350164 0.
0.612005 0.0350165 0.
0.614006 0.0350169 0.
0.616007 0.0350172 0.
0.618008 0.0350173 0.
0.620008 0.0350173 0.
0.622008 0.0350173 0.
0.624009 0.0350168 0.
0.62601 0.0350162 0.
0.62801 0.0350157 0.
0.63001 0.0350156 0.
0.63201 0.0350155 0.
0.634011 0.0350156 0.
0.636012 0.0350164 0.
0.638014 0.0350172 0.
0.640015 0.0350171 0.
0.642015 0.0350161 0.
0.644016 0.0350152 0.
0.646016 0.035014 0.
0.648017 0.0350127 0.
0.650019 0.0350114 0.
0.652019 0.0350109 0.
0.654019 0.0350105 0.
0.656019 0.0350102 0.
0.65802 0.0350106 0.
0.660021 0.035011 0.
0.662022 0.0350111 0.
0.664023 0.0350109 0.
0.666024 0.0350107 0.
0.668025 0.03501 0.
0.670026 0.0350089 0.
0.672027 0.0350079 0.
0.674028 0.0350077 0.
0.676029 0.0350076 0.
0.67803 0.0350075 0.
0.68003 0.0350075 0.
0.682031 0.0350075 0.
0.684032 0.0350076 0.
0.686033 0.035008 0.
0.688034 0.0350085 0.
0.690035 0.035009 0.
0.692036 0.0350097 0.
0.694037 0.0350103 0.
0.696037 0.0350119 0.
0.698037 0.0350139 0.
0.499965 0.0370118 0.
0.501966 0.0370102 0.
0.503967 0.0370085 0.
0.505968 0.037007 0.
0.507969 0.0370065 0.
0.509969 0.037006 0.
0.51197 0.0370057 0.
0.513971 0.0370056 0.
0.515972 0.0370055 0.
0.517973 0.0370051 0.
0.519973 0.0370044 0.
0.521974 0.0370038 0.
0.523974 0.0370044 0.
0.525975 0.0370051 0.
0.527976 0.0370058 0.
0.529977 0.037006 0.
0.531978 0.0370062 0.
0.533979 0.0370065 0.
0.53598 0.0370073 0.
0.53798 0.0370081 0.
0.539981 0.0370084 0.
0.541981 0.0370083 0.
0.543982 0.0370082 0.
0.545983 0.0370085 0.
0.547984 0.0370089 0.
0.549984 0.0370093 0.
0.551985 0.03701 0.
0.553985 0.0370106 0.
0.555986 0.0370112 0.
0.557986 0.0370116 0.
0.559987 0.0370121 0.
0.561988 0.0370127 0.
0.563988 0.0370134 0.
0.565989 0.0370142 0.
0.567989 0.0370146 0.
0.56999 0.037015 0.
0.571991 0.0370153 0.
0.573992 0.0370161 0.
0.575992 0.0370168 0.
0.577992 0.0370175 0.
0.579993 0.0370175 0.
0.581994 0.0370175 0.
0.583994 0.0370174 0.
0.585995 0.037017 0.
0.587996 0.0370166 0.
0.589996 0.0370162 0.
0.591997 0.0370158 0.
0.593998 0.0370155 0.
0.595999 0.0370154 0.
0.598 0.0370153 0.
0.6 0.0370153 0.
0.602002 0.0370157 0.
0.604003 0.0370162 0.
0.606003 0.0370165 0.
0.608004 0.0370165 0.
0.610004 0.0370165 0.
0.612004 0.0370166 0.
0.614005 0.0370167 0.
0.616007 0.0370169 0.
0.618007 0.0370169 0.
0.620007 0.0370168 0.
0.622008 0.0370167 0.
0.624008 0.0370163 0.
0.626009 0.0370158 0.
0.628009 0.0370154 0.
0.630009 0.0370153 0.
0.63201 0.0370152 0.
0.63401 0.0370152 0.
0.636012 0.0370156 0.
0.638013 0.0370161 0.
0.640014 0.0370158 0.
0.642015 0.0370151 0.
0.644016 0.0370143 0.
0.646016 0.0370131 0.
0.648017 0.0370118 0.
0.650018 0.0370106 0.
0.652018 0.0370105 0.
0.654018 0.0370103 0.
0.656018 0.0370103 0.
0.658019 0.0370104 0.
0.66002 0.0370105 0.
0.662021 0.0370104 0.
0.664022 0.0370103 0.
0.666023 0.0370101 0.
0.668024 0.0370094 0.
0.670025 0.0370086 0.
0.672026 0.0370077 0.
0.674027 0.0370075 0.
0.676027 0.0370074 0.
0.678028 0.0370074 0.
0.680029 0.0370072 0.
0.682029 0.0370071 0.
0.68403 0.0370071 0.
0.686031 0.0370075 0.
0.688032 0.0370078 0.
0.690034 0.0370085 0.
0.692035 0.0370095 0.
0.694036 0.0370105 0.
0.696036 0.0370121 0.
0.698037 0.0370139 0.
0.499967 0.0390119 0.
0.501968 0.0390104 0.
0.503969 0.0390085 0.
0.505969 0.0390069 0.
0.50797 0.0390064 0.
0.50997 0.0390059 0.
0.511971 0.0390056 0.
0.513972 0.0390056 0.
0.515973 0.0390056 0.
0.517973 0.0390051 0.
0.519974 0.0390044 0.
0.521974 0.0390037 0.
0.523975 0.0390043 0.
0.525976 0.039005 0.
0.527978 0.0390056 0.
0.529979 0.0390059 0.
0.53198 0.0390061 0.
0.53398 0.0390065 0.
0.535981 0.039007 0.
0.537982 0.0390074 0.
0.539982 0.0390076 0.
0.541983 0.0390074 0.
0.543984 0.0390072 0.
0.545984 0.0390076 0.
0.547985 0.0390082 0.
0.549985 0.0390087 0.
0.551985 0.0390094 0.
0.553986 0.03901 0.
0.555986 0.0390106 0.
0.557987 0.0390111 0.
0.559988 0.0390116 0.
0.561988 0.0390122 0.
0.563989 0.0390127 0.
0.565989 0.0390132 0.
0.56799 0.0390137 0.
0.569991 0.0390142 0.
0.571992 0.0390147 0.
0.573993 0.0390157 0.
0.575993 0.0390167 0.
0.577993 0.0390176 0.
0.579994 0.0390173 0.
0.581995 0.0390171 0.
0.583995 0.0390168 0.
0.585996 0.0390164 0.
0.587997 0.0390161 0.
0.589998 0.0390158 0.
0.591998 0.0390154 0.
0.593998 0.0390151 0.
0.595999 0.0390154 0.
0.598 0.0390158 0.
0.6 0.0390163 0.
0.602001 0.0390163 0.
0.604002 0.0390163 0.
0.606003 0.0390164 0.
0.608003 0.0390165 0.
0.610004 0.0390166 0.
0.612004 0.0390167 0.
0.614005 0.0390166 0.
0.616006 0.0390165 0.
0.618006 0.0390164 0.
0.620007 0.0390162 0.
0.622007 0.0390161 0.
0.624007 0.0390158 0.
0.626008 0.0390155 0.
0.628008 0.0390152 0.
0.630008 0.039015 0.
0.632009 0.0390149 0.
0.63401 0.0390148 0.
0.636011 0.0390148 0.
0.638012 0.0390149 0.
0.640013 0.0390146 0.
0.642014 0.039014 0.
0.644016 0.0390133 0.
0.646016 0.0390122 0.
0.648017 0.039011 0.
0.650017 0.0390098 0.
0.652017 0.03901 0.
0.654018 0.0390102 0.
0.656018 0.0390103 0.
0.658019 0.0390101 0.
0.660019 0.0390099 0.
0.66202 0.0390098 0.
0.664022 0.0390096 0.
0.666023 0.0390095 0.
0.668024 0.0390089 0.
0.670025 0.0390082 0.
0.672025 0.0390074 0.
0.674026 0.0390073 0.
0.676026 0.0390073 0.
0.678026 0.0390072 0.
0.680027 0.0390069 0.
0.682028 0.0390067 0.
0.684029 0.0390066 0.
0.68603 0.0390069 0.
0.688031 0.0390072 0.
0.690032 0.0390081 0.
0.692033 0.0390094 0.
0.694034 0.0390108 0.
0.696035 0.0390123 0.
0.698036 0.039014 0.
0.499969 0.0410116 0.
0.50197 0.0410101 0.
0.50397 0.0410083 0.
0.505971 0.0410067 0.
0.507971 0.0410062 0.
0.509972 0.0410057 0.
0.511973 0.0410053 0.
0.513974 0.0410052 0.
0.515974 0.0410051 0.
0.517975 0.0410047 0.
0.519976 0.0410041 0.
0.521976 0.0410035 0.
0.523977 0.041004 0.
0.525978 0.0410047 0.
0.527979 0.0410054 0.
0.52998 0.0410056 0.
0.531981 0.0410059 0.
0.533982 0.0410061 0.
0.535982 0.0410064 0.
0.537983 0.0410066 0.
0.539984 0.0410068 0.
0.541984 0.0410068 0.
0.543985 0.0410068 0.
0.545986 0.0410071 0.
0.547986 0.0410076 0.
0.549986 0.0410081 0.
0.551986 0.0410088 0.
0.553987 0.0410095 0.
0.555987 0.0410101 0.
0.557988 0.0410106 0.
0.559989 0.0410112 0.
0.561989 0.0410117 0.
0.56399 0.0410122 0.
0.56599 0.0410127 0.
0.567991 0.0410132 0.
0.569992 0.0410138 0.
0.571993 0.0410143 0.
0.573993 0.0410154 0.
0.575994 0.0410165 0.
0.577994 0.0410175 0.
0.579995 0.0410171 0.
0.581996 0.0410167 0.
0.583996 0.0410164 0.
0.585997 0.0410161 0.
0.587998 0.0410158 0.
0.589998 0.0410155 0.
0.591998 0.0410152 0.
0.593999 0.0410148 0.
0.595999 0.0410153 0.
0.598 0.041016 0.
0.600001 0.0410166 0.
0.602001 0.0410165 0.
0.604002 0.0410164 0.
0.606002 0.0410163 0.
0.608003 0.0410165 0.
0.610004 0.0410167 0.
0.612004 0.0410167 0.
0.614005 0.0410165 0.
0.616005 0.0410162 0.
0.618006 0.041016 0.
0.620006 0.0410159 0.
0.622006 0.0410157 0.
0.624006 0.0410153 0.
0.626007 0.0410149 0.
0.628007 0.0410146 0.
0.630008 0.0410146 0.
0.632008 0.0410145 0.
0.634009 0.0410144 0.
0.63601 0.0410142 0.
0.638011 0.0410139 0.
0.640012 0.0410136 0.
0.642013 0.0410132 0.
0.644015 0.0410127 0.
0.646015 0.0410117 0.
0.648016 0.0410105 0.
0.650016 0.0410094 0.
0.652016 0.0410096 0.
0.654016 0.0410099 0.
0.656017 0.04101 0.
0.658017 0.0410097 0.
0.660018 0.0410093 0.
0.662019 0.0410091 0.
0.66402 0.041009 0.
0.666022 0.0410089 0.
0.668022 0.0410084 0.
0.670023 0.0410078 0.
0.672024 0.0410071 0.
0.674024 0.0410069 0.
0.676024 0.0410067 0.
0.678025 0.0410065 0.
0.680025 0.0410064 0.
0.682026 0.0410062 0.
0.684027 0.0410062 0.
0.686028 0.0410065 0.
0.688029 0.0410067 0.
0.69003 0.0410076 0.
0.692031 0.041009 0.
0.694032 0.0410105 0.
0.696033 0.0410121 0.
0.698034 0.0410137 0.
0.49997 0.0430109 0.
0.501971 0.0430094 0.
0.503972 0.0430078 0.
0.505973 0.0430064 0.
0.507974 0.0430058 0.
0.509975 0.0430052 0.
0.511976 0.0430048 0.
0.513976 0.0430045 0.
0.515977 0.0430043 0.
0.517978 0.0430039 0.
0.519979 0.0430035 0.
0.52198 0.043003 0.
0.52398 0.0430037 0.
0.525981 0.0430045 0.
0.527982 0.0430052 0.
0.529982 0.0430053 0.
0.531983 0.0430054 0.
0.533983 0.0430054 0.
0.535984 0.0430056 0.
0.537984 0.0430057 0.
0.539985 0.043006 0.
0.541986 0.0430064 0.
0.543987 0.0430068 0.
0.545987 0.0430071 0.
0.547987 0.0430073 0.
0.549988 0.0430075 0.
0.551988 0.0430083 0.
0.553988 0.043009 0.
0.555988 0.0430097 0.
0.557989 0.0430102 0.
0.55999 0.0430107 0.
0.56199 0.0430113 0.
0.563991 0.0430119 0.
0.565991 0.0430126 0.
0.567992 0.0430132 0.
0.569993 0.0430137 0.
0.571994 0.0430143 0.
0.573994 0.0430152 0.
0.575995 0.0430162 0.
0.577995 0.043017 0.
0.579996 0.0430167 0.
0.581996 0.0430163 0.
0.583997 0.0430161 0.
0.585997 0.0430159 0.
0.587998 0.0430158 0.
0.589998 0.0430155 0.
0.591998 0.0430151 0.
0.593999 0.0430147 0.
0.595999 0.0430151 0.
0.598 0.0430157 0.
0.600001 0.0430164 0.
0.602001 0.0430163 0.
0.604002 0.0430162 0.
0.606002 0.0430162 0.
0.608003 0.0430165 0.
0.610004 0.0430167 0.
0.612004 0.0430167 0.
0.614004 0.0430163 0.
0.616004 0.0430159 0.
0.618005 0.0430157 0.
0.620005 0.0430156 0.
0.622006 0.0430154 0.
0.624006 0.0430148 0.
0.626006 0.0430141 0.
0.628007 0.0430135 0.
0.630007 0.0430139 0.
0.632007 0.0430142 0.
0.634008 0.0430142 0.
0.636009 0.0430136 0.
0.63801 0.0430131 0.
0.640011 0.0430128 0.
0.642012 0.0430126 0.
0.644013 0.0430124 0.
0.646013 0.0430115 0.
0.648014 0.0430105 0.
0.650015 0.0430094 0.
0.652015 0.0430093 0.
0.654015 0.0430093 0.
0.656015 0.0430092 0.
0.658016 0.0430089 0.
0.660017 0.0430087 0.
0.662018 0.0430085 0.
0.664019 0.0430085 0.
0.66602 0.0430084 0.
0.66802 0.0430079 0.
0.670021 0.0430073 0.
0.672022 0.0430067 0.
0.674022 0.0430062 0.
0.676023 0.0430058 0.
0.678023 0.0430054 0.
0.680024 0.0430056 0.
0.682025 0.0430057 0.
0.684025 0.0430059 0.
0.686026 0.0430061 0.
0.688028 0.0430063 0.
0.690028 0.0430071 0.
0.692029 0.0430084 0.
0.69403 0.0430097 0.
0.69603 0.0430113 0.
0.698031 0.0430131 0.
0.499972 0.0450103 0.
0.501973 0.0450088 0.
0.503974 0.0450074 0.
0.505975 0.0450061 0.
0.507976 0.0450054 0.
0.509977 0.0450047 0.
0.511978 0.0450042 0.
0.513979 0.0450038 0.
0.51598 0.0450034 0.
0.517981 0.0450031 0.
0.519982 0.0450028 0.
0.521983 0.0450026 0.
0.523983 0.0450034 0.
0.525984 0.0450043 0.
0.527984 0.045005 0.
0.529984 0.0450049 0.
0.531984 0.0450049 0.
0.533985 0.0450048 0.
0.535985 0.0450048 0.
0.537985 0.0450048 0.
0.539986 0.0450053 0.
0.541987 0.0450061 0.
0.543988 0.0450069 0.
0.545988 0.045007 0.
0.547989 0.045007 0.
0.549989 0.045007 0.
0.551989 0.0450078 0.
0.55399 0.0450086 0.
0.55599 0.0450093 0.
0.55799 0.0450098 0.
0.559991 0.0450103 0.
0.561991 0.0450109 0.
0.563991 0.0450117 0.
0.565992 0.0450124 0.
0.567993 0.0450131 0.
0.569994 0.0450137 0.
0.571994 0.0450143 0.
0.573995 0.0450151 0.
0.575996 0.0450159 0.
0.577996 0.0450166 0.
0.579996 0.0450163 0.
0.581997 0.045016 0.
0.583997 0.0450158 0.
0.585997 0.0450158 0.
0.587998 0.0450157 0.
0.589998 0.0450155 0.
0.591998 0.0450151 0.
0.593999 0.0450146 0.
0.595999 0.045015 0.
0.598 0.0450155 0.
0.6 0.0450161 0.
0.602001 0.0450161 0.
0.604002 0.0450161 0.
0.606002 0.0450161 0.
0.608003 0.0450165 0.
0.610004 0.0450168 0.
0.612004 0.0450167 0.
0.614004 0.0450162 0.
0.616004 0.0450157 0.
0.618004 0.0450154 0.
0.620004 0.0450153 0.
0.622005 0.0450152 0.
0.624006 0.0450143 0.
0.626006 0.0450133 0.
0.628007 0.0450125 0.
0.630007 0.0450132 0.
0.632007 0.0450138 0.
0.634007 0.045014 0.
0.636008 0.0450131 0.
0.638008 0.0450123 0.
0.640009 0.045012 0.
0.64201 0.045012 0.
0.644011 0.0450121 0.
0.646012 0.0450113 0.
0.648013 0.0450104 0.
0.650014 0.0450094 0.
0.652013 0.045009 0.
0.654013 0.0450087 0.
0.656013 0.0450084 0.
0.658014 0.0450082 0.
0.660015 0.0450081 0.
0.662016 0.045008 0.
0.664017 0.0450079 0.
0.666018 0.0450078 0.
0.668018 0.0450074 0.
0.670019 0.0450068 0.
0.67202 0.0450063 0.
0.67402 0.0450056 0.
0.676021 0.0450048 0.
0.678022 0.0450043 0.
0.680022 0.0450047 0.
0.682023 0.0450052 0.
0.684024 0.0450056 0.
0.686025 0.0450058 0.
0.688026 0.045006 0.
0.690026 0.0450067 0.
0.692027 0.0450078 0.
0.694027 0.0450089 0.
0.696028 0.0450106 0.
0.698028 0.0450125 0.
0.499973 0.0470104 0.
0.501974 0.0470087 0.
0.503975 0.0470071 0.
0.505977 0.0470057 0.
0.507978 0.0470049 0.
0.509979 0.0470041 0.
0.51198 0.0470035 0.
0.513981 0.0470031 0.
0.515981 0.0470028 0.
0.517982 0.0470026 0.
0.519983 0.0470025 0.
0.521984 0.0470024 0.
0.523985 0.0470032 0.
0.525985 0.0470042 0.
0.527986 0.047005 0.
0.529986 0.0470045 0.
0.531986 0.0470041 0.
0.533987 0.0470038 0.
0.535987 0.0470041 0.
0.537988 0.0470043 0.
0.539989 0.0470048 0.
0.541989 0.0470055 0.
0.54399 0.0470062 0.
0.54599 0.0470066 0.
0.54799 0.0470068 0.
0.549991 0.0470071 0.
0.551991 0.0470075 0.
0.553991 0.047008 0.
0.555991 0.0470085 0.
0.557991 0.0470092 0.
0.559991 0.04701 0.
0.561992 0.0470106 0.
0.563993 0.0470112 0.
0.565993 0.0470117 0.
0.567994 0.0470124 0.
0.569995 0.0470131 0.
0.571995 0.0470139 0.
0.573996 0.0470146 0.
0.575996 0.0470154 0.
0.577996 0.0470161 0.
0.579996 0.0470158 0.
0.581997 0.0470156 0.
0.583997 0.0470156 0.
0.585998 0.0470158 0.
0.587998 0.0470161 0.
0.589998 0.047016 0.
0.591999 0.0470157 0.
0.593999 0.0470153 0.
0.595999 0.0470157 0.
0.598 0.0470163 0.
0.6 0.0470168 0.
0.602001 0.0470166 0.
0.604002 0.0470164 0.
0.606002 0.0470163 0.
0.608003 0.0470164 0.
0.610003 0.0470164 0.
0.612004 0.0470164 0.
0.614004 0.047016 0.
0.616004 0.0470157 0.
0.618004 0.0470155 0.
0.620005 0.0470153 0.
0.622005 0.0470152 0.
0.624005 0.0470145 0.
0.626006 0.0470137 0.
0.628006 0.047013 0.
0.630006 0.0470131 0.
0.632006 0.0470132 0.
0.634007 0.0470131 0.
0.636007 0.0470126 0.
0.638008 0.0470121 0.
0.640008 0.047012 0.
0.642009 0.0470121 0.
0.64401 0.0470122 0.
0.64601 0.0470114 0.
0.648011 0.0470102 0.
0.650012 0.0470091 0.
0.652012 0.0470086 0.
0.654012 0.0470082 0.
0.656012 0.0470078 0.
0.658013 0.0470077 0.
0.660014 0.0470076 0.
0.662015 0.0470074 0.
0.664015 0.0470072 0.
0.666016 0.047007 0.
0.668017 0.0470067 0.
0.670018 0.0470064 0.
0.672018 0.047006 0.
0.674019 0.0470053 0.
0.676019 0.0470045 0.
0.67802 0.0470039 0.
0.68002 0.0470044 0.
0.682021 0.047005 0.
0.684022 0.0470054 0.
0.686022 0.0470056 0.
0.688023 0.0470059 0.
0.690024 0.0470067 0.
0.692025 0.047008 0.
0.694025 0.0470093 0.
0.696026 0.0470109 0.
0.698026 0.0470127 0.
0.499975 0.0490106 0.
0.501976 0.0490087 0.
0.503977 0.0490068 0.
0.505978 0.0490052 0.
0.507979 0.0490043 0.
0.50998 0.0490035 0.
0.511981 0.0490029 0.
0.513982 0.0490025 0.
0.515983 0.0490021 0.
0.517984 0.0490021 0.
0.519985 0.0490021 0.
0.521985 0.0490022 0.
0.523986 0.0490031 0.
0.525986 0.0490041 0.
0.527987 0.0490049 0.
0.529988 0.0490041 0.
0.531988 0.0490033 0.
0.533989 0.0490029 0.
0.53599 0.0490034 0.
0.537991 0.0490038 0.
0.539991 0.0490044 0.
0.541992 0.049005 0.
0.543992 0.0490056 0.
0.545992 0.0490062 0.
0.547992 0.0490067 0.
0.549992 0.0490072 0.
0.551992 0.0490073 0.
0.553992 0.0490074 0.
0.555992 0.0490077 0.
0.557992 0.0490087 0.
0.559992 0.0490096 0.
0.561993 0.0490104 0.
0.563994 0.0490107 0.
0.565995 0.049011 0.
0.567995 0.0490117 0.
0.569996 0.0490126 0.
0.571996 0.0490134 0.
0.573996 0.0490142 0.
0.575996 0.0490149 0.
0.577996 0.0490155 0.
0.579996 0.0490154 0.
0.581997 0.0490153 0.
0.583997 0.0490154 0.
0.585998 0.0490159 0.
0.587998 0.0490164 0.
0.589999 0.0490165 0.
0.591999 0.0490163 0.
0.593999 0.049016 0.
0.595999 0.0490164 0.
0.598 0.049017 0.
0.6 0.0490175 0.
0.602001 0.0490171 0.
0.604002 0.0490167 0.
0.606002 0.0490164 0.
0.608003 0.0490162 0.
0.610003 0.0490161 0.
0.612004 0.049016 0.
0.614004 0.0490158 0.
0.616005 0.0490157 0.
0.618005 0.0490155 0.
0.620005 0.0490153 0.
0.622005 0.0490152 0.
0.624005 0.0490147 0.
0.626005 0.0490141 0.
0.628005 0.0490136 0.
0.630006 0.0490131 0.
0.632006 0.0490126 0.
0.634006 0.0490123 0.
0.636006 0.0490121 0.
0.638007 0.049012 0.
0.640007 0.049012 0.
0.642008 0.0490122 0.
0.644009 0.0490123 0.
0.646009 0.0490114 0.
0.64801 0.0490101 0.
0.650011 0.0490088 0.
0.652011 0.0490082 0.
0.654011 0.0490077 0.
0.656011 0.0490073 0.
0.658012 0.0490071 0.
0.660012 0.049007 0.
0.662013 0.0490068 0.
0.664014 0.0490065 0.
0.666015 0.0490062 0.
0.668015 0.049006 0.
0.670016 0.0490059 0.
0.672017 0.0490057 0.
0.674017 0.049005 0.
0.676018 0.0490041 0.
0.678018 0.0490035 0.
0.680019 0.0490041 0.
0.682019 0.0490048 0.
0.68402 0.0490053 0.
0.68602 0.0490055 0.
0.688021 0.0490057 0.
0.690021 0.0490067 0.
0.692022 0.0490082 0.
0.694024 0.0490097 0.
0.696024 0.0490113 0.
0.698024 0.0490128 0.
0.499978 0.0510104 0.
0.501978 0.0510084 0.
0.503979 0.0510065 0.
0.50598 0.0510049 0.
0.507981 0.051004 0.
0.509982 0.0510031 0.
0.511983 0.0510024 0.
0.513984 0.051002 0.
0.515985 0.0510016 0.
0.517985 0.0510016 0.
0.519986 0.0510017 0.
0.521986 0.0510019 0.
0.523987 0.0510027 0.
0.525988 0.0510037 0.
0.527988 0.0510045 0.
0.529989 0.0510037 0.
0.53199 0.0510028 0.
0.53399 0.0510024 0.
0.535991 0.051003 0.
0.537992 0.0510035 0.
0.539993 0.0510041 0.
0.541993 0.0510046 0.
0.543993 0.0510051 0.
0.545993 0.0510058 0.
0.547993 0.0510065 0.
0.549993 0.0510071 0.
0.551993 0.051007 0.
0.553993 0.0510069 0.
0.555993 0.0510071 0.
0.557993 0.0510081 0.
0.559993 0.0510091 0.
0.561994 0.0510099 0.
0.563995 0.0510103 0.
0.565996 0.0510107 0.
0.567996 0.0510114 0.
0.569996 0.0510123 0.
0.571997 0.0510132 0.
0.573997 0.0510138 0.
0.575996 0.0510144 0.
0.577996 0.051015 0.
0.579996 0.0510152 0.
0.581997 0.0510154 0.
0.583997 0.0510157 0.
0.585998 0.0510162 0.
0.587998 0.0510167 0.
0.589999 0.0510168 0.
0.591999 0.0510166 0.
0.593999 0.0510164 0.
0.596 0.0510167 0.
0.598 0.0510171 0.
0.600001 0.0510176 0.
0.602001 0.0510174 0.
0.604002 0.0510172 0.
0.606002 0.0510169 0.
0.608003 0.0510165 0.
0.610003 0.0510161 0.
0.612004 0.0510158 0.
0.614004 0.0510156 0.
0.616005 0.0510154 0.
0.618005 0.0510153 0.
0.620005 0.0510153 0.
0.622005 0.0510153 0.
0.624005 0.0510149 0.
0.626005 0.0510145 0.
0.628005 0.0510139 0.
0.630005 0.0510132 0.
0.632006 0.0510124 0.
0.634006 0.0510119 0.
0.636006 0.0510118 0.
0.638006 0.0510118 0.
0.640006 0.0510118 0.
0.642007 0.0510119 0.
0.644008 0.0510119 0.
0.646008 0.051011 0.
0.648009 0.0510097 0.
0.650009 0.0510085 0.
0.652009 0.0510079 0.
0.65401 0.0510073 0.
0.65601 0.0510068 0.
0.65801 0.0510065 0.
0.660011 0.0510062 0.
0.662011 0.051006 0.
0.664012 0.0510058 0.
0.666013 0.0510056 0.
0.668014 0.0510055 0.
0.670015 0.0510055 0.
0.672015 0.0510054 0.
0.674016 0.0510047 0.
0.676016 0.0510039 0.
0.678016 0.0510032 0.
0.680017 0.0510039 0.
0.682018 0.0510046 0.
0.684018 0.0510051 0.
0.686018 0.0510053 0.
0.688019 0.0510055 0.
0.690019 0.0510065 0.
0.69202 0.0510079 0.
0.694022 0.0510094 0.
0.696022 0.0510111 0.
0.698023 0.0510128 0.
0.499981 0.0530099 0.
0.501981 0.0530079 0.
0.503982 0.0530062 0.
0.505983 0.0530047 0.
0.507983 0.0530038 0.
0.509984 0.0530028 0.
0.511985 0.0530021 0.
0.513985 0.0530017 0.
0.515986 0.0530013 0.
0.517987 0.0530012 0.
0.519987 0.0530013 0.
0.521987 0.0530015 0.
0.523988 0.0530022 0.
0.525989 0.053003 0.
0.52799 0.0530036 0.
0.52999 0.0530031 0.
0.53199 0.0530026 0.
0.533991 0.0530024 0.
0.535991 0.053003 0.
0.537992 0.0530035 0.
0.539992 0.053004 0.
0.541993 0.0530044 0.
0.543993 0.0530048 0.
0.545993 0.0530055 0.
0.547994 0.0530062 0.
0.549994 0.0530069 0.
0.551994 0.0530068 0.
0.553994 0.0530067 0.
0.555995 0.0530068 0.
0.557995 0.0530076 0.
0.559995 0.0530084 0.
0.561995 0.0530092 0.
0.563996 0.0530099 0.
0.565997 0.0530106 0.
0.567997 0.0530114 0.
0.569997 0.0530122 0.
0.571997 0.0530131 0.
0.573997 0.0530136 0.
0.575997 0.0530141 0.
0.577996 0.0530146 0.
0.579997 0.0530153 0.
0.581997 0.053016 0.
0.583997 0.0530165 0.
0.585998 0.0530167 0.
0.587998 0.0530169 0.
0.589999 0.0530169 0.
0.591999 0.0530167 0.
0.594 0.0530165 0.
0.596 0.0530166 0.
0.598001 0.0530168 0.
0.600001 0.0530169 0.
0.602002 0.0530173 0.
0.604002 0.0530177 0.
0.606003 0.0530179 0.
0.608003 0.0530172 0.
0.610003 0.0530165 0.
0.612003 0.0530159 0.
0.614004 0.0530154 0.
0.616004 0.0530149 0.
0.618004 0.053015 0.
0.620004 0.0530153 0.
0.622004 0.0530157 0.
0.624005 0.0530152 0.
0.626005 0.0530147 0.
0.628005 0.0530141 0.
0.630005 0.0530133 0.
0.632006 0.0530125 0.
0.634006 0.0530119 0.
0.636006 0.0530118 0.
0.638006 0.0530116 0.
0.640006 0.0530114 0.
0.642007 0.0530112 0.
0.644007 0.0530109 0.
0.646007 0.0530102 0.
0.648007 0.0530093 0.
0.650007 0.0530084 0.
0.652007 0.0530076 0.
0.654008 0.0530069 0.
0.656008 0.0530062 0.
0.658008 0.0530058 0.
0.660009 0.0530053 0.
0.662009 0.0530051 0.
0.664011 0.0530052 0.
0.666012 0.0530053 0.
0.668012 0.0530053 0.
0.670013 0.0530052 0.
0.672014 0.053005 0.
0.674014 0.0530044 0.
0.676014 0.0530037 0.
0.678014 0.0530031 0.
0.680015 0.0530038 0.
0.682016 0.0530044 0.
0.684016 0.0530049 0.
0.686017 0.0530051 0.
0.688017 0.0530053 0.
0.690018 0.053006 0.
0.692019 0.0530072 0.
0.69402 0.0530084 0.
0.69602 0.0530103 0.
0.698021 0.0530124 0.
0.499984 0.0550093 0.
0.501984 0.0550075 0.
0.503985 0.055006 0.
0.505985 0.0550046 0.
0.507986 0.0550036 0.
0.509987 0.0550026 0.
0.511987 0.0550018 0.
0.513987 0.0550013 0.
0.515988 0.0550009 0.
0.517988 0.0550008 0.
0.519988 0.0550009 0.
0.521988 0.0550011 0.
0.523989 0.0550016 0.
0.52599 0.0550022 0.
0.527991 0.0550028 0.
0.529991 0.0550026 0.
0.531991 0.0550024 0.
0.533991 0.0550024 0.
0.535992 0.0550029 0.
0.537992 0.0550034 0.
0.539992 0.0550038 0.
0.541992 0.0550042 0.
0.543993 0.0550045 0.
0.545993 0.0550052 0.
0.547994 0.0550059 0.
0.549995 0.0550066 0.
0.551995 0.0550065 0.
0.553996 0.0550064 0.
0.555996 0.0550065 0.
0.557996 0.0550071 0.
0.559996 0.0550078 0.
0.561997 0.0550086 0.
0.563997 0.0550096 0.
0.565997 0.0550106 0.
0.567998 0.0550114 0.
0.569997 0.0550122 0.
0.571997 0.0550129 0.
0.573997 0.0550133 0.
0.575997 0.0550137 0.
0.577997 0.0550142 0.
0.579997 0.0550154 0.
0.581997 0.0550165 0.
0.583998 0.0550173 0.
0.585998 0.0550172 0.
0.587998 0.0550171 0.
0.589998 0.0550169 0.
0.591999 0.0550167 0.
0.594 0.0550165 0.
0.596001 0.0550165 0.
0.598001 0.0550164 0.
0.600001 0.0550163 0.
0.602002 0.0550173 0.
0.604002 0.0550183 0.
0.606003 0.0550188 0.
0.608003 0.0550178 0.
0.610003 0.0550169 0.
0.612003 0.055016 0.
0.614003 0.0550152 0.
0.616003 0.0550145 0.
0.618003 0.0550147 0.
0.620004 0.0550153 0.
0.622004 0.055016 0.
0.624004 0.0550155 0.
0.626005 0.0550149 0.
0.628005 0.0550143 0.
0.630006 0.0550134 0.
0.632006 0.0550126 0.
0.634006 0.0550119 0.
0.636006 0.0550117 0.
0.638006 0.0550115 0.
0.640006 0.055011 0.
0.642006 0.0550105 0.
0.644006 0.05501 0.
0.646006 0.0550094 0.
0.648006 0.0550088 0.
0.650005 0.0550082 0.
0.652005 0.0550074 0.
0.654006 0.0550065 0.
0.656006 0.0550057 0.
0.658006 0.055005 0.
0.660007 0.0550043 0.
0.662008 0.0550041 0.
0.664009 0.0550046 0.
0.66601 0.055005 0.
0.668011 0.055005 0.
0.670011 0.0550049 0.
0.672012 0.0550047 0.
0.674012 0.0550041 0.
0.676012 0.0550035 0.
0.678012 0.055003 0.
0.680013 0.0550037 0.
0.682014 0.0550043 0.
0.684014 0.0550048 0.
0.686015 0.0550049 0.
0.688016 0.055005 0.
0.690016 0.0550056 0.
0.692017 0.0550065 0.
0.694018 0.0550074 0.
0.696018 0.0550095 0.
0.698019 0.0550119 0.
0.499985 0.0570086 0.
0.501986 0.0570071 0.
0.503986 0.0570056 0.
0.505987 0.0570042 0.
0.507987 0.0570033 0.
0.509988 0.0570024 0.
0.511988 0.0570017 0.
0.513989 0.0570012 0.
0.51599 0.0570007 0.
0.51799 0.0570005 0.
0.51999 0.0570005 0.
0.52199 0.0570004 0.
0.523991 0.057001 0.
0.525991 0.0570016 0.
0.527992 0.0570022 0.
0.529992 0.0570023 0.
0.531992 0.0570025 0.
0.533993 0.0570026 0.
0.535993 0.0570028 0.
0.537993 0.057003 0.
0.539993 0.0570033 0.
0.541994 0.0570037 0.
0.543994 0.057004 0.
0.545995 0.0570046 0.
0.547995 0.0570052 0.
0.549995 0.0570057 0.
0.551996 0.057006 0.
0.553996 0.0570063 0.
0.555996 0.0570067 0.
0.557997 0.0570074 0.
0.559997 0.0570081 0.
0.561997 0.0570088 0.
0.563997 0.0570096 0.
0.565997 0.0570104 0.
0.567997 0.0570114 0.
0.569997 0.0570125 0.
0.571997 0.0570135 0.
0.573997 0.057014 0.
0.575997 0.0570144 0.
0.577997 0.0570148 0.
0.579997 0.0570156 0.
0.581997 0.0570164 0.
0.583998 0.0570169 0.
0.585998 0.0570172 0.
0.587999 0.0570174 0.
0.589999 0.0570174 0.
0.592 0.0570173 0.
0.594 0.0570171 0.
0.596 0.057017 0.
0.598001 0.0570167 0.
0.600001 0.0570165 0.
0.602002 0.0570172 0.
0.604002 0.0570178 0.
0.606003 0.0570182 0.
0.608003 0.0570174 0.
0.610004 0.0570166 0.
0.612004 0.0570159 0.
0.614004 0.0570152 0.
0.616004 0.0570146 0.
0.618004 0.0570148 0.
0.620004 0.0570156 0.
0.622004 0.0570163 0.
0.624004 0.0570155 0.
0.626004 0.0570146 0.
0.628005 0.0570136 0.
0.630005 0.0570131 0.
0.632005 0.0570126 0.
0.634005 0.0570121 0.
0.636005 0.0570118 0.
0.638005 0.0570116 0.
0.640005 0.0570112 0.
0.642005 0.0570108 0.
0.644006 0.0570104 0.
0.646006 0.0570096 0.
0.648005 0.0570087 0.
0.650005 0.0570079 0.
0.652005 0.057007 0.
0.654005 0.0570062 0.
0.656005 0.0570055 0.
0.658006 0.057005 0.
0.660006 0.0570045 0.
0.662007 0.0570043 0.
0.664008 0.0570045 0.
0.666009 0.0570046 0.
0.668009 0.0570046 0.
0.67001 0.0570044 0.
0.67201 0.0570042 0.
0.674011 0.0570038 0.
0.676011 0.0570033 0.
0.678011 0.0570029 0.
0.680011 0.0570035 0.
0.682012 0.0570041 0.
0.684013 0.0570046 0.
0.686013 0.0570046 0.
0.688014 0.0570047 0.
0.690015 0.0570054 0.
0.692015 0.0570066 0.
0.694016 0.0570078 0.
0.696017 0.0570097 0.
0.698018 0.0570118 0.
0.499987 0.0590078 0.
0.501987 0.0590067 0.
0.503988 0.0590052 0.
0.505988 0.0590039 0.
0.507989 0.0590031 0.
0.509989 0.0590022 0.
0.51199 0.0590015 0.
0.513991 0.059001 0.
0.515992 0.0590005 0.
0.517992 0.0590002 0.
0.519992 0.059 0.
0.521992 0.0589998 0.
0.523992 0.0590004 0.
0.525992 0.059001 0.
0.527993 0.0590017 0.
0.529993 0.0590021 0.
0.531994 0.0590025 0.
0.533994 0.0590028 0.
0.535994 0.0590027 0.
0.537994 0.0590026 0.
0.539994 0.0590028 0.
0.541995 0.0590032 0.
0.543996 0.0590036 0.
0.545996 0.059004 0.
0.547996 0.0590045 0.
0.549996 0.0590049 0.
0.551996 0.0590056 0.
0.553996 0.0590062 0.
0.555997 0.0590069 0.
0.557997 0.0590076 0.
0.559997 0.0590084 0.
0.561997 0.059009 0.
0.563997 0.0590096 0.
0.565996 0.0590103 0.
0.567996 0.0590114 0.
0.569997 0.0590127 0.
0.571997 0.0590141 0.
0.573997 0.0590146 0.
0.575997 0.0590151 0.
0.577998 0.0590155 0.
0.579998 0.0590158 0.
0.581997 0.0590162 0.
0.583998 0.0590166 0.
0.585999 0.0590171 0.
0.587999 0.0590177 0.
0.59 0.0590179 0.
0.592 0.0590178 0.
0.594 0.0590177 0.
0.596 0.0590174 0.
0.598 0.0590171 0.
0.600001 0.0590168 0.
0.602001 0.0590171 0.
0.604002 0.0590174 0.
0.606003 0.0590176 0.
0.608004 0.059017 0.
0.610004 0.0590164 0.
0.612005 0.0590158 0.
0.614004 0.0590153 0.
0.616004 0.0590147 0.
0.618004 0.059015 0.
0.620004 0.0590158 0.
0.622004 0.0590166 0.
0.624004 0.0590155 0.
0.626004 0.0590142 0.
0.628004 0.059013 0.
0.630004 0.0590128 0.
0.632004 0.0590126 0.
0.634004 0.0590123 0.
0.636004 0.059012 0.
0.638004 0.0590117 0.
0.640004 0.0590114 0.
0.642005 0.0590111 0.
0.644005 0.0590108 0.
0.646005 0.0590098 0.
0.648005 0.0590086 0.
0.650006 0.0590075 0.
0.652005 0.0590067 0.
0.654005 0.0590059 0.
0.656005 0.0590052 0.
0.658005 0.059005 0.
0.660006 0.0590047 0.
0.662006 0.0590045 0.
0.664007 0.0590044 0.
0.666007 0.0590043 0.
0.668008 0.0590041 0.
0.670008 0.0590039 0.
0.672009 0.0590038 0.
0.674009 0.0590034 0.
0.676009 0.0590031 0.
0.67801 0.0590028 0.
0.68001 0.0590034 0.
0.68201 0.0590039 0.
0.684011 0.0590043 0.
0.686012 0.0590044 0.
0.688012 0.0590044 0.
0.690013 0.0590052 0.
0.692014 0.0590067 0.
0.694014 0.0590081 0.
0.696015 0.0590099 0.
0.698016 0.0590117 0.
0.499989 0.0610073 0.
0.501989 0.0610062 0.
0.503989 0.0610048 0.
0.50599 0.0610036 0.
0.50799 0.0610028 0.
0.509991 0.061002 0.
0.511991 0.0610013 0.
0.513992 0.0610007 0.
0.515993 0.0610002 0.
0.517993 0.0609998 0.
0.519994 0.0609996 0.
0.521994 0.0609994 0.
0.523994 0.061 0.
0.525994 0.0610007 0.
0.527994 0.0610013 0.
0.529994 0.0610018 0.
0.531995 0.0610023 0.
0.533995 0.0610026 0.
0.535995 0.0610024 0.
0.537995 0.0610022 0.
0.539995 0.0610024 0.
0.541996 0.0610029 0.
0.543997 0.0610034 0.
0.545997 0.0610037 0.
0.547996 0.061004 0.
0.549996 0.0610042 0.
0.551996 0.0610052 0.
0.553997 0.0610061 0.
0.555997 0.061007 0.
0.557997 0.0610079 0.
0.559998 0.0610088 0.
0.561998 0.0610095 0.
0.563997 0.0610099 0.
0.565997 0.0610104 0.
0.567997 0.0610115 0.
0.569997 0.0610129 0.
0.571997 0.0610143 0.
0.573997 0.0610149 0.
0.575998 0.0610155 0.
0.577998 0.0610159 0.
0.579998 0.0610161 0.
0.581998 0.0610162 0.
0.583998 0.0610165 0.
0.585999 0.0610171 0.
0.588 0.0610177 0.
0.59 0.061018 0.
0.592 0.0610181 0.
0.593999 0.0610181 0.
0.596 0.0610178 0.
0.598 0.0610173 0.
0.6 0.0610168 0.
0.602001 0.061017 0.
0.604002 0.0610173 0.
0.606002 0.0610173 0.
0.608003 0.061017 0.
0.610004 0.0610166 0.
0.612004 0.0610162 0.
0.614004 0.0610158 0.
0.616004 0.0610155 0.
0.618004 0.0610156 0.
0.620003 0.0610161 0.
0.622003 0.0610166 0.
0.624003 0.0610155 0.
0.626003 0.0610143 0.
0.628003 0.0610132 0.
0.630003 0.061013 0.
0.632003 0.0610128 0.
0.634003 0.0610125 0.
0.636003 0.061012 0.
0.638003 0.0610116 0.
0.640004 0.0610112 0.
0.642004 0.061011 0.
0.644005 0.0610107 0.
0.646005 0.0610096 0.
0.648005 0.0610084 0.
0.650005 0.0610071 0.
0.652005 0.0610064 0.
0.654004 0.0610057 0.
0.656004 0.061005 0.
0.658004 0.0610048 0.
0.660005 0.0610046 0.
0.662005 0.0610044 0.
0.664006 0.0610041 0.
0.666006 0.0610039 0.
0.668006 0.0610037 0.
0.670007 0.0610034 0.
0.672007 0.0610031 0.
0.674008 0.0610029 0.
0.676008 0.0610027 0.
0.678008 0.0610026 0.
0.680009 0.0610031 0.
0.682009 0.0610037 0.
0.68401 0.0610041 0.
0.68601 0.0610041 0.
0.688011 0.0610042 0.
0.690012 0.0610051 0.
0.692012 0.0610067 0.
0.694012 0.0610082 0.
0.696013 0.06101 0.
0.698014 0.0610118 0.
0.499991 0.0630071 0.
0.501991 0.0630057 0.
0.503991 0.0630044 0.
0.505991 0.0630033 0.
0.507991 0.0630025 0.
0.509992 0.0630016 0.
0.511992 0.0630009 0.
0.513993 0.0630002 0.
0.515994 0.0629995 0.
0.517995 0.0629993 0.
0.519995 0.0629993 0.
0.521995 0.0629993 0.
0.523995 0.0629999 0.
0.525995 0.0630005 0.
0.527995 0.0630011 0.
0.529996 0.0630015 0.
0.531996 0.0630019 0.
0.533996 0.0630021 0.
0.535996 0.063002 0.
0.537996 0.0630018 0.
0.539996 0.0630021 0.
0.541996 0.0630027 0.
0.543996 0.0630034 0.
0.545996 0.0630036 0.
0.547996 0.0630037 0.
0.549996 0.0630038 0.
0.551997 0.0630048 0.
0.553998 0.0630059 0.
0.555998 0.0630069 0.
0.557998 0.0630081 0.
0.559998 0.0630093 0.
0.561998 0.0630101 0.
0.563998 0.0630105 0.
0.565997 0.0630109 0.
0.567997 0.0630118 0.
0.569997 0.063013 0.
0.571997 0.0630142 0.
0.573998 0.0630149 0.
0.575998 0.0630155 0.
0.577998 0.063016 0.
0.579998 0.0630163 0.
0.581999 0.0630165 0.
0.583999 0.0630168 0.
0.585999 0.0630172 0.
0.588 0.0630176 0.
0.59 0.0630179 0.
0.591999 0.0630181 0.
0.593999 0.0630183 0.
0.595999 0.0630179 0.
0.598 0.0630173 0.
0.6 0.0630167 0.
0.602001 0.063017 0.
0.604001 0.0630173 0.
0.606002 0.0630175 0.
0.608002 0.0630173 0.
0.610003 0.0630171 0.
0.612003 0.063017 0.
0.614003 0.0630169 0.
0.616003 0.0630168 0.
0.618003 0.0630166 0.
0.620003 0.0630164 0.
0.622003 0.0630162 0.
0.624003 0.0630155 0.
0.626003 0.0630148 0.
0.628003 0.0630141 0.
0.630002 0.0630136 0.
0.632002 0.0630132 0.
0.634002 0.0630126 0.
0.636003 0.063012 0.
0.638004 0.0630113 0.
0.640004 0.0630108 0.
0.642004 0.0630104 0.
0.644004 0.06301 0.
0.646004 0.063009 0.
0.648004 0.0630079 0.
0.650004 0.0630069 0.
0.652004 0.0630062 0.
0.654004 0.0630055 0.
0.656004 0.0630049 0.
0.658004 0.0630045 0.
0.660004 0.0630042 0.
0.662004 0.063004 0.
0.664004 0.0630038 0.
0.666005 0.0630035 0.
0.668005 0.0630032 0.
0.670006 0.0630027 0.
0.672007 0.0630023 0.
0.674007 0.0630022 0.
0.676007 0.0630022 0.
0.678008 0.0630022 0.
0.680008 0.0630028 0.
0.682009 0.0630033 0.
0.684009 0.0630037 0.
0.686009 0.0630039 0.
0.68801 0.0630041 0.
0.69001 0.063005 0.
0.692011 0.0630065 0.
0.694011 0.0630081 0.
0.696012 0.0630101 0.
0.698012 0.0630122 0.
0.499993 0.0650064 0.
0.501993 0.0650051 0.
0.503992 0.0650039 0.
0.505992 0.0650029 0.
0.507993 0.0650021 0.
0.509993 0.0650013 0.
0.511994 0.0650005 0.
0.513994 0.0649997 0.
0.515995 0.0649989 0.
0.517996 0.0649988 0.
0.519996 0.064999 0.
0.521997 0.0649993 0.
0.523997 0.0649998 0.
0.525997 0.0650004 0.
0.527996 0.0650009 0.
0.529997 0.0650012 0.
0.531997 0.0650015 0.
0.533997 0.0650016 0.
0.535997 0.0650015 0.
0.537996 0.0650014 0.
0.539996 0.0650018 0.
0.541996 0.0650026 0.
0.543996 0.0650034 0.
0.545996 0.0650035 0.
0.547997 0.0650034 0.
0.549997 0.0650033 0.
0.551998 0.0650045 0.
0.553999 0.0650056 0.
0.555999 0.0650068 0.
0.557999 0.0650083 0.
0.559999 0.0650098 0.
0.561999 0.0650108 0.
0.563998 0.0650111 0.
0.565998 0.0650114 0.
0.567998 0.0650122 0.
0.569998 0.0650131 0.
0.571998 0.0650141 0.
0.573998 0.0650148 0.
0.575998 0.0650155 0.
0.577998 0.0650162 0.
0.579999 0.0650164 0.
0.581999 0.0650167 0.
0.584 0.065017 0.
0.586 0.0650172 0.
0.588 0.0650174 0.
0.59 0.0650177 0.
0.591999 0.0650181 0.
0.593999 0.0650185 0.
0.595999 0.065018 0.
0.598 0.0650173 0.
0.6 0.0650166 0.
0.602001 0.065017 0.
0.604001 0.0650173 0.
0.606002 0.0650176 0.
0.608001 0.0650176 0.
0.610001 0.0650177 0.
0.612001 0.0650178 0.
0.614002 0.065018 0.
0.616003 0.0650182 0.
0.618003 0.0650176 0.
0.620003 0.0650167 0.
0.622003 0.0650158 0.
0.624002 0.0650155 0.
0.626002 0.0650153 0.
0.628002 0.065015 0.
0.630002 0.0650143 0.
0.632001 0.0650136 0.
0.634002 0.0650128 0.
0.636003 0.0650119 0.
0.638004 0.065011 0.
0.640004 0.0650104 0.
0.642004 0.0650098 0.
0.644004 0.0650093 0.
0.646004 0.0650084 0.
0.648004 0.0650075 0.
0.650003 0.0650066 0.
0.652003 0.0650059 0.
0.654003 0.0650053 0.
0.656003 0.0650047 0.
0.658003 0.0650043 0.
0.660003 0.0650039 0.
0.662003 0.0650036 0.
0.664003 0.0650034 0.
0.666004 0.0650032 0.
0.668004 0.0650027 0.
0.670005 0.0650021 0.
0.672006 0.0650015 0.
0.674006 0.0650015 0.
0.676006 0.0650017 0.
0.678007 0.0650018 0.
0.680007 0.0650024 0.
0.682008 0.065003 0.
0.684008 0.0650034 0.
0.686008 0.0650037 0.
0.688008 0.065004 0.
0.690009 0.0650049 0.
0.692009 0.0650064 0.
0.69401 0.0650079 0.
0.69601 0.0650101 0.
0.69801 0.0650126 0.
0.499994 0.0670063 0.
0.501993 0.0670053 0.
0.503993 0.0670045 0.
0.505993 0.0670037 0.
0.507994 0.0670022 0.
0.509994 0.0670007 0.
0.511994 0.0669997 0.
0.513995 0.0669992 0.
0.515995 0.0669988 0.
0.517996 0.0669987 0.
0.519996 0.0669987 0.
0.521997 0.0669988 0.
0.523997 0.0669993 0.
0.525997 0.067 0.
0.527997 0.0670005 0.
0.529997 0.0670008 0.
0.531997 0.067001 0.
0.533998 0.0670012 0.
0.535998 0.0670013 0.
0.537997 0.0670014 0.
0.539997 0.0670019 0.
0.541997 0.0670026 0.
0.543997 0.0670034 0.
0.545997 0.0670036 0.
0.547997 0.0670036 0.
0.549997 0.0670036 0.
0.551998 0.0670047 0.
0.553998 0.0670057 0.
0.555999 0.0670068 0.
0.557999 0.0670081 0.
0.559999 0.0670093 0.
0.561999 0.0670103 0.
0.563998 0.0670109 0.
0.565998 0.0670116 0.
0.567998 0.0670125 0.
0.569998 0.0670135 0.
0.571998 0.0670145 0.
0.573998 0.0670152 0.
0.575998 0.067016 0.
0.577999 0.0670166 0.
0.579999 0.0670169 0.
0.582 0.0670172 0.
0.584 0.0670174 0.
0.586 0.0670175 0.
0.588 0.0670176 0.
0.59 0.0670177 0.
0.591999 0.0670178 0.
0.593999 0.0670179 0.
0.595999 0.0670177 0.
0.598 0.0670175 0.
0.6 0.0670172 0.
0.602001 0.0670175 0.
0.604001 0.0670178 0.
0.606002 0.067018 0.
0.608001 0.0670178 0.
0.610001 0.0670176 0.
0.612001 0.0670176 0.
0.614002 0.0670177 0.
0.616002 0.0670178 0.
0.618002 0.0670175 0.
0.620002 0.0670169 0.
0.622002 0.0670163 0.
0.624002 0.0670159 0.
0.626002 0.0670155 0.
0.628001 0.067015 0.
0.630001 0.0670142 0.
0.632001 0.0670134 0.
0.634002 0.0670125 0.
0.636002 0.0670117 0.
0.638002 0.067011 0.
0.640002 0.0670103 0.
0.642002 0.0670099 0.
0.644002 0.0670094 0.
0.646003 0.0670085 0.
0.648003 0.0670074 0.
0.650003 0.0670064 0.
0.652003 0.0670059 0.
0.654003 0.0670054 0.
0.656003 0.0670048 0.
0.658002 0.0670044 0.
0.660002 0.067004 0.
0.662003 0.0670038 0.
0.664003 0.0670037 0.
0.666003 0.0670036 0.
0.668004 0.0670032 0.
0.670004 0.0670027 0.
0.672005 0.0670021 0.
0.674005 0.067002 0.
0.676006 0.067002 0.
0.678006 0.067002 0.
0.680006 0.0670024 0.
0.682006 0.0670029 0.
0.684006 0.0670034 0.
0.686006 0.0670038 0.
0.688006 0.0670043 0.
0.690007 0.0670051 0.
0.692008 0.0670062 0.
0.694008 0.0670074 0.
0.696009 0.067009 0.
0.69801 0.0670107 0.
0.499994 0.0690057 0.
0.501994 0.0690054 0.
0.503994 0.0690051 0.
0.505994 0.0690044 0.
0.507994 0.0690023 0.
0.509995 0.0690001 0.
0.511995 0.0689989 0.
0.513995 0.0689988 0.
0.515995 0.0689987 0.
0.517996 0.0689986 0.
0.519996 0.0689984 0.
0.521996 0.0689983 0.
0.523997 0.0689988 0.
0.525997 0.0689995 0.
0.527997 0.0690001 0.
0.529997 0.0690004 0.
0.531998 0.0690006 0.
0.533998 0.0690009 0.
0.535998 0.0690011 0.
0.537998 0.0690014 0.
0.539998 0.069002 0.
0.541998 0.0690027 0.
0.543998 0.0690034 0.
0.545997 0.0690037 0.
0.547998 0.0690038 0.
0.549998 0.0690039 0.
0.551998 0.0690049 0.
0.553998 0.0690058 0.
0.555998 0.0690068 0.
0.557998 0.0690078 0.
0.559998 0.0690088 0.
0.561999 0.0690098 0.
0.563999 0.0690108 0.
0.565999 0.0690117 0.
0.567998 0.0690127 0.
0.569998 0.0690138 0.
0.571998 0.0690149 0.
0.573998 0.0690156 0.
0.575999 0.0690164 0.
0.577999 0.0690171 0.
0.579999 0.0690174 0.
0.582 0.0690176 0.
0.584 0.0690178 0.
0.586 0.0690178 0.
0.588 0.0690178 0.
0.59 0.0690178 0.
0.592 0.0690176 0.
0.594 0.0690174 0.
0.596 0.0690175 0.
0.598 0.0690177 0.
0.6 0.0690178 0.
0.602001 0.0690181 0.
0.604002 0.0690183 0.
0.606002 0.0690184 0.
0.608002 0.069018 0.
0.610001 0.0690176 0.
0.612001 0.0690174 0.
0.614002 0.0690174 0.
0.616002 0.0690175 0.
0.618002 0.0690173 0.
0.620002 0.069017 0.
0.622002 0.0690168 0.
0.624001 0.0690162 0.
0.626001 0.0690157 0.
0.628001 0.0690151 0.
0.630001 0.0690141 0.
0.632002 0.0690132 0.
0.634002 0.0690123 0.
0.636001 0.0690116 0.
0.638 0.0690109 0.
0.64 0.0690103 0.
0.642001 0.0690099 0.
0.644001 0.0690095 0.
0.646001 0.0690085 0.
0.648002 0.0690073 0.
0.650002 0.0690062 0.
0.652002 0.0690058 0.
0.654002 0.0690054 0.
0.656002 0.069005 0.
0.658002 0.0690046 0.
0.660002 0.0690042 0.
0.662002 0.069004 0.
0.664002 0.069004 0.
0.666003 0.0690041 0.
0.668003 0.0690038 0.
0.670004 0.0690033 0.
0.672004 0.0690027 0.
0.674004 0.0690025 0.
0.676005 0.0690022 0.
0.678005 0.0690021 0.
0.680005 0.0690024 0.
0.682005 0.0690028 0.
0.684004 0.0690033 0.
0.686004 0.0690039 0.
0.688004 0.0690046 0.
0.690005 0.0690053 0.
0.692006 0.069006 0.
0.694007 0.0690068 0.
0.696008 0.0690078 0.
0.69801 0.0690088 0.
0.499995 0.0710053 0.
0.501995 0.0710051 0.
0.503995 0.071005 0.
0.505995 0.0710044 0.
0.507995 0.0710022 0.
0.509995 0.071 0.
0.511995 0.0709987 0.
0.513995 0.0709986 0.
0.515996 0.0709985 0.
0.517996 0.0709983 0.
0.519996 0.0709981 0.
0.521996 0.0709978 0.
0.523997 0.0709983 0.
0.525997 0.0709989 0.
0.527997 0.0709994 0.
0.529997 0.0709998 0.
0.531998 0.0710001 0.
0.533998 0.0710005 0.
0.535999 0.0710009 0.
0.537999 0.0710013 0.
0.539999 0.0710019 0.
0.541999 0.0710027 0.
0.543998 0.0710034 0.
0.545998 0.0710037 0.
0.547998 0.0710039 0.
0.549998 0.0710041 0.
0.551998 0.071005 0.
0.553998 0.0710058 0.
0.555998 0.0710067 0.
0.557998 0.0710078 0.
0.559998 0.0710088 0.
0.561998 0.0710098 0.
0.563999 0.0710109 0.
0.565999 0.071012 0.
0.567999 0.071013 0.
0.569998 0.0710139 0.
0.571998 0.0710148 0.
0.573998 0.0710156 0.
0.575999 0.0710164 0.
0.577999 0.0710172 0.
0.58 0.0710176 0.
0.582 0.0710179 0.
0.584 0.0710181 0.
0.586 0.0710181 0.
0.587999 0.0710181 0.
0.589999 0.0710179 0.
0.591999 0.0710175 0.
0.594 0.0710171 0.
0.596 0.0710174 0.
0.598 0.0710178 0.
0.6 0.0710182 0.
0.602001 0.0710185 0.
0.604002 0.0710188 0.
0.606002 0.0710189 0.
0.608002 0.0710183 0.
0.610001 0.0710177 0.
0.612001 0.0710173 0.
0.614002 0.0710173 0.
0.616002 0.0710173 0.
0.618002 0.0710172 0.
0.620002 0.0710172 0.
0.622001 0.0710171 0.
0.624001 0.0710164 0.
0.626001 0.0710156 0.
0.628001 0.0710148 0.
0.630001 0.071014 0.
0.632001 0.0710131 0.
0.634001 0.0710124 0.
0.636001 0.0710118 0.
0.638 0.0710112 0.
0.64 0.0710106 0.
0.642 0.07101 0.
0.644 0.0710093 0.
0.646 0.0710083 0.
0.648001 0.0710072 0.
0.650002 0.0710061 0.
0.652002 0.0710057 0.
0.654001 0.0710054 0.
0.656001 0.071005 0.
0.658001 0.0710046 0.
0.660001 0.0710041 0.
0.662001 0.071004 0.
0.664002 0.0710041 0.
0.666002 0.0710042 0.
0.668003 0.0710039 0.
0.670003 0.0710034 0.
0.672003 0.0710029 0.
0.674003 0.0710026 0.
0.676004 0.0710023 0.
0.678004 0.071002 0.
0.680004 0.0710023 0.
0.682004 0.0710025 0.
0.684003 0.071003 0.
0.686003 0.0710037 0.
0.688003 0.0710045 0.
0.690004 0.0710052 0.
0.692005 0.0710057 0.
0.694006 0.0710063 0.
0.696007 0.071007 0.
0.698009 0.0710078 0.
0.499996 0.0730049 0.
0.501996 0.0730046 0.
0.503996 0.0730043 0.
0.505996 0.0730038 0.
0.507996 0.073002 0.
0.509996 0.0730002 0.
0.511996 0.0729991 0.
0.513996 0.0729987 0.
0.515996 0.0729983 0.
0.517997 0.072998 0.
0.519997 0.0729977 0.
0.521997 0.0729974 0.
0.523997 0.0729976 0.
0.525997 0.0729979 0.
0.527997 0.0729983 0.
0.529998 0.072999 0.
0.531998 0.0729997 0.
0.533998 0.0730003 0.
0.535999 0.0730007 0.
0.537999 0.0730012 0.
0.539999 0.0730018 0.
0.541999 0.0730026 0.
0.543999 0.0730034 0.
0.545999 0.0730037 0.
0.547999 0.0730039 0.
0.549999 0.0730042 0.
0.551999 0.0730049 0.
0.553998 0.0730057 0.
0.555998 0.0730066 0.
0.557998 0.0730079 0.
0.559998 0.0730091 0.
0.561998 0.0730103 0.
0.563998 0.0730113 0.
0.565999 0.0730124 0.
0.567999 0.0730132 0.
0.569999 0.0730137 0.
0.571999 0.0730143 0.
0.573999 0.0730152 0.
0.575999 0.0730161 0.
0.577999 0.073017 0.
0.58 0.0730175 0.
0.582 0.073018 0.
0.584 0.0730184 0.
0.586 0.0730184 0.
0.587999 0.0730184 0.
0.589999 0.0730182 0.
0.591999 0.0730177 0.
0.593999 0.0730172 0.
0.595999 0.0730174 0.
0.598 0.0730178 0.
0.6 0.0730182 0.
0.602001 0.0730187 0.
0.604002 0.0730192 0.
0.606002 0.0730195 0.
0.608002 0.0730187 0.
0.610002 0.0730179 0.
0.612002 0.0730174 0.
0.614002 0.0730173 0.
0.616001 0.0730172 0.
0.618001 0.0730172 0.
0.620001 0.0730173 0.
0.622002 0.0730173 0.
0.624001 0.0730164 0.
0.626001 0.0730153 0.
0.628001 0.0730143 0.
0.630001 0.0730138 0.
0.632001 0.0730133 0.
0.634001 0.0730128 0.
0.636001 0.0730123 0.
0.638001 0.0730118 0.
0.64 0.0730111 0.
0.642 0.0730101 0.
0.644 0.0730091 0.
0.646 0.0730081 0.
0.648001 0.0730071 0.
0.650001 0.0730061 0.
0.652001 0.0730057 0.
0.654 0.0730052 0.
0.656 0.0730048 0.
0.658 0.0730044 0.
0.66 0.073004 0.
0.662001 0.0730038 0.
0.664001 0.0730039 0.
0.666001 0.073004 0.
0.668002 0.0730037 0.
0.670002 0.0730032 0.
0.672003 0.0730027 0.
0.674003 0.0730023 0.
0.676003 0.073002 0.
0.678003 0.0730017 0.
0.680003 0.0730019 0.
0.682003 0.073002 0.
0.684003 0.0730024 0.
0.686003 0.0730033 0.
0.688004 0.0730041 0.
0.690004 0.0730048 0.
0.692005 0.0730053 0.
0.694006 0.0730058 0.
0.696006 0.0730066 0.
0.698007 0.0730075 0.
0.499996 0.0750042 0.
0.501996 0.075004 0.
0.503996 0.0750037 0.
0.505996 0.0750031 0.
0.507997 0.0750018 0.
0.509997 0.0750004 0.
0.511997 0.0749994 0.
0.513997 0.0749988 0.
0.515997 0.0749981 0.
0.517997 0.0749977 0.
0.519997 0.0749973 0.
0.521997 0.074997 0.
0.523997 0.074997 0.
0.525997 0.074997 0.
0.527998 0.0749972 0.
0.529998 0.0749982 0.
0.531998 0.0749992 0.
0.533998 0.075 0.
0.535998 0.0750005 0.
0.537999 0.075001 0.
0.539999 0.0750017 0.
0.541999 0.0750025 0.
0.544 0.0750033 0.
0.546 0.0750038 0.
0.547999 0.075004 0.
0.549999 0.0750042 0.
0.551999 0.0750049 0.
0.553999 0.0750056 0.
0.555999 0.0750064 0.
0.557998 0.0750079 0.
0.559998 0.0750095 0.
0.561998 0.0750107 0.
0.563998 0.0750118 0.
0.565999 0.0750128 0.
0.567999 0.0750133 0.
0.569999 0.0750136 0.
0.571999 0.0750138 0.
0.573999 0.0750148 0.
0.575999 0.0750158 0.
0.577999 0.0750168 0.
0.58 0.0750175 0.
0.582 0.0750181 0.
0.584 0.0750186 0.
0.586 0.0750187 0.
0.587999 0.0750187 0.
0.589999 0.0750184 0.
0.591998 0.0750178 0.
0.593998 0.0750172 0.
0.595999 0.0750174 0.
0.598 0.0750178 0.
0.600001 0.0750183 0.
0.602001 0.0750189 0.
0.604002 0.0750196 0.
0.606002 0.07502 0.
0.608003 0.075019 0.
0.610003 0.075018 0.
0.612002 0.0750175 0.
0.614002 0.0750173 0.
0.616001 0.0750171 0.
0.618001 0.0750172 0.
0.620001 0.0750174 0.
0.622002 0.0750175 0.
0.624002 0.0750164 0.
0.626001 0.075015 0.
0.628001 0.0750138 0.
0.630001 0.0750136 0.
0.632001 0.0750134 0.
0.634001 0.0750132 0.
0.636001 0.0750129 0.
0.638001 0.0750125 0.
0.640001 0.0750116 0.
0.642 0.0750102 0.
0.644 0.0750088 0.
0.646 0.0750078 0.
0.648 0.075007 0.
0.65 0.0750061 0.
0.651999 0.0750056 0.
0.653999 0.0750051 0.
0.655998 0.0750046 0.
0.657999 0.0750042 0.
0.66 0.0750038 0.
0.662 0.0750036 0.
0.664 0.0750038 0.
0.666 0.0750039 0.
0.668001 0.0750035 0.
0.670002 0.075003 0.
0.672002 0.0750024 0.
0.674002 0.0750021 0.
0.676003 0.0750017 0.
0.678003 0.0750015 0.
0.680003 0.0750015 0.
0.682003 0.0750015 0.
0.684003 0.0750018 0.
0.686003 0.0750028 0.
0.688004 0.0750037 0.
0.690004 0.0750044 0.
0.692005 0.0750049 0.
0.694006 0.0750053 0.
0.696005 0.0750063 0.
0.698005 0.0750073 0.
0.499997 0.0770043 0.
0.501997 0.0770039 0.
0.503997 0.0770034 0.
0.505997 0.0770029 0.
0.507997 0.0770018 0.
0.509998 0.0770007 0.
0.511998 0.0769997 0.
0.513998 0.0769989 0.
0.515997 0.0769981 0.
0.517997 0.0769976 0.
0.519998 0.0769973 0.
0.521998 0.0769971 0.
0.523998 0.0769972 0.
0.525997 0.0769973 0.
0.527997 0.0769975 0.
0.529998 0.0769981 0.
0.531998 0.0769987 0.
0.533998 0.0769994 0.
0.535998 0.0770001 0.
0.537999 0.0770008 0.
0.539999 0.0770015 0.
0.541999 0.0770021 0.
0.543999 0.0770028 0.
0.545999 0.0770033 0.
0.547999 0.0770038 0.
0.549999 0.0770043 0.
0.551999 0.0770051 0.
0.553999 0.0770059 0.
0.555999 0.0770068 0.
0.557999 0.0770082 0.
0.559998 0.0770096 0.
0.561998 0.0770108 0.
0.563998 0.0770117 0.
0.565999 0.0770126 0.
0.567999 0.0770132 0.
0.569999 0.0770137 0.
0.571998 0.0770141 0.
0.573998 0.077015 0.
0.575999 0.0770159 0.
0.577999 0.0770168 0.
0.579999 0.0770175 0.
0.581999 0.0770182 0.
0.584 0.0770187 0.
0.585999 0.0770188 0.
0.587999 0.077019 0.
0.589999 0.0770187 0.
0.591999 0.0770181 0.
0.593998 0.0770174 0.
0.595999 0.0770179 0.
0.597999 0.0770187 0.
0.6 0.0770195 0.
0.602001 0.0770198 0.
0.604002 0.0770201 0.
0.606002 0.0770202 0.
0.608002 0.0770196 0.
0.610002 0.077019 0.
0.612002 0.0770185 0.
0.614002 0.0770182 0.
0.616002 0.0770179 0.
0.618001 0.0770177 0.
0.620001 0.0770175 0.
0.622001 0.0770174 0.
0.624001 0.0770164 0.
0.626001 0.0770154 0.
0.628001 0.0770144 0.
0.630001 0.0770139 0.
0.632001 0.0770135 0.
0.634001 0.0770131 0.
0.636001 0.077013 0.
0.638001 0.0770129 0.
0.640001 0.077012 0.
0.642 0.0770105 0.
0.644 0.077009 0.
0.646 0.0770081 0.
0.648 0.0770074 0.
0.65 0.0770067 0.
0.651999 0.0770057 0.
0.653999 0.0770047 0.
0.655999 0.0770039 0.
0.657999 0.0770039 0.
0.659999 0.0770039 0.
0.662 0.0770038 0.
0.664 0.0770035 0.
0.666 0.0770033 0.
0.668 0.0770029 0.
0.670001 0.0770024 0.
0.672002 0.077002 0.
0.674002 0.0770017 0.
0.676002 0.0770014 0.
0.678002 0.0770012 0.
0.680002 0.0770012 0.
0.682002 0.0770013 0.
0.684002 0.0770016 0.
0.686003 0.0770023 0.
0.688003 0.0770031 0.
0.690004 0.0770038 0.
0.692004 0.0770044 0.
0.694004 0.077005 0.
0.696004 0.0770059 0.
0.698004 0.0770068 0.
0.499999 0.0790044 0.
0.501998 0.0790038 0.
0.503998 0.0790032 0.
0.505998 0.0790026 0.
0.507998 0.0790018 0.
0.509998 0.0790009 0.
0.511998 0.079 0.
0.513998 0.078999 0.
0.515998 0.078998 0.
0.517998 0.0789975 0.
0.519998 0.0789974 0.
0.521998 0.0789972 0.
0.523998 0.0789974 0.
0.525997 0.0789976 0.
0.527997 0.0789978 0.
0.529998 0.0789981 0.
0.531998 0.0789983 0.
0.533998 0.0789987 0.
0.535998 0.0789997 0.
0.537998 0.0790006 0.
0.539998 0.0790012 0.
0.541999 0.0790017 0.
0.543999 0.0790022 0.
0.545999 0.0790029 0.
0.547999 0.0790037 0.
0.549999 0.0790045 0.
0.551999 0.0790053 0.
0.553999 0.0790062 0.
0.555999 0.0790071 0.
0.557999 0.0790085 0.
0.559999 0.0790098 0.
0.561999 0.0790109 0.
0.563999 0.0790117 0.
0.565998 0.0790124 0.
0.567998 0.0790131 0.
0.569998 0.0790138 0.
0.571998 0.0790144 0.
0.573998 0.0790152 0.
0.575998 0.079016 0.
0.577998 0.0790168 0.
0.579998 0.0790175 0.
0.581999 0.0790182 0.
0.583999 0.0790188 0.
0.585999 0.079019 0.
0.588 0.0790192 0.
0.59 0.079019 0.
0.591999 0.0790183 0.
0.593999 0.0790175 0.
0.595999 0.0790183 0.
0.597999 0.0790195 0.
0.6 0.0790207 0.
0.602 0.0790206 0.
0.604001 0.0790205 0.
0.606002 0.0790204 0.
0.608002 0.0790202 0.
0.610002 0.0790199 0.
0.612002 0.0790196 0.
0.614002 0.0790191 0.
0.616002 0.0790186 0.
0.618002 0.0790182 0.
0.620002 0.0790177 0.
0.622001 0.0790172 0.
0.624001 0.0790165 0.
0.626001 0.0790157 0.
0.628001 0.079015 0.
0.630001 0.0790142 0.
0.632001 0.0790135 0.
0.634001 0.079013 0.
0.636001 0.0790131 0.
0.638001 0.0790132 0.
0.64 0.0790124 0.
0.642 0.0790108 0.
0.644 0.0790091 0.
0.646 0.0790083 0.
0.647999 0.0790078 0.
0.649999 0.0790072 0.
0.651999 0.0790058 0.
0.653999 0.0790043 0.
0.655999 0.0790032 0.
0.657999 0.0790036 0.
0.659999 0.079004 0.
0.662 0.0790039 0.
0.664 0.0790033 0.
0.666 0.0790027 0.
0.668 0.0790023 0.
0.67 0.0790019 0.
0.672001 0.0790015 0.
0.674001 0.0790013 0.
0.676001 0.0790011 0.
0.678001 0.0790009 0.
0.680001 0.079001 0.
0.682001 0.079001 0.
0.684001 0.0790013 0.
0.686002 0.0790019 0.
0.688003 0.0790025 0.
0.690003 0.0790032 0.
0.692003 0.0790039 0.
0.694003 0.0790047 0.
0.696003 0.0790055 0.
0.698004 0.0790062 0.
0.499999 0.0810041 0.
0.501999 0.0810035 0.
0.503999 0.081003 0.
0.505999 0.0810024 0.
0.507999 0.0810018 0.
0.509999 0.0810012 0.
0.511999 0.0810003 0.
0.513998 0.0809993 0.
0.515998 0.0809982 0.
0.517998 0.0809976 0.
0.519998 0.0809974 0.
0.521999 0.0809971 0.
0.523998 0.0809973 0.
0.525998 0.0809976 0.
0.527998 0.0809978 0.
0.529998 0.080998 0.
0.531998 0.0809983 0.
0.533998 0.0809986 0.
0.535998 0.0809994 0.
0.537998 0.0810002 0.
0.539998 0.0810008 0.
0.541998 0.0810013 0.
0.543999 0.0810019 0.
0.545999 0.0810026 0.
0.547999 0.0810035 0.
0.549999 0.0810044 0.
0.551999 0.0810054 0.
0.553999 0.0810064 0.
0.555999 0.0810075 0.
0.557999 0.0810087 0.
0.559999 0.0810098 0.
0.561999 0.0810108 0.
0.563999 0.0810116 0.
0.565998 0.0810124 0.
0.567998 0.0810131 0.
0.569998 0.0810138 0.
0.571997 0.0810146 0.
0.573997 0.0810154 0.
0.575997 0.0810161 0.
0.577998 0.0810168 0.
0.579998 0.0810174 0.
0.581999 0.0810179 0.
0.583999 0.0810184 0.
0.585999 0.0810189 0.
0.588 0.0810194 0.
0.59 0.0810193 0.
0.591999 0.0810187 0.
0.593999 0.0810182 0.
0.595999 0.0810188 0.
0.597999 0.0810198 0.
0.6 0.0810209 0.
0.602 0.0810207 0.
0.604001 0.0810206 0.
0.606001 0.0810205 0.
0.608002 0.0810204 0.
0.610002 0.0810203 0.
0.612002 0.08102 0.
0.614002 0.0810194 0.
0.616002 0.0810189 0.
0.618002 0.0810183 0.
0.620002 0.0810178 0.
0.622001 0.0810173 0.
0.624001 0.0810166 0.
0.626001 0.0810159 0.
0.628001 0.0810153 0.
0.630001 0.0810146 0.
0.632001 0.0810139 0.
0.634001 0.0810134 0.
0.636001 0.0810134 0.
0.638001 0.0810134 0.
0.64 0.0810126 0.
0.642 0.0810111 0.
0.644 0.0810096 0.
0.646 0.0810087 0.
0.647999 0.081008 0.
0.649999 0.0810072 0.
0.651999 0.0810057 0.
0.653999 0.0810042 0.
0.655999 0.081003 0.
0.657999 0.0810034 0.
0.659999 0.0810038 0.
0.661999 0.0810038 0.
0.663999 0.0810032 0.
0.665999 0.0810026 0.
0.668 0.0810021 0.
0.67 0.0810017 0.
0.672 0.0810012 0.
0.674 0.0810009 0.
0.676 0.0810005 0.
0.678 0.0810002 0.
0.68 0.0810005 0.
0.682 0.0810007 0.
0.684001 0.081001 0.
0.686001 0.0810014 0.
0.688002 0.0810017 0.
0.690002 0.0810024 0.
0.692002 0.0810033 0.
0.694002 0.0810043 0.
0.696003 0.0810049 0.
0.698003 0.0810055 0.
0.499998 0.0830032 0.
0.501998 0.083003 0.
0.503998 0.0830027 0.
0.505999 0.0830024 0.
0.507999 0.0830019 0.
0.509999 0.0830013 0.
0.511999 0.0830006 0.
0.513999 0.0829996 0.
0.515999 0.0829986 0.
0.517999 0.0829979 0.
0.519999 0.0829973 0.
0.521999 0.0829967 0.
0.523999 0.0829969 0.
0.525999 0.0829972 0.
0.527999 0.0829975 0.
0.529999 0.0829981 0.
0.531999 0.0829986 0.
0.533999 0.0829991 0.
0.535998 0.0829993 0.
0.537998 0.0829996 0.
0.539998 0.0830001 0.
0.541998 0.0830009 0.
0.543999 0.0830017 0.
0.545999 0.0830025 0.
0.547999 0.0830033 0.
0.549998 0.0830041 0.
0.551998 0.0830054 0.
0.553998 0.0830066 0.
0.555998 0.0830078 0.
0.557998 0.0830087 0.
0.559998 0.0830096 0.
0.561998 0.0830106 0.
0.563998 0.0830116 0.
0.565998 0.0830126 0.
0.567998 0.0830133 0.
0.569997 0.083014 0.
0.571997 0.0830146 0.
0.573997 0.0830154 0.
0.575997 0.0830161 0.
0.577998 0.0830169 0.
0.579998 0.0830171 0.
0.581999 0.0830173 0.
0.583999 0.0830177 0.
0.586 0.0830185 0.
0.588 0.0830193 0.
0.59 0.0830196 0.
0.591999 0.0830194 0.
0.593999 0.0830192 0.
0.595999 0.0830194 0.
0.597999 0.0830197 0.
0.599999 0.08302 0.
0.602 0.0830202 0.
0.604 0.0830203 0.
0.606001 0.0830204 0.
0.608001 0.0830203 0.
0.610002 0.0830201 0.
0.612002 0.0830198 0.
0.614002 0.0830192 0.
0.616002 0.0830186 0.
0.618002 0.0830182 0.
0.620002 0.083018 0.
0.622002 0.0830177 0.
0.624002 0.0830169 0.
0.626001 0.083016 0.
0.628001 0.0830152 0.
0.630001 0.0830149 0.
0.632001 0.0830146 0.
0.634001 0.0830143 0.
0.636001 0.0830139 0.
0.638001 0.0830134 0.
0.640001 0.0830127 0.
0.642 0.0830116 0.
0.644 0.0830105 0.
0.646 0.0830093 0.
0.647999 0.083008 0.
0.649999 0.0830067 0.
0.651999 0.0830054 0.
0.653999 0.0830042 0.
0.655999 0.0830032 0.
0.657999 0.0830033 0.
0.659999 0.0830034 0.
0.661999 0.0830034 0.
0.663999 0.0830032 0.
0.665999 0.083003 0.
0.668 0.0830025 0.
0.67 0.0830018 0.
0.672 0.0830012 0.
0.674 0.0830005 0.
0.675999 0.0829998 0.
0.677999 0.0829992 0.
0.679999 0.0829998 0.
0.682 0.0830003 0.
0.684 0.0830008 0.
0.686 0.0830008 0.
0.688001 0.0830009 0.
0.690001 0.0830015 0.
0.692001 0.0830026 0.
0.694001 0.0830036 0.
0.696002 0.0830042 0.
0.698002 0.0830047 0.
0.499997 0.0850026 0.
0.501998 0.0850024 0.
0.503998 0.0850025 0.
0.505999 0.0850024 0.
0.507999 0.085002 0.
0.509999 0.0850015 0.
0.511999 0.0850008 0.
0.513999 0.0849999 0.
0.515999 0.084999 0.
0.517999 0.0849981 0.
0.519999 0.0849973 0.
0.521999 0.0849964 0.
0.523999 0.0849966 0.
0.525999 0.0849968 0.
0.528 0.0849972 0.
0.529999 0.0849981 0.
0.531999 0.084999 0.
0.533999 0.0849995 0.
0.535999 0.0849993 0.
0.537998 0.084999 0.
0.539998 0.0849995 0.
0.541999 0.0850005 0.
0.543999 0.0850015 0.
0.545999 0.0850023 0.
0.547998 0.0850031 0.
0.549998 0.0850039 0.
0.551998 0.0850053 0.
0.553998 0.0850067 0.
0.555998 0.085008 0.
0.557998 0.0850087 0.
0.559998 0.0850094 0.
0.561998 0.0850103 0.
0.563998 0.0850115 0.
0.565998 0.0850127 0.
0.567998 0.0850135 0.
0.569997 0.0850141 0.
0.571997 0.0850146 0.
0.573997 0.0850154 0.
0.575997 0.0850162 0.
0.577997 0.0850169 0.
0.579998 0.0850167 0.
0.581999 0.0850166 0.
0.583999 0.0850169 0.
0.586 0.0850181 0.
0.588 0.0850193 0.
0.59 0.0850199 0.
0.591999 0.0850201 0.
0.593999 0.0850202 0.
0.595999 0.08502 0.
0.597999 0.0850196 0.
0.599999 0.0850191 0.
0.602 0.0850196 0.
0.604 0.08502 0.
0.606001 0.0850204 0.
0.608001 0.0850202 0.
0.610002 0.08502 0.
0.612002 0.0850196 0.
0.614002 0.0850189 0.
0.616001 0.0850183 0.
0.618002 0.0850181 0.
0.620002 0.0850181 0.
0.622003 0.0850181 0.
0.624002 0.0850171 0.
0.626002 0.0850161 0.
0.628001 0.0850151 0.
0.630001 0.0850152 0.
0.632001 0.0850154 0.
0.634001 0.0850152 0.
0.636001 0.0850143 0.
0.638001 0.0850135 0.
0.640001 0.0850127 0.
0.642001 0.085012 0.
0.644 0.0850114 0.
0.646 0.0850098 0.
0.647999 0.085008 0.
0.649999 0.0850061 0.
0.651999 0.0850052 0.
0.654 0.0850042 0.
0.656 0.0850034 0.
0.657999 0.0850032 0.
0.659999 0.085003 0.
0.661999 0.0850029 0.
0.663999 0.0850032 0.
0.665999 0.0850034 0.
0.667999 0.0850029 0.
0.67 0.085002 0.
0.672 0.0850011 0.
0.673999 0.0850001 0.
0.675999 0.084999 0.
0.677999 0.0849982 0.
0.679999 0.0849991 0.
0.681999 0.085 0.
0.683999 0.0850005 0.
0.685999 0.0850002 0.
0.687999 0.085 0.
0.69 0.0850006 0.
0.692 0.0850018 0.
0.694 0.085003 0.
0.696001 0.0850035 0.
0.698002 0.0850038 0.
0.499998 0.0870029 0.
0.501999 0.0870027 0.
0.503999 0.0870023 0.
0.505999 0.087002 0.
0.507999 0.0870018 0.
0.51 0.0870015 0.
0.512 0.0870009 0.
0.514 0.0869998 0.
0.516 0.0869987 0.
0.517999 0.0869978 0.
0.519999 0.0869972 0.
0.521999 0.0869965 0.
0.523999 0.0869968 0.
0.525999 0.0869971 0.
0.528 0.0869975 0.
0.529999 0.0869982 0.
0.531999 0.0869988 0.
0.533999 0.0869992 0.
0.535999 0.0869994 0.
0.537999 0.0869995 0.
0.539999 0.087 0.
0.541999 0.0870008 0.
0.543998 0.0870016 0.
0.545998 0.0870024 0.
0.547998 0.0870034 0.
0.549998 0.0870043 0.
0.551997 0.0870055 0.
0.553997 0.0870067 0.
0.555997 0.0870078 0.
0.557997 0.0870085 0.
0.559998 0.0870092 0.
0.561998 0.0870102 0.
0.563998 0.0870116 0.
0.565998 0.087013 0.
0.567997 0.0870139 0.
0.569997 0.0870146 0.
0.571997 0.0870152 0.
0.573997 0.0870158 0.
0.575997 0.0870162 0.
0.577997 0.0870167 0.
0.579997 0.0870168 0.
0.581998 0.0870168 0.
0.583998 0.0870171 0.
0.585998 0.0870179 0.
0.587999 0.0870186 0.
0.589999 0.0870193 0.
0.591998 0.08702 0.
0.593998 0.0870206 0.
0.595999 0.0870205 0.
0.597999 0.0870202 0.
0.599999 0.0870198 0.
0.601999 0.0870202 0.
0.604 0.0870206 0.
0.606 0.0870208 0.
0.608 0.0870203 0.
0.610001 0.0870198 0.
0.612001 0.0870193 0.
0.614001 0.0870187 0.
0.616001 0.0870182 0.
0.618001 0.0870179 0.
0.620002 0.0870178 0.
0.622002 0.0870176 0.
0.624002 0.0870169 0.
0.626001 0.0870161 0.
0.628001 0.0870154 0.
0.630001 0.0870153 0.
0.632 0.0870153 0.
0.634 0.0870151 0.
0.636001 0.0870146 0.
0.638001 0.0870141 0.
0.640001 0.0870133 0.
0.642 0.0870122 0.
0.644 0.0870111 0.
0.646 0.0870097 0.
0.648 0.0870083 0.
0.65 0.0870068 0.
0.652 0.0870058 0.
0.653999 0.0870049 0.
0.655999 0.087004 0.
0.657999 0.0870035 0.
0.659999 0.087003 0.
0.661999 0.0870027 0.
0.663999 0.0870028 0.
0.665999 0.0870029 0.
0.667999 0.0870025 0.
0.67 0.0870017 0.
0.672 0.087001 0.
0.673999 0.0870001 0.
0.675999 0.0869992 0.
0.677999 0.0869985 0.
0.679999 0.0869991 0.
0.681999 0.0869997 0.
0.683999 0.0870001 0.
0.685999 0.087 0.
0.687999 0.0869999 0.
0.689999 0.0870004 0.
0.691999 0.0870014 0.
0.693998 0.0870024 0.
0.695999 0.087003 0.
0.698 0.0870035 0.
0.499999 0.0890037 0.
0.501999 0.089003 0.
0.504 0.0890022 0.
0.506 0.0890016 0.
0.508 0.0890016 0.
0.51 0.0890016 0.
0.512 0.089001 0.
0.514 0.0889997 0.
0.516 0.0889983 0.
0.517999 0.0889975 0.
0.519999 0.0889971 0.
0.521999 0.0889966 0.
0.523999 0.088997 0.
0.525999 0.0889975 0.
0.527999 0.0889979 0.
0.529999 0.0889982 0.
0.531999 0.0889986 0.
0.533998 0.088999 0.
0.535999 0.0889995 0.
0.537999 0.0889999 0.
0.539999 0.0890005 0.
0.541998 0.089001 0.
0.543998 0.0890016 0.
0.545998 0.0890025 0.
0.547998 0.0890036 0.
0.549997 0.0890047 0.
0.551997 0.0890057 0.
0.553996 0.0890066 0.
0.555995 0.0890076 0.
0.557996 0.0890083 0.
0.559997 0.0890091 0.
0.561997 0.0890102 0.
0.563997 0.0890117 0.
0.565997 0.0890132 0.
0.567997 0.0890142 0.
0.569997 0.089015 0.
0.571997 0.0890158 0.
0.573997 0.0890161 0.
0.575997 0.0890163 0.
0.577997 0.0890165 0.
0.579997 0.0890168 0.
0.581997 0.0890171 0.
0.583997 0.0890174 0.
0.585997 0.0890177 0.
0.587997 0.089018 0.
0.589997 0.0890188 0.
0.591998 0.0890199 0.
0.593998 0.089021 0.
0.595998 0.089021 0.
0.597999 0.0890208 0.
0.6 0.0890205 0.
0.601999 0.0890208 0.
0.603999 0.0890212 0.
0.605999 0.0890213 0.
0.608 0.0890205 0.
0.61 0.0890197 0.
0.612 0.089019 0.
0.614 0.0890185 0.
0.616 0.089018 0.
0.618001 0.0890177 0.
0.620001 0.0890175 0.
0.622001 0.0890172 0.
0.624001 0.0890167 0.
0.626001 0.0890162 0.
0.628001 0.0890157 0.
0.63 0.0890154 0.
0.632 0.0890152 0.
0.634 0.089015 0.
0.636 0.0890149 0.
0.638 0.0890148 0.
0.64 0.0890139 0.
0.642 0.0890124 0.
0.644 0.0890109 0.
0.646 0.0890097 0.
0.648 0.0890085 0.
0.65 0.0890074 0.
0.652 0.0890064 0.
0.653999 0.0890055 0.
0.655999 0.0890046 0.
0.657999 0.0890037 0.
0.659999 0.0890029 0.
0.661999 0.0890025 0.
0.663999 0.0890024 0.
0.665999 0.0890024 0.
0.667999 0.089002 0.
0.67 0.0890014 0.
0.672 0.0890009 0.
0.674 0.0890002 0.
0.675999 0.0889995 0.
0.677999 0.0889989 0.
0.679999 0.0889992 0.
0.681999 0.0889995 0.
0.683998 0.0889998 0.
0.685998 0.0889998 0.
0.687998 0.0889998 0.
0.689998 0.0890003 0.
0.691997 0.089001 0.
0.693997 0.0890018 0.
0.695997 0.0890025 0.
0.697998 0.0890032 0.
0.5 0.0910035 0.
0.502 0.0910031 0.
0.504 0.0910023 0.
0.506 0.0910017 0.
0.508 0.0910015 0.
0.510001 0.0910014 0.
0.512001 0.0910007 0.
0.514 0.0909994 0.
0.516 0.090998 0.
0.518 0.0909973 0.
0.519999 0.0909969 0.
0.521999 0.0909966 0.
0.523999 0.0909971 0.
0.525999 0.0909977 0.
0.527999 0.0909983 0.
0.529999 0.0909984 0.
0.531998 0.0909986 0.
0.533998 0.0909989 0.
0.535999 0.0909995 0.
0.537999 0.0910002 0.
0.539999 0.0910008 0.
0.541998 0.0910015 0.
0.543997 0.0910022 0.
0.545997 0.0910032 0.
0.547997 0.0910042 0.
0.549997 0.0910053 0.
0.551996 0.091006 0.
0.553995 0.0910067 0.
0.555995 0.0910075 0.
0.557996 0.0910082 0.
0.559997 0.0910088 0.
0.561997 0.0910099 0.
0.563997 0.0910116 0.
0.565997 0.0910132 0.
0.567997 0.0910144 0.
0.569996 0.0910153 0.
0.571996 0.0910162 0.
0.573996 0.0910163 0.
0.575996 0.0910163 0.
0.577996 0.0910163 0.
0.579996 0.0910167 0.
0.581996 0.0910171 0.
0.583996 0.0910174 0.
0.585996 0.0910177 0.
0.587996 0.0910179 0.
0.589996 0.0910187 0.
0.591997 0.0910198 0.
0.593997 0.091021 0.
0.595998 0.0910212 0.
0.597999 0.091021 0.
0.6 0.0910209 0.
0.602 0.0910212 0.
0.603999 0.0910215 0.
0.605999 0.0910215 0.
0.608 0.0910206 0.
0.61 0.0910197 0.
0.612 0.0910189 0.
0.614 0.0910185 0.
0.616 0.091018 0.
0.618 0.0910177 0.
0.62 0.0910174 0.
0.622 0.0910171 0.
0.624 0.0910167 0.
0.626 0.0910162 0.
0.628 0.0910158 0.
0.63 0.0910156 0.
0.632 0.0910153 0.
0.634 0.0910151 0.
0.636 0.091015 0.
0.638 0.0910149 0.
0.64 0.0910139 0.
0.642 0.0910124 0.
0.644 0.0910108 0.
0.646 0.0910097 0.
0.648 0.0910086 0.
0.65 0.0910075 0.
0.652 0.0910066 0.
0.653999 0.0910058 0.
0.655998 0.091005 0.
0.657999 0.091004 0.
0.659999 0.091003 0.
0.661999 0.0910024 0.
0.663999 0.0910022 0.
0.665999 0.0910021 0.
0.667999 0.0910017 0.
0.67 0.0910012 0.
0.672 0.0910007 0.
0.673999 0.0910001 0.
0.675999 0.0909996 0.
0.677998 0.0909991 0.
0.679998 0.0909993 0.
0.681998 0.0909994 0.
0.683998 0.0909995 0.
0.685998 0.0909997 0.
0.687998 0.0909999 0.
0.689997 0.0910003 0.
0.691997 0.0910008 0.
0.693996 0.0910014 0.
0.695996 0.0910019 0.
0.697997 0.0910026 0.
0.500001 0.0930033 0.
0.502001 0.0930029 0.
0.504 0.0930026 0.
0.506 0.0930022 0.
0.508 0.0930015 0.
0.51 0.0930009 0.
0.512 0.093 0.
0.514 0.0929989 0.
0.516 0.0929978 0.
0.518 0.0929972 0.
0.52 0.0929967 0.
0.521999 0.0929963 0.
0.523999 0.0929971 0.
0.525999 0.092998 0.
0.527999 0.0929988 0.
0.529998 0.0929987 0.
0.531998 0.0929987 0.
0.533998 0.0929989 0.
0.535998 0.0929995 0.
0.537999 0.0930001 0.
0.539999 0.0930011 0.
0.541998 0.0930022 0.
0.543997 0.0930034 0.
0.545997 0.0930043 0.
0.547997 0.0930052 0.
0.549996 0.093006 0.
0.551996 0.0930065 0.
0.553996 0.093007 0.
0.555995 0.0930075 0.
0.557996 0.093008 0.
0.559996 0.0930085 0.
0.561996 0.0930096 0.
0.563996 0.0930114 0.
0.565996 0.0930132 0.
0.567996 0.0930145 0.
0.569996 0.0930154 0.
0.571996 0.0930164 0.
0.573996 0.0930164 0.
0.575996 0.0930162 0.
0.577996 0.0930161 0.
0.579996 0.0930164 0.
0.581996 0.0930168 0.
0.583997 0.0930173 0.
0.585996 0.0930179 0.
0.587996 0.0930184 0.
0.589996 0.0930191 0.
0.591997 0.0930198 0.
0.593997 0.0930206 0.
0.595998 0.0930209 0.
0.597998 0.093021 0.
0.599999 0.0930212 0.
0.602 0.0930214 0.
0.604 0.0930216 0.
0.606 0.0930216 0.
0.608 0.0930207 0.
0.61 0.0930198 0.
0.612 0.0930191 0.
0.614 0.0930186 0.
0.616 0.0930181 0.
0.618 0.0930178 0.
0.62 0.0930175 0.
0.622 0.0930173 0.
0.624 0.0930168 0.
0.626 0.0930162 0.
0.628 0.0930157 0.
0.630001 0.0930157 0.
0.632001 0.0930157 0.
0.634001 0.0930154 0.
0.636001 0.0930149 0.
0.638001 0.0930144 0.
0.640001 0.0930135 0.
0.642001 0.0930122 0.
0.644001 0.093011 0.
0.646 0.0930097 0.
0.648 0.0930084 0.
0.65 0.093007 0.
0.651999 0.0930065 0.
0.653999 0.0930059 0.
0.655999 0.0930052 0.
0.657999 0.0930042 0.
0.659999 0.0930031 0.
0.661999 0.0930024 0.
0.663999 0.0930022 0.
0.665999 0.0930019 0.
0.667999 0.0930015 0.
0.669999 0.0930009 0.
0.671999 0.0930004 0.
0.673998 0.093 0.
0.675998 0.0929996 0.
0.677997 0.0929992 0.
0.679997 0.0929992 0.
0.681997 0.0929992 0.
0.683997 0.0929994 0.
0.685997 0.0929998 0.
0.687997 0.0930002 0.
0.689997 0.0930006 0.
0.691996 0.0930009 0.
0.693996 0.0930011 0.
0.695996 0.0930014 0.
0.697996 0.0930017 0.
0.500001 0.0950025 0.
0.502001 0.0950028 0.
0.504001 0.0950029 0.
0.506 0.0950028 0.
0.508 0.0950016 0.
0.51 0.0950004 0.
0.512 0.0949994 0.
0.514 0.0949985 0.
0.516 0.0949976 0.
0.518 0.094997 0.
0.52 0.0949965 0.
0.522 0.094996 0.
0.523999 0.094997 0.
0.525999 0.0949982 0.
0.527998 0.0949992 0.
0.529998 0.094999 0.
0.531998 0.0949989 0.
0.533998 0.0949989 0.
0.535998 0.0949995 0.
0.537999 0.0950001 0.
0.539998 0.0950013 0.
0.541997 0.0950029 0.
0.543997 0.0950045 0.
0.545996 0.0950054 0.
0.547996 0.0950061 0.
0.549996 0.0950067 0.
0.551996 0.095007 0.
0.553996 0.0950073 0.
0.555996 0.0950075 0.
0.557996 0.0950078 0.
0.559996 0.0950081 0.
0.561996 0.0950092 0.
0.563996 0.0950112 0.
0.565996 0.0950131 0.
0.567996 0.0950145 0.
0.569995 0.0950156 0.
0.571995 0.0950166 0.
0.573995 0.0950164 0.
0.575995 0.095016 0.
0.577995 0.0950158 0.
0.579996 0.0950162 0.
0.581996 0.0950166 0.
0.583997 0.0950171 0.
0.585996 0.095018 0.
0.587996 0.0950189 0.
0.589996 0.0950195 0.
0.591996 0.0950198 0.
0.593997 0.0950202 0.
0.595997 0.0950206 0.
0.597998 0.095021 0.
0.599999 0.0950214 0.
0.602 0.0950216 0.
0.604001 0.0950217 0.
0.606001 0.0950217 0.
0.608001 0.0950208 0.
0.610001 0.09502 0.
0.612 0.0950192 0.
0.614 0.0950187 0.
0.616 0.0950181 0.
0.618 0.0950178 0.
0.62 0.0950177 0.
0.622 0.0950175 0.
0.624 0.0950169 0.
0.626 0.0950163 0.
0.628 0.0950157 0.
0.630001 0.0950158 0.
0.632001 0.095016 0.
0.634002 0.0950157 0.
0.636001 0.0950148 0.
0.638001 0.0950139 0.
0.640001 0.095013 0.
0.642001 0.0950121 0.
0.644001 0.0950112 0.
0.646 0.0950097 0.
0.648 0.0950082 0.
0.649999 0.0950066 0.
0.651999 0.0950063 0.
0.653999 0.095006 0.
0.655999 0.0950055 0.
0.657999 0.0950044 0.
0.659999 0.0950032 0.
0.661999 0.0950025 0.
0.663999 0.0950021 0.
0.665999 0.0950018 0.
0.667999 0.0950013 0.
0.669999 0.0950007 0.
0.671998 0.0950002 0.
0.673997 0.0949998 0.
0.675996 0.0949996 0.
0.677996 0.0949993 0.
0.679996 0.0949992 0.
0.681996 0.0949991 0.
0.683996 0.0949992 0.
0.685996 0.0949999 0.
0.687997 0.0950005 0.
0.689997 0.0950008 0.
0.691996 0.0950009 0.
0.693996 0.0950009 0.
0.695996 0.0950009 0.
0.697996 0.0950009 0.
0.500002 0.0970032 0.
0.502002 0.0970031 0.
0.504002 0.0970029 0.
0.506002 0.0970024 0.
0.508001 0.0970013 0.
0.510001 0.0970001 0.
0.512 0.0969992 0.
0.514 0.0969986 0.
0.516 0.0969981 0.
0.518 0.0969977 0.
0.52 0.0969974 0.
0.521999 0.0969971 0.
0.523999 0.0969978 0.
0.525998 0.0969985 0.
0.527998 0.0969992 0.
0.529998 0.0969992 0.
0.531997 0.0969991 0.
0.533997 0.0969992 0.
0.535997 0.0969997 0.
0.537997 0.0970001 0.
0.539997 0.0970012 0.
0.541997 0.0970029 0.
0.543997 0.0970047 0.
0.545996 0.0970054 0.
0.547996 0.097006 0.
0.549996 0.0970065 0.
0.551996 0.0970068 0.
0.553996 0.097007 0.
0.555996 0.0970073 0.
0.557995 0.0970078 0.
0.559995 0.0970083 0.
0.561995 0.0970094 0.
0.563995 0.0970111 0.
0.565994 0.0970128 0.
0.567995 0.0970144 0.
0.569995 0.097016 0.
0.571995 0.0970176 0.
0.573995 0.0970172 0.
0.575995 0.0970165 0.
0.577995 0.097016 0.
0.579996 0.0970163 0.
0.581997 0.0970166 0.
0.583997 0.0970171 0.
0.585997 0.0970179 0.
0.587996 0.0970187 0.
0.589996 0.0970193 0.
0.591996 0.0970197 0.
0.593996 0.0970201 0.
0.595997 0.0970205 0.
0.597998 0.0970208 0.
0.6 0.0970211 0.
0.602 0.0970215 0.
0.604001 0.0970219 0.
0.606001 0.0970219 0.
0.608001 0.0970209 0.
0.610001 0.0970198 0.
0.612001 0.0970191 0.
0.614001 0.0970188 0.
0.616001 0.0970186 0.
0.618001 0.0970183 0.
0.620001 0.0970181 0.
0.622001 0.0970178 0.
0.624001 0.0970172 0.
0.626001 0.0970165 0.
0.628001 0.0970159 0.
0.630001 0.0970159 0.
0.632002 0.097016 0.
0.634003 0.0970157 0.
0.636002 0.0970147 0.
0.638002 0.0970137 0.
0.640002 0.0970129 0.
0.642002 0.0970121 0.
0.644002 0.0970113 0.
0.646002 0.0970096 0.
0.648001 0.0970077 0.
0.65 0.0970057 0.
0.652 0.0970058 0.
0.654001 0.0970058 0.
0.656001 0.0970056 0.
0.658 0.0970045 0.
0.66 0.0970034 0.
0.662 0.0970026 0.
0.664 0.0970021 0.
0.666 0.0970017 0.
0.667999 0.0970013 0.
0.669999 0.0970009 0.
0.671999 0.0970005 0.
0.673998 0.0970003 0.
0.675997 0.0970002 0.
0.677996 0.0970001 0.
0.679996 0.0969998 0.
0.681996 0.0969996 0.
0.683996 0.0969996 0.
0.685996 0.0970001 0.
0.687996 0.0970007 0.
0.689996 0.097001 0.
0.691996 0.097001 0.
0.693996 0.0970009 0.
0.695996 0.0970011 0.
0.697996 0.0970014 0.
0.500001 0.0990035 0.
0.502002 0.0990034 0.
0.504003 0.0990028 0.
0.506003 0.0990021 0.
0.508002 0.099001 0.
0.510001 0.0989998 0.
0.512001 0.098999 0.
0.514001 0.0989988 0.
0.516001 0.0989985 0.
0.518 0.0989984 0.
0.519999 0.0989982 0.
0.521999 0.0989981 0.
0.523998 0.0989985 0.
0.525998 0.0989989 0.
0.527998 0.0989992 0.
0.529997 0.0989993 0.
0.531997 0.0989994 0.
0.533996 0.0989995 0.
0.535996 0.0989998 0.
0.537996 0.099 0.
0.539996 0.0990011 0.
0.541996 0.099003 0.
0.543997 0.0990048 0.
0.545997 0.0990055 0.
0.547997 0.0990058 0.
0.549997 0.0990062 0.
0.551996 0.0990065 0.
0.553996 0.0990068 0.
0.555996 0.0990072 0.
0.557995 0.0990079 0.
0.559994 0.0990086 0.
0.561994 0.0990096 0.
0.563993 0.099011 0.
0.565993 0.0990124 0.
0.567993 0.0990143 0.
0.569994 0.0990165 0.
0.571995 0.0990186 0.
0.573995 0.099018 0.
0.575995 0.099017 0.
0.577995 0.0990161 0.
0.579996 0.0990164 0.
0.581997 0.0990166 0.
0.583997 0.099017 0.
0.585997 0.0990178 0.
0.587996 0.0990185 0.
0.589996 0.0990191 0.
0.591996 0.0990196 0.
0.593996 0.0990201 0.
0.595997 0.0990203 0.
0.597999 0.0990205 0.
0.6 0.0990207 0.
0.602001 0.0990214 0.
0.604001 0.099022 0.
0.606001 0.0990222 0.
0.608002 0.0990209 0.
0.610002 0.0990196 0.
0.612002 0.0990189 0.
0.614002 0.099019 0.
0.616001 0.099019 0.
0.618001 0.0990188 0.
0.620001 0.0990184 0.
0.622002 0.0990181 0.
0.624001 0.0990174 0.
0.626001 0.0990167 0.
0.628001 0.0990161 0.
0.630002 0.099016 0.
0.632003 0.099016 0.
0.634003 0.0990156 0.
0.636004 0.0990146 0.
0.638004 0.0990135 0.
0.640004 0.0990127 0.
0.642004 0.0990121 0.
0.644004 0.0990114 0.
0.646003 0.0990095 0.
0.648002 0.0990071 0.
0.650002 0.0990048 0.
0.652002 0.0990052 0.
0.654002 0.0990056 0.
0.656002 0.0990057 0.
0.658001 0.0990046 0.
0.66 0.0990035 0.
0.662 0.0990026 0.
0.664 0.0990021 0.
0.666 0.0990016 0.
0.668 0.0990013 0.
0.669999 0.099001 0.
0.671999 0.0990008 0.
0.673998 0.0990008 0.
0.675997 0.0990008 0.
0.677996 0.0990008 0.
0.679996 0.0990004 0.
0.681995 0.099 0.
0.683995 0.0989999 0.
0.685995 0.0990004 0.
0.687996 0.0990009 0.
0.689996 0.0990012 0.
0.691995 0.0990011 0.
0.693995 0.099001 0.
0.695995 0.0990014 0.
0.697995 0.099002 0.
CELLS 5000 10000
1 0
1 1
1 2
1 3
1 4
1 5
1 6
1 7
1 8
1 9
1 10
1 11
1 12
1 13
1 14
1 15
1 16
1 17
1 18
1 19
1 20
1 21
1 22
1 23
1 24
1 25
1 26
1 27
1 28
1 29
1 30
1 31
1 32
1 33
1 34
1 35
1 36
1 37
1 38
1 39
1 40
1 41
1 42
1 43
1 44
1 45
1 46
1 47
1 48
1 49
1 50
1 51
1 52
1 53
1 54
1 55
1 56
1 57
1 58
1 59
1 60
1 61
1 62
1 63
1 64
1 65
1 66
1 67
1 68
1 69
1 70
1 71
1 72
1 73
1 74
1 75
1 76
1 77
1 78
1 79
1 80
1 81
1 82
1 83
1 84
1 85
1 86
1 87
1 88
1 89
1 90
1 91
1 92
1 93
1 94
1 95
1 96
1 97
1 98
1 99
1 100
1 101
1 102
1 103
1 104
1 105
1 106
1 107
1 108
1 109
1 110
1 111
1 112
1 113
1 114
1 115
1 116
1 117
1 118
1 119
1 120
1 121
1 122
1 123
1 124
1 125
1 126
1 127
1 128
1 129
1 130
1 131
1 132
1 133
1 134
1 135
1 136
1 137
1 138
1 139
1 140
1 141
1 142
1 143
1 144
1 145
1 146
1 147
1 148
1 149
1 150
1 151
1 152
1 153
1 154
1 155
1 156
1 157
1 158
1 159
1 160
1 161
1 162
1 163
1 164
1 165
1 166
1 167
1 168
1 169
1 170
1 171
1 172
1 173
1 174
1 175
1 176
1 177
1 178
1 179
1 180
1 181
1 182
1 183
1 184
1 185
1 186
1 187
1 188
1 189
1 190
1 191
1 192
1 193
1 194
1 195
1 196
1 197
1 198
1 199
1 200
1 201
1 202
1 203
1 204
1 205
1 206
1 207
1 208
1 209
1 210
1 211
1 212
1 213
1 214
1 215
1 216
1 217
1 218
1 219
1 220
1 221
1 222
1 223
1 224
1 225
1 226
1 227
1 228
1 229
1 230
1 231
1 232
1 233
1 234
1 235
1 236
1 237
1 238
1 239
1 240
1 241
1 242
1 243
1 244
1 245
1 246
1 247
1 248
1 249
1 250
1 251
1 252
1 253
1 254
1 255
1 256
1 257
1 258
1 259
1 260
1 261
1 262
1 263
1 264
1 265
1 266
1 267
1 268
1 269
1 270
1 271
1 272
1 273
1 274
1 275
1 276
1 277
1 278
1 279
1 280
1 281
1 282
1 283
1 284
1 285
1 286
1 287
1 288
1 289
1 290
1 291
1 292
1 293
1 294
1 295
1 296
1 297
1 298
1 299
1 300
1 301
1 302
1 303
1 304
1 305
1 306
1 307
1 308
1 309
1 310
1 311
1 312
1 313
1 314
1 315
1 316
1 317
1 318
1 319
1 320
1 321
1 322
1 323
1 324
1 325
1 326
1 327
1 328
1 329
1 330
1 331
1 332
1 333
1 334
1 335
1 336
1 337
1 338
1 339
1 340
1 341
1 342
1 343
1 344
1 345
1 346
1 347
1 348
1 349
1 350
1 351
1 352
1 353
1 354
1 355
1 356
1 357
1 358
1 359
1 360
1 361
1 362
1 363
1 364
1 365
1 366
1 367
1 368
1 369
1 370
1 371
1 372
1 373
1 374
1 375
1 376
1 377
1 378
1 379
1 380
1 381
1 382
1 383
1 384
1 385
1 386
1 387
1 388
1 389
1 390
1 391
1 392
1 393
1 394
1 395
1 396
1 397
1 398
1 399
1 400
1 401
1 402
1 403
1 404
1 405
1 406
1 407
1 408
1 409
1 410
1 411
1 412
1 413
1 414
1 415
1 416
1 417
1 418
1 419
1 420
1 421
1 422
1 423
1 424
1 425
1 426
1 427
1 428
1 429
1 430
1 431
1 432
1 433
1 434
1 435
1 436
1 437
1 438
1 439
1 440
1 441
1 442
1 443
1 444
1 445
1 446
1 447
1 448
1 449
1 450
1 451
1 452
1 453
1 454
1 455
1 456
1 457
1 458
1 459
1 460
1 461
1 462
1 463
1 464
1 465
1 466
1 467
1 468
1 469
1 470
1 471
1 472
1 473
1 474
1 475
1 476
1 477
1 478
1 479
1 480
1 481
1 482
1 483
1 484
1 485
1 486
1 487
1 488
1 489
1 490
1 491
1 492
1 493
1 494
1 495
1 496
1 497
1 498
1 499
1 500
1 501
1 502
1 503
1 504
1 505
1 506
1 507
1 508
1 509
1 510
1 511
1 512
1 513
1 514
1 515
1 516
1 517
1 518
1 519
1 520
1 521
1 522
1 523
1 524
1 525
1 526
1 527
1 528
1 529
1 530
1 531
1 532
1 533
1 534
1 535
1 536
1 537
1 538
1 539
1 540
1 541
1 542
1 543
1 544
1 545
1 546
1 547
1 548
1 549
1 550
1 551
1 552
1 553
1 554
1 555
1 556
1 557
1 558
1 559
1 560
1 561
1 562
1 563
1 564
1 565
1 566
1 567
1 568
1 569
1 570
1 571
1 572
1 573
1 574
1 575
1 576
1 577
1 578
1 579
1 580
1 581
1 582
1 583
1 584
1 585
1 586
1 587
1 588
1 589
1 590
1 591
1 592
1 593
1 594
1 595
1 596
1 597
1 598
1 599
1 600
1 601
1 602
1 603
1 604
1 605
1 606
1 607
1 608
1 609
1 610
1 611
1 612
1 613
1 614
1 615
1 616
1 617
1 618
1 619
1 620
1 621
1 622
1 623
1 624
1 625
1 626
1 627
1 628
1 629
1 630
1 631
1 632
1 633
1 634
1 635
1 636
1 637
1 638
1 639
1 640
1 641
1 642
1 643
1 644
1 645
1 646
1 647
1 648
1 649
1 650
1 651
1 652
1 653
1 654
1 655
1 656
1 657
1 658
1 659
1 660
1 661
1 662
1 663
1 664
1 665
1 666
1 667
1 668
1 669
1 670
1 671
1 672
1 673
1 674
1 675
1 676
1 677
1 678
1 679
1 680
1 681
1 682
1 683
1 684
1 685
1 686
1 687
1 688
1 689
1 690
1 691
1 692
1 693
1 694
1 695
1 696
1 697
1 698
1 699
1 700
1 701
1 702
1 703
1 704
1 705
1 706
1 707
1 708
1 709
1 710
1 711
1 712
1 713
1 714
1 715
1 716
1 717
1 718
1 719
1 720
1 721
1 722
1 723
1 724
1 725
1 726
1 727
1 728
1 729
1 730
1 731
1 732
1 733
1 734
1 735
1 736
1 737
1 738
1 739
1 740
1 741
1 742
1 743
1 744
1 745
1 746
1 747
1 748
1 749
1 750
1 751
1 752
1 753
1 754
1 755
1 756
1 757
1 758
1 759
1 760
1 761
1 762
1 763
1 764
1 765
1 766
1 767
1 768
1 769
1 770
1 771
1 772
1 773
1 774
1 775
1 776
1 777
1 778
1 779
1 780
1 781
1 782
1 783
1 784
1 785
1 786
1 787
1 788
1 789
1 790
1 791
1 792
1 793
1 794
1 795
1 796
1 797
1 798
1 799
1 800
1 801
1 802
1 803
1 804
1 805
1 806
1 807
1 808
1 809
1 810
1 811
1 812
1 813
1 814
1 815
1 816
1 817
1 818
1 819
1 820
1 821
1 822
1 823
1 824
1 825
1 826
1 827
1 828
1 829
1 830
1 831
1 832
1 833
1 834
1 835
1 836
1 837
1 838
1 839
1 840
1 841
1 842
1 843
1 844
1 845
1 846
1 847
1 848
1 849
1 850
1 851
1 852
1 853
1 854
1 855
1 856
1 857
1 858
1 859
1 860
1 861
1 862
1 863
1 864
1 865
1 866
1 867
1 868
1 869
1 870
1 871
1 872
1 873
1 874
1 875
1 876
1 877
1 878
1 879
1 880
1 881
1 882
1 883
1 884
1 885
1 886
1 887
1 888
1 889
1 890
1 891
1 892
1 893
1 894
1 895
1 896
1 897
1 898
1 899
1 900
1 901
1 902
1 903
1 904
1 905
1 906
1 907
1 908
1 909
1 910
1 911
1 912
1 913
1 914
1 915
1 916
1 917
1 918
1 919
1 920
1 921
1 922
1 923
1 924
1 925
1 926
1 927
1 928
1 929
1 930
1 931
1 932
1 933
1 934
1 935
1 936
1 937
1 938
1 939
1 940
1 941
1 942
1 943
1 944
1 945
1 946
1 947
1 948
1 949
1 950
1 951
1 952
1 953
1 954
1 955
1 956
1 957
1 958
1 959
1 960
1 961
1 962
1 963
1 964
1 965
1 966
1 967
1 968
1 969
1 970
1 971
1 972
1 973
1 974
1 975
1 976
1 977
1 978
1 979
1 980
1 981
1 982
1 983
1 984
1 985
1 986
1 987
1 988
1 989
1 990
1 991
1 992
1 993
1 994
1 995
1 996
1 997
1 998
1 999
1 1000
1 1001
1 1002
1 1003
1 1004
1 1005
1 1006
1 1007
1 1008
1 1009
1 1010
1 1011
1 1012
1 1013
1 1014
1 1015
1 1016
1 1017
1 1018
1 1019
1 1020
1 1021
1 1022
1 1023
1 1024
1 1025
1 1026
1 1027
1 1028
1 1029
1 1030
1 1031
1 1032
1 1033
1 1034
1 1035
1 1036
1 1037
1 1038
1 1039
1 1040
1 1041
1 1042
1 1043
1 1044
1 1045
1 1046
1 1047
1 1048
1 1049
1 1050
1 1051
1 1052
1 1053
1 1054
1 1055
1 1056
1 1057
1 1058
1 1059
1 1060
1 1061
1 1062
1 1063
1 1064
1 1065
1 1066
1 1067
1 1068
1 1069
1 1070
1 1071
1 1072
1 1073
1 1074
1 1075
1 1076
1 1077
1 1078
1 1079
1 1080
1 1081
1 1082
1 1083
1 1084
1 1085
1 1086
1 1087
1 1088
1 1089
1 1090
1 1091
1 1092
1 1093
1 1094
1 1095
1 1096
1 1097
1 1098
1 1099
1 1100
1 1101
1 1102
1 1103
1 1104
1 1105
1 1106
1 1107
1 1108
1 1109
1 1110
1 1111
1 1112
1 1113
1 1114
1 1115
1 1116
1 1117
1 1118
1 1119
1 1120
1 1121
1 1122
1 1123
1 1124
1 1125
1 1126
1 1127
1 1128
1 1129
1 1130
1 1131
1 1132
1 1133
1 1134
1 1135
1 1136
1 1137
1 1138
1 1139
1 1140
1 1141
1 1142
1 1143
1 1144
1 1145
1 1146
1 1147
1 1148
1 1149
1 1150
1 1151
1 1152
1 1153
1 1154
1 1155
1 1156
1 1157
1 1158
1 1159
1 1160
1 1161
1 1162
1 1163
1 1164
1 1165
1 1166
1 1167
1 1168
1 1169
1 1170
1 1171
1 1172
1 1173
1 1174
1 1175
1 1176
1 1177
1 1178
1 1179
1 1180
1 1181
1 1182
1 1183
1 1184
1 1185
1 1186
1 1187
1 1188
1 1189
1 1190
1 1191
1 1192
1 1193
1 1194
1 1195
1 1196
1 1197
1 1198
1 1199
1 1200
1 1201
1 1202
1 1203
1 1204
1 1205
1 1206
1 1207
1 1208
1 1209
1 1210
1 1211
1 1212
1 1213
1 1214
1 1215
1 1216
1 1217
1 1218
1 1219
1 1220
1 1221
1 1222
1 1223
1 1224
1 1225
1 1226
1 1227
1 1228
1 1229
1 1230
1 1231
1 1232
1 1233
1 1234
1 1235
1 1236
1 1237
1 1238
1 1239
1 1240
1 1241
1 1242
1 1243
1 1244
1 1245
1 1246
1 1247
1 1248
1 1249
1 1250
1 1251
1 1252
1 1253
1 1254
1 1255
1 1256
1 1257
1 1258
1 1259
1 1260
1 1261
1 1262
1 1263
1 1264
1 1265
1 1266
1 1267
1 1268
1 1269
1 1270
1 1271
1 1272
1 1273
1 1274
1 1275
1 1276
1 1277
1 1278
1 1279
1 1280
1 1281
1 1282
1 1283
1 1284
1 1285
1 1286
1 1287
1 1288
1 1289
1 1290
1 1291
1 1292
1 1293
1 1294
1 1295
1 1296
1 1297
1 1298
1 1299
1 1300
1 1301
1 1302
1 1303
1 1304
1 1305
1 1306
1 1307
1 1308
1 1309
1 1310
1 1311
1 1312
1 1313
1 1314
1 1315
1 1316
1 1317
1 1318
1 1319
1 1320
1 1321
1 1322
1 1323
1 1324
1 1325
1 1326
1 1327
1 1328
1 1329
1 1330
1 1331
1 1332
1 1333
1 1334
1 1335
1 1336
1 1337
1 1338
1 1339
1 1340
1 1341
1 1342
1 1343
1 1344
1 1345
1 1346
1 1347
1 1348
1 1349
1 1350
1 1351
1 1352
1 1353
1 1354
1 1355
1 1356
1 1357
1 1358
1 1359
1 1360
1 1361
1 1362
1 1363
1 1364
1 1365
1 1366
1 1367
1 1368
1 1369
1 1370
1 1371
1 1372
1 1373
1 1374
1 1375
1 1376
1 1377
1 1378
1 1379
1 1380
1 1381
1 1382
1 1383
1 1384
1 1385
1 1386
1 1387
1 1388
1 1389
1 1390
1 1391
1 1392
1 1393
1 1394
1 1395
1 1396
1 1397
1 1398
1 1399
1 1400
1 1401
1 1402
1 1403
1 1404
1 1405
1 1406
1 1407
1 1408
1 1409
1 1410
1 1411
1 1412
1 1413
1 1414
1 1415
1 1416
1 1417
1 1418
1 1419
1 1420
1 1421
1 1422
1 1423
1 1424
1 1425
1 1426
1 1427
1 1428
1 1429
1 1430
1 1431
1 1432
1 1433
1 1434
1 1435
1 1436
1 1437
1 1438
1 1439
1 1440
1 1441
1 1442
1 1443
1 1444
1 1445
1 1446
1 1447
1 1448
1 1449
1 1450
1 1451
1 1452
1 1453
1 1454
1 1455
1 1456
1 1457
1 1458
1 1459
1 1460
1 1461
1 1462
1 1463
1 1464
1 1465
1 1466
1 1467
1 1468
1 1469
1 1470
1 1471
1 1472
1 1473
1 1474
1 1475
1 1476
1 1477
1 1478
1 1479
1 1480
1 1481
1 1482
1 1483
1 1484
1 1485
1 1486
1 1487
1 1488
1 1489
1 1490
1 1491
1 1492
1 1493
1 1494
1 1495
1 1496
1 1497
1 1498
1 1499
1 1500
1 1501
1 1502
1 1503
1 1504
1 1505
1 1506
1 1507
1 1508
1 1509
1 1510
1 1511
1 1512
1 1513
1 1514
1 1515
1 1516
1 1517
1 1518
1 1519
1 1520
1 1521
1 1522
1 1523
1 1524
1 1525
1 1526
1 1527
1 1528
1 1529
1 1530
1 1531
1 1532
1 1533
1 1534
1 1535
1 1536
1 1537
1 1538
1 1539
1 1540
1 1541
1 1542
1 1543
1 1544
1 1545
1 1546
1 1547
1 1548
1 1549
1 1550
1 1551
1 1552
1 1553
1 1554
1 1555
1 1556
1 1557
1 1558
1 1559
1 1560
1 1561
1 1562
1 1563
1 1564
1 1565
1 1566
1 1567
1 1568
1 1569
1 1570
1 1571
1 1572
1 1573
1 1574
1 1575
1 1576
1 1577
1 1578
1 1579
1 1580
1 1581
1 1582
1 1583
1 1584
1 1585
1 1586
1 1587
1 1588
1 1589
1 1590
1 1591
1 1592
1 1593
1 1594
1 1595
1 1596
1 1597
1 1598
1 1599
1 1600
1 1601
1 1602
1 1603
1 1604
1 1605
1 1606
1 1607
1 1608
1 1609
1 1610
1 1611
1 1612
1 1613
1 1614
1 1615
1 1616
1 1617
1 1618
1 1619
1 1620
1 1621
1 1622
1 1623
1 1624
1 1625
1 1626
1 1627
1 1628
1 1629
1 1630
1 1631
1 1632
1 1633
1 1634
1 1635
1 1636
1 1637
1 1638
1 1639
1 1640
1 1641
1 1642
1 1643
1 1644
1 1645
1 1646
1 1647
1 1648
1 1649
1 1650
1 1651
1 1652
1 1653
1 1654
1 1655
1 1656
1 1657
1 1658
1 1659
1 1660
1 1661
1 1662
1 1663
1 1664
1 1665
1 1666
1 1667
1 1668
1 1669
1 1670
1 1671
1 1672
1 1673
1 1674
1 1675
1 1676
1 1677
1 1678
1 1679
1 1680
1 1681
1 1682
1 1683
1 1684
1 1685
1 1686
1 1687
1 1688
1 1689
1 1690
1 1691
1 1692
1 1693
1 1694
1 1695
1 1696
1 1697
1 1698
1 1699
1 1700
1 1701
1 1702
1 1703
1 1704
1 1705
1 1706
1 1707
1 1708
1 1709
1 1710
1 1711
1 1712
1 1713
1 1714
1 1715
1 1716
1 1717
1 1718
1 1719
1 1720
1 1721
1 1722
1 1723
1 1724
1 1725
1 1726
1 1727
1 1728
1 1729
1 1730
1 1731
1 1732
1 1733
1 1734
1 1735
1 1736
1 1737
1 1738
1 1739
1 1740
1 1741
1 1742
1 1743
1 1744
1 1745
1 1746
1 1747
1 1748
1 1749
1 1750
1 1751
1 1752
1 1753
1 1754
1 1755
1 1756
1 1757
1 1758
1 1759
1 1760
1 1761
1 1762
1 1763
1 1764
1 1765
1 1766
1 1767
1 1768
1 1769
1 1770
1 1771
1 1772
1 1773
1 1774
1 1775
1 1776
1 1777
1 1778
1 1779
1 1780
1 1781
1 1782
1 1783
1 1784
1 1785
1 1786
1 1787
1 1788
1 1789
1 1790
1 1791
1 1792
1 1793
1 1794
1 1795
1 1796
1 1797
1 1798
1 1799
1 1800
1 1801
1 1802
1 1803
1 1804
1 1805
1 1806
1 1807
1 1808
1 1809
1 1810
1 1811
1 1812
1 1813
1 1814
1 1815
1 1816
1 1817
1 1818
1 1819
1 1820
1 1821
1 1822
1 1823
1 1824
1 1825
1 1826
1 1827
1 1828
1 1829
1 1830
1 1831
1 1832
1 1833
1 1834
1 1835
1 1836
1 1837
1 1838
1 1839
1 1840
1 1841
1 1842
1 1843
1 1844
1 1845
1 1846
1 1847
1 1848
1 1849
1 1850
1 1851
1 1852
1 1853
1 1854
1 1855
1 1856
1 1857
1 1858
1 1859
1 1860
1 1861
1 1862
1 1863
1 1864
1 1865
1 1866
1 1867
1 1868
1 1869
1 1870
1 1871
1 1872
1 1873
1 1874
1 1875
1 1876
1 1877
1 1878
1 1879
1 1880
1 1881
1 1882
1 1883
1 1884
1 1885
1 1886
1 1887
1 1888
1 1889
1 1890
1 1891
1 1892
1 1893
1 1894
1 1895
1 1896
1 1897
1 1898
1 1899
1 1900
1 1901
1 1902
1 1903
1 1904
1 1905
1 1906
1 1907
1 1908
1 1909
1 1910
1 1911
1 1912
1 1913
1 1914
1 1915
1 1916
1 1917
1 1918
1 1919
1 1920
1 1921
1 1922
1 1923
1 1924
1 1925
1 1926
1 1927
1 1928
1 1929
1 1930
1 1931
1 1932
1 1933
1 1934
1 1935
1 1936
1 1937
1 1938
1 1939
1 1940
1 1941
1 1942
1 1943
1 1944
1 1945
1 1946
1 1947
1 1948
1 1949
1 1950
1 1951
1 1952
1 1953
1 1954
1 1955
1 1956
1 1957
1 1958
1 1959
1 1960
1 1961
1 1962
1 1963
1 1964
1 1965
1 1966
1 1967
1 1968
1 1969
1 1970
1 1971
1 1972
1 1973
1 1974
1 1975
1 1976
1 1977
1 1978
1 1979
1 1980
1 1981
1 1982
1 1983
1 1984
1 1985
1 1986
1 1987
1 1988
1 1989
1 1990
1 1991
1 1992
1 1993
1 1994
1 1995
1 1996
1 1997
1 1998
1 1999
1 2000
1 2001
1 2002
1 2003
1 2004
1 2005
1 2006
1 2007
1 2008
1 2009
1 2010
1 2011
1 2012
1 2013
1 2014
1 2015
1 2016
1 2017
1 2018
1 2019
1 2020
1 2021
1 2022
1 2023
1 2024
1 2025
1 2026
1 2027
1 2028
1 2029
1 2030
1 2031
1 2032
1 2033
1 2034
1 2035
1 2036
1 2037
1 2038
1 2039
1 2040
1 2041
1 2042
1 2043
1 2044
1 2045
1 2046
1 2047
1 2048
1 2049
1 2050
1 2051
1 2052
1 2053
1 2054
1 2055
1 2056
1 2057
1 2058
1 2059
1 2060
1 2061
1 2062
1 2063
1 2064
1 2065
1 2066
1 2067
1 2068
1 2069
1 2070
1 2071
1 2072
1 2073
1 2074
1 2075
1 2076
1 2077
1 2078
1 2079
1 2080
1 2081
1 2082
1 2083
1 2084
1 2085
1 2086
1 2087
1 2088
1 2089
1 2090
1 2091
1 2092
1 2093
1 2094
1 2095
1 2096
1 2097
1 2098
1 2099
1 2100
1 2101
1 2102
1 2103
1 2104
1 2105
1 2106
1 2107
1 2108
1 2109
1 2110
1 2111
1 2112
1 2113
1 2114
1 2115
1 2116
1 2117
1 2118
1 2119
1 2120
1 2121
1 2122
1 2123
1 2124
1 2125
1 2126
1 2127
1 2128
1 2129
1 2130
1 2131
1 2132
1 2133
1 2134
1 2135
1 2136
1 2137
1 2138
1 2139
1 2140
1 2141
1 2142
1 2143
1 2144
1 2145
1 2146
1 2147
1 2148
1 2149
1 2150
1 2151
1 2152
1 2153
1 2154
1 2155
1 2156
1 2157
1 2158
1 2159
1 2160
1 2161
1 2162
1 2163
1 2164
1 2165
1 2166
1 2167
1 2168
1 2169
1 2170
1 2171
1 2172
1 2173
1 2174
1 2175
1 2176
1 2177
1 2178
1 2179
1 2180
1 2181
1 2182
1 2183
1 2184
1 2185
1 2186
1 2187
1 2188
1 2189
1 2190
1 2191
1 2192
1 2193
1 2194
1 2195
1 2196
1 2197
1 2198
1 2199
1 2200
1 2201
1 2202
1 2203
1 2204
1 2205
1 2206
1 2207
1 2208
1 2209
1 2210
1 2211
1 2212
1 2213
1 2214
1 2215
1 2216
1 2217
1 2218
1 2219
1 2220
1 2221
1 2222
1 2223
1 2224
1 2225
1 2226
1 2227
1 2228
1 2229
1 2230
1 2231
1 2232
1 2233
1 2234
1 2235
1 2236
1 2237
1 2238
1 2239
1 2240
1 2241
1 2242
1 2243
1 2244
1 2245
1 2246
1 2247
1 2248
1 2249
1 2250
1 2251
1 2252
1 2253
1 2254
1 2255
1 2256
1 2257
1 2258
1 2259
1 2260
1 2261
1 2262
1 2263
1 2264
1 2265
1 2266
1 2267
1 2268
1 2269
1 2270
1 2271
1 2272
1 2273
1 2274
1 2275
1 2276
1 2277
1 2278
1 2279
1 2280
1 2281
1 2282
1 2283
1 2284
1 2285
1 2286
1 2287
1 2288
1 2289
1 2290
1 2291
1 2292
1 2293
1 2294
1 2295
1 2296
1 2297
1 2298
1 2299
1 2300
1 2301
1 2302
1 2303
1 2304
1 2305
1 2306
1 2307
1 2308
1 2309
1 2310
1 2311
1 2312
1 2313
1 2314
1 2315
1 2316
1 2317
1 2318
1 2319
1 2320
1 2321
1 2322
1 2323
1 2324
1 2325
1 2326
1 2327
1 2328
1 2329
1 2330
1 2331
1 2332
1 2333
1 2334
1 2335
1 2336
1 2337
1 2338
1 2339
1 2340
1 2341
1 2342
1 2343
1 2344
1 2345
1 2346
1 2347
1 2348
1 2349
1 2350
1 2351
1 2352
1 2353
1 2354
1 2355
1 2356
1 2357
1 2358
1 2359
1 2360
1 2361
1 2362
1 2363
1 2364
1 2365
1 2366
1 2367
1 2368
1 2369
1 2370
1 2371
1 2372
1 2373
1 2374
1 2375
1 2376
1 2377
1 2378
1 2379
1 2380
1 2381
1 2382
1 2383
1 2384
1 2385
1 2386
1 2387
1 2388
1 2389
1 2390
1 2391
1 2392
1 2393
1 2394
1 2395
1 2396
1 2397
1 2398
1 2399
1 2400
1 2401
1 2402
1 2403
1 2404
1 2405
1 2406
1 2407
1 2408
1 2409
1 2410
1 2411
1 2412
1 2413
1 2414
1 2415
1 2416
1 2417
1 2418
1 2419
1 2420
1 2421
1 2422
1 2423
1 2424
1 2425
1 2426
1 2427
1 2428
1 2429
1 2430
1 2431
1 2432
1 2433
1 2434
1 2435
1 2436
1 2437
1 2438
1 2439
1 2440
1 2441
1 2442
1 2443
1 2444
1 2445
1 2446
1 2447
1 2448
1 2449
1 2450
1 2451
1 2452
1 2453
1 2454
1 2455
1 2456
1 2457
1 2458
1 2459
1 2460
1 2461
1 2462
1 2463
1 2464
1 2465
1 2466
1 2467
1 2468
1 2469
1 2470
1 2471
1 2472
1 2473
1 2474
1 2475
1 2476
1 2477
1 2478
1 2479
1 2480
1 2481
1 2482
1 2483
1 2484
1 2485
1 2486
1 2487
1 2488
1 2489
1 2490
1 2491
1 2492
1 2493
1 2494
1 2495
1 2496
1 2497
1 2498
1 2499
1 2500
1 2501
1 2502
1 2503
1 2504
1 2505
1 2506
1 2507
1 2508
1 2509
1 2510
1 2511
1 2512
1 2513
1 2514
1 2515
1 2516
1 2517
1 2518
1 2519
1 2520
1 2521
1 2522
1 2523
1 2524
1 2525
1 2526
1 2527
1 2528
1 2529
1 2530
1 2531
1 2532
1 2533
1 2534
1 2535
1 2536
1 2537
1 2538
1 2539
1 2540
1 2541
1 2542
1 2543
1 2544
1 2545
1 2546
1 2547
1 2548
1 2549
1 2550
1 2551
1 2552
1 2553
1 2554
1 2555
1 2556
1 2557
1 2558
1 2559
1 2560
1 2561
1 2562
1 2563
1 2564
1 2565
1 2566
1 2567
1 2568
1 2569
1 2570
1 2571
1 2572
1 2573
1 2574
1 2575
1 2576
1 2577
1 2578
1 2579
1 2580
1 2581
1 2582
1 2583
1 2584
1 2585
1 2586
1 2587
1 2588
1 2589
1 2590
1 2591
1 2592
1 2593
1 2594
1 2595
1 2596
1 2597
1 2598
1 2599
1 2600
1 2601
1 2602
1 2603
1 2604
1 2605
1 2606
1 2607
1 2608
1 2609
1 2610
1 2611
1 2612
1 2613
1 2614
1 2615
1 2616
1 2617
1 2618
1 2619
1 2620
1 2621
1 2622
1 2623
1 2624
1 2625
1 2626
1 2627
1 2628
1 2629
1 2630
1 2631
1 2632
1 2633
1 2634
1 2635
1 2636
1 2637
1 2638
1 2639
1 2640
1 2641
1 2642
1 2643
1 2644
1 2645
1 2646
1 2647
1 2648
1 2649
1 2650
1 2651
1 2652
1 2653
1 2654
1 2655
1 2656
1 2657
1 2658
1 2659
1 2660
1 2661
1 2662
1 2663
1 2664
1 2665
1 2666
1 2667
1 2668
1 2669
1 2670
1 2671
1 2672
1 2673
1 2674
1 2675
1 2676
1 2677
1 2678
1 2679
1 2680
1 2681
1 2682
1 2683
1 2684
1 2685
1 2686
1 2687
1 2688
1 2689
1 2690
1 2691
1 2692
1 2693
1 2694
1 2695
1 2696
1 2697
1 2698
1 2699
1 2700
1 2701
1 2702
1 2703
1 2704
1 2705
1 2706
1 2707
1 2708
1 2709
1 2710
1 2711
1 2712
1 2713
1 2714
1 2715
1 2716
1 2717
1 2718
1 2719
1 2720
1 2721
1 2722
1 2723
1 2724
1 2725
1 2726
1 2727
1 2728
1 2729
1 2730
1 2731
1 2732
1 2733
1 2734
1 2735
1 2736
1 2737
1 2738
1 2739
1 2740
1 2741
1 2742
1 2743
1 2744
1 2745
1 2746
1 2747
1 2748
1 2749
1 2750
1 2751
1 2752
1 2753
1 2754
1 2755
1 2756
1 2757
1 2758
1 2759
1 2760
1 2761
1 2762
1 2763
1 2764
1 2765
1 2766
1 2767
1 2768
1 2769
1 2770
1 2771
1 2772
1 2773
1 2774
1 2775
1 2776
1 2777
1 2778
1 2779
1 2780
1 2781
1 2782
1 2783
1 2784
1 2785
1 2786
1 2787
1 2788
1 2789
1 2790
1 2791
1 2792
1 2793
1 2794
1 2795
1 2796
1 2797
1 2798
1 2799
1 2800
1 2801
1 2802
1 2803
1 2804
1 2805
1 2806
1 2807
1 2808
1 2809
1 2810
1 2811
1 2812
1 2813
1 2814
1 2815
1 2816
1 2817
1 2818
1 2819
1 2820
1 2821
1 2822
1 2823
1 2824
1 2825
1 2826
1 2827
1 2828
1 2829
1 2830
1 2831
1 2832
1 2833
1 2834
1 2835
1 2836
1 2837
1 2838
1 2839
1 2840
1 2841
1 2842
1 2843
1 2844
1 2845
1 2846
1 2847
1 2848
1 2849
1 2850
1 2851
1 2852
1 2853
1 2854
1 2855
1 2856
1 2857
1 2858
1 2859
1 2860
1 2861
1 2862
1 2863
1 2864
1 2865
1 2866
1 2867
1 2868
1 2869
1 2870
1 2871
1 2872
1 2873
1 2874
1 2875
1 2876
1 2877
1 2878
1 2879
1 2880
1 2881
1 2882
1 2883
1 2884
1 2885
1 2886
1 2887
1 2888
1 2889
1 2890
1 2891
1 2892
1 2893
1 2894
1 2895
1 2896
1 2897
1 2898
1 2899
1 2900
1 2901
1 2902
1 2903
1 2904
1 2905
1 2906
1 2907
1 2908
1 2909
1 2910
1 2911
1 2912
1 2913
1 2914
1 2915
1 2916
1 2917
1 2918
1 2919
1 2920
1 2921
1 2922
1 2923
1 2924
1 2925
1 2926
1 2927
1 2928
1 2929
1 2930
1 2931
1 2932
1 2933
1 2934
1 2935
1 2936
1 2937
1 2938
1 2939
1 2940
1 2941
1 2942
1 2943
1 2944
1 2945
1 2946
1 2947
1 2948
1 2949
1 2950
1 2951
1 2952
1 2953
1 2954
1 2955
1 2956
1 2957
1 2958
1 2959
1 2960
1 2961
1 2962
1 2963
1 2964
1 2965
1 2966
1 2967
1 2968
1 2969
1 2970
1 2971
1 2972
1 2973
1 2974
1 2975
1 2976
1 2977
1 2978
1 2979
1 2980
1 2981
1 2982
1 2983
1 2984
1 2985
1 2986
1 2987
1 2988
1 2989
1 2990
1 2991
1 2992
1 2993
1 2994
1 2995
1 2996
1 2997
1 2998
1 2999
1 3000
1 3001
1 3002
1 3003
1 3004
1 3005
1 3006
1 3007
1 3008
1 3009
1 3010
1 3011
1 3012
1 3013
1 3014
1 3015
1 3016
1 3017
1 3018
1 3019
1 3020
1 3021
1 3022
1 3023
1 3024
1 3025
1 3026
1 3027
1 3028
1 3029
1 3030
1 3031
1 3032
1 3033
1 3034
1 3035
1 3036
1 3037
1 3038
1 3039
1 3040
1 3041
1 3042
1 3043
1 3044
1 3045
1 3046
1 3047
1 3048
1 3049
1 3050
1 3051
1 3052
1 3053
1 3054
1 3055
1 3056
1 3057
1 3058
1 3059
1 3060
1 3061
1 3062
1 3063
1 3064
1 3065
1 3066
1 3067
1 3068
1 3069
1 3070
1 3071
1 3072
1 3073
1 3074
1 3075
1 3076
1 3077
1 3078
1 3079
1 3080
1 3081
1 3082
1 3083
1 3084
1 3085
1 3086
1 3087
1 3088
1 3089
1 3090
1 3091
1 3092
1 3093
1 3094
1 3095
1 3096
1 3097
1 3098
1 3099
1 3100
1 3101
1 3102
1 3103
1 3104
1 3105
1 3106
1 3107
1 3108
1 3109
1 3110
1 3111
1 3112
1 3113
1 3114
1 3115
1 3116
1 3117
1 3118
1 3119
1 3120
1 3121
1 3122
1 3123
1 3124
1 3125
1 3126
1 3127
1 3128
1 3129
1 3130
1 3131
1 3132
1 3133
1 3134
1 3135
1 3136
1 3137
1 3138
1 3139
1 3140
1 3141
1 3142
1 3143
1 3144
1 3145
1 3146
1 3147
1 3148
1 3149
1 3150
1 3151
1 3152
1 3153
1 3154
1 3155
1 3156
1 3157
1 3158
1 3159
1 3160
1 3161
1 3162
1 3163
1 3164
1 3165
1 3166
1 3167
1 3168
1 3169
1 3170
1 3171
1 3172
1 3173
1 3174
1 3175
1 3176
1 3177
1 3178
1 3179
1 3180
1 3181
1 3182
1 3183
1 3184
1 3185
1 3186
1 3187
1 3188
1 3189
1 3190
1 3191
1 3192
1 3193
1 3194
1 3195
1 3196
1 3197
1 3198
1 3199
1 3200
1 3201
1 3202
1 3203
1 3204
1 3205
1 3206
1 3207
1 3208
1 3209
1 3210
1 3211
1 3212
1 3213
1 3214
1 3215
1 3216
1 3217
1 3218
1 3219
1 3220
1 3221
1 3222
1 3223
1 3224
1 3225
1 3226
1 3227
1 3228
1 3229
1 3230
1 3231
1 3232
1 3233
1 3234
1 3235
1 3236
1 3237
1 3238
1 3239
1 3240
1 3241
1 3242
1 3243
1 3244
1 3245
1 3246
1 3247
1 3248
1 3249
1 3250
1 3251
1 3252
1 3253
1 3254
1 3255
1 3256
1 3257
1 3258
1 3259
1 3260
1 3261
1 3262
1 3263
1 3264
1 3265
1 3266
1 3267
1 3268
1 3269
1 3270
1 3271
1 3272
1 3273
1 3274
1 3275
1 3276
1 3277
1 3278
1 3279
1 3280
1 3281
1 3282
1 3283
1 3284
1 3285
1 3286
1 3287
1 3288
1 3289
1 3290
1 3291
1 3292
1 3293
1 3294
1 3295
1 3296
1 3297
1 3298
1 3299
1 3300
1 3301
1 3302
1 3303
1 3304
1 3305
1 3306
1 3307
1 3308
1 3309
1 3310
1 3311
1 3312
1 3313
1 3314
1 3315
1 3316
1 3317
1 3318
1 3319
1 3320
1 3321
1 3322
1 3323
1 3324
1 3325
1 3326
1 3327
1 3328
1 3329
1 3330
1 3331
1 3332
1 3333
1 3334
1 3335
1 3336
1 3337
1 3338
1 3339
1 3340
1 3341
1 3342
1 3343
1 3344
1 3345
1 3346
1 3347
1 3348
1 3349
1 3350
1 3351
1 3352
1 3353
1 3354
1 3355
1 3356
1 3357
1 3358
1 3359
1 3360
1 3361
1 3362
1 3363
1 3364
1 3365
1 3366
1 3367
1 3368
1 3369
1 3370
1 3371
1 3372
1 3373
1 3374
1 3375
1 3376
1 3377
1 3378
1 3379
1 3380
1 3381
1 3382
1 3383
1 3384
1 3385
1 3386
1 3387
1 3388
1 3389
1 3390
1 3391
1 3392
1 3393
1 3394
1 3395
1 3396
1 3397
1 3398
1 3399
1 3400
1 3401
1 3402
1 3403
1 3404
1 3405
1 3406
1 3407
1 3408
1 3409
1 3410
1 3411
1 3412
1 3413
1 3414
1 3415
1 3416
1 3417
1 3418
1 3419
1 3420
1 3421
1 3422
1 3423
1 3424
1 3425
1 3426
1 3427
1 3428
1 3429
1 3430
1 3431
1 3432
1 3433
1 3434
1 3435
1 3436
1 3437
1 3438
1 3439
1 3440
1 3441
1 3442
1 3443
1 3444
1 3445
1 3446
1 3447
1 3448
1 3449
1 3450
1 3451
1 3452
1 3453
1 3454
1 3455
1 3456
1 3457
1 3458
1 3459
1 3460
1 3461
1 3462
1 3463
1 3464
1 3465
1 3466
1 3467
1 3468
1 3469
1 3470
1 3471
1 3472
1 3473
1 3474
1 3475
1 3476
1 3477
1 3478
1 3479
1 3480
1 3481
1 3482
1 3483
1 3484
1 3485
1 3486
1 3487
1 3488
1 3489
1 3490
1 3491
1 3492
1 3493
1 3494
1 3495
1 3496
1 3497
1 3498
1 3499
1 3500
1 3501
1 3502
1 3503
1 3504
1 3505
1 3506
1 3507
1 3508
1 3509
1 3510
1 3511
1 3512
1 3513
1 3514
1 3515
1 3516
1 3517
1 3518
1 3519
1 3520
1 3521
1 3522
1 3523
1 3524
1 3525
1 3526
1 3527
1 3528
1 3529
1 3530
1 3531
1 3532
1 3533
1 3534
1 3535
1 3536
1 3537
1 3538
1 3539
1 3540
1 3541
1 3542
1 3543
1 3544
1 3545
1 3546
1 3547
1 3548
1 3549
1 3550
1 3551
1 3552
1 3553
1 3554
1 3555
1 3556
1 3557
1 3558
1 3559
1 3560
1 3561
1 3562
1 3563
1 3564
1 3565
1 3566
1 3567
1 3568
1 3569
1 3570
1 3571
1 3572
1 3573
1 3574
1 3575
1 3576
1 3577
1 3578
1 3579
1 3580
1 3581
1 3582
1 3583
1 3584
1 3585
1 3586
1 3587
1 3588
1 3589
1 3590
1 3591
1 3592
1 3593
1 3594
1 3595
1 3596
1 3597
1 3598
1 3599
1 3600
1 3601
1 3602
1 3603
1 3604
1 3605
1 3606
1 3607
1 3608
1 3609
1 3610
1 3611
1 3612
1 3613
1 3614
1 3615
1 3616
1 3617
1 3618
1 3619
1 3620
1 3621
1 3622
1 3623
1 3624
1 3625
1 3626
1 3627
1 3628
1 3629
1 3630
1 3631
1 3632
1 3633
1 3634
1 3635
1 3636
1 3637
1 3638
1 3639
1 3640
1 3641
1 3642
1 3643
1 3644
1 3645
1 3646
1 3647
1 3648
1 3649
1 3650
1 3651
1 3652
1 3653
1 3654
1 3655
1 3656
1 3657
1 3658
1 3659
1 3660
1 3661
1 3662
1 3663
1 3664
1 3665
1 3666
1 3667
1 3668
1 3669
1 3670
1 3671
1 3672
1 3673
1 3674
1 3675
1 3676
1 3677
1 3678
1 3679
1 3680
1 3681
1 3682
1 3683
1 3684
1 3685
1 3686
1 3687
1 3688
1 3689
1 3690
1 3691
1 3692
1 3693
1 3694
1 3695
1 3696
1 3697
1 3698
1 3699
1 3700
1 3701
1 3702
1 3703
1 3704
1 3705
1 3706
1 3707
1 3708
1 3709
1 3710
1 3711
1 3712
1 3713
1 3714
1 3715
1 3716
1 3717
1 3718
1 3719
1 3720
1 3721
1 3722
1 3723
1 3724
1 3725
1 3726
1 3727
1 3728
1 3729
1 3730
1 3731
1 3732
1 3733
1 3734
1 3735
1 3736
1 3737
1 3738
1 3739
1 3740
1 3741
1 3742
1 3743
1 3744
1 3745
1 3746
1 3747
1 3748
1 3749
1 3750
1 3751
1 3752
1 3753
1 3754
1 3755
1 3756
1 3757
1 3758
1 3759
1 3760
1 3761
1 3762
1 3763
1 3764
1 3765
1 3766
1 3767
1 3768
1 3769
1 3770
1 3771
1 3772
1 3773
1 3774
1 3775
1 3776
1 3777
1 3778
1 3779
1 3780
1 3781
1 3782
1 3783
1 3784
1 3785
1 3786
1 3787
1 3788
1 3789
1 3790
1 3791
1 3792
1 3793
1 3794
1 3795
1 3796
1 3797
1 3798
1 3799
1 3800
1 3801
1 3802
1 3803
1 3804
1 3805
1 3806
1 3807
1 3808
1 3809
1 3810
1 3811
1 3812
1 3813
1 3814
1 3815
1 3816
1 3817
1 3818
1 3819
1 3820
1 3821
1 3822
1 3823
1 3824
1 3825
1 3826
1 3827
1 3828
1 3829
1 3830
1 3831
1 3832
1 3833
1 3834
1 3835
1 3836
1 3837
1 3838
1 3839
1 3840
1 3841
1 3842
1 3843
1 3844
1 3845
1 3846
1 3847
1 3848
1 3849
1 3850
1 3851
1 3852
1 3853
1 3854
1 3855
1 3856
1 3857
1 3858
1 3859
1 3860
1 3861
1 3862
1 3863
1 3864
1 3865
1 3866
1 3867
1 3868
1 3869
1 3870
1 3871
1 3872
1 3873
1 3874
1 3875
1 3876
1 3877
1 3878
1 3879
1 3880
1 3881
1 3882
1 3883
1 3884
1 3885
1 3886
1 3887
1 3888
1 3889
1 3890
1 3891
1 3892
1 3893
1 3894
1 3895
1 3896
1 3897
1 3898
1 3899
1 3900
1 3901
1 3902
1 3903
1 3904
1 3905
1 3906
1 3907
1 3908
1 3909
1 3910
1 3911
1 3912
1 3913
1 3914
1 3915
1 3916
1 3917
1 3918
1 3919
1 3920
1 3921
1 3922
1 3923
1 3924
1 3925
1 3926
1 3927
1 3928
1 3929
1 3930
1 3931
1 3932
1 3933
1 3934
1 3935
1 3936
1 3937
1 3938
1 3939
1 3940
1 3941
1 3942
1 3943
1 3944
1 3945
1 3946
1 3947
1 3948
1 3949
1 3950
1 3951
1 3952
1 3953
1 3954
1 3955
1 3956
1 3957
1 3958
1 3959
1 3960
1 3961
1 3962
1 3963
1 3964
1 3965
1 3966
1 3967
1 3968
1 3969
1 3970
1 3971
1 3972
1 3973
1 3974
1 3975
1 3976
1 3977
1 3978
1 3979
1 3980
1 3981
1 3982
1 3983
1 3984
1 3985
1 3986
1 3987
1 3988
1 3989
1 3990
1 3991
1 3992
1 3993
1 3994
1 3995
1 3996
1 3997
1 3998
1 3999
1 4000
1 4001
1 4002
1 4003
1 4004
1 4005
1 4006
1 4007
1 4008
1 4009
1 4010
1 4011
1 4012
1 4013
1 4014
1 4015
1 4016
1 4017
1 4018
1 4019
1 4020
1 4021
1 4022
1 4023
1 4024
1 4025
1 4026
1 4027
1 4028
1 4029
1 4030
1 4031
1 4032
1 4033
1 4034
1 4035
1 4036
1 4037
1 4038
1 4039
1 4040
1 4041
1 4042
1 4043
1 4044
1 4045
1 4046
1 4047
1 4048
1 4049
1 4050
1 4051
1 4052
1 4053
1 4054
1 4055
1 4056
1 4057
1 4058
1 4059
1 4060
1 4061
1 4062
1 4063
1 4064
1 4065
1 4066
1 4067
1 4068
1 4069
1 4070
1 4071
1 4072
1 4073
1 4074
1 4075
1 4076
1 4077
1 4078
1 4079
1 4080
1 4081
1 4082
1 4083
1 4084
1 4085
1 4086
1 4087
1 4088
1 4089
1 4090
1 4091
1 4092
1 4093
1 4094
1 4095
1 4096
1 4097
1 4098
1 4099
1 4100
1 4101
1 4102
1 4103
1 4104
1 4105
1 4106
1 4107
1 4108
1 4109
1 4110
1 4111
1 4112
1 4113
1 4114
1 4115
1 4116
1 4117
1 4118
1 4119
1 4120
1 4121
1 4122
1 4123
1 4124
1 4125
1 4126
1 4127
1 4128
1 4129
1 4130
1 4131
1 4132
1 4133
1 4134
1 4135
1 4136
1 4137
1 4138
1 4139
1 4140
1 4141
1 4142
1 4143
1 4144
1 4145
1 4146
1 4147
1 4148
1 4149
1 4150
1 4151
1 4152
1 4153
1 4154
1 4155
1 4156
1 4157
1 4158
1 4159
1 4160
1 4161
1 4162
1 4163
1 4164
1 4165
1 4166
1 4167
1 4168
1 4169
1 4170
1 4171
1 4172
1 4173
1 4174
1 4175
1 4176
1 4177
1 4178
1 4179
1 4180
1 4181
1 4182
1 4183
1 4184
1 4185
1 4186
1 4187
1 4188
1 4189
1 4190
1 4191
1 4192
1 4193
1 4194
1 4195
1 4196
1 4197
1 4198
1 4199
1 4200
1 4201
1 4202
1 4203
1 4204
1 4205
1 4206
1 4207
1 4208
1 4209
1 4210
1 4211
1 4212
1 4213
1 4214
1 4215
1 4216
1 4217
1 4218
1 4219
1 4220
1 4221
1 4222
1 4223
1 4224
1 4225
1 4226
1 4227
1 4228
1 4229
1 4230
1 4231
1 4232
1 4233
1 4234
1 4235
1 4236
1 4237
1 4238
1 4239
1 4240
1 4241
1 4242
1 4243
1 4244
1 4245
1 4246
1 4247
1 4248
1 4249
1 4250
1 4251
1 4252
1 4253
1 4254
1 4255
1 4256
1 4257
1 4258
1 4259
1 4260
1 4261
1 4262
1 4263
1 4264
1 4265
1 4266
1 4267
1 4268
1 4269
1 4270
1 4271
1 4272
1 4273
1 4274
1 4275
1 4276
1 4277
1 4278
1 4279
1 4280
1 4281
1 4282
1 4283
1 4284
1 4285
1 4286
1 4287
1 4288
1 4289
1 4290
1 4291
1 4292
1 4293
1 4294
1 4295
1 4296
1 4297
1 4298
1 4299
1 4300
1 4301
1 4302
1 4303
1 4304
1 4305
1 4306
1 4307
1 4308
1 4309
1 4310
1 4311
1 4312
1 4313
1 4314
1 4315
1 4316
1 4317
1 4318
1 4319
1 4320
1 4321
1 4322
1 4323
1 4324
1 4325
1 4326
1 4327
1 4328
1 4329
1 4330
1 4331
1 4332
1 4333
1 4334
1 4335
1 4336
1 4337
1 4338
1 4339
1 4340
1 4341
1 4342
1 4343
1 4344
1 4345
1 4346
1 4347
1 4348
1 4349
1 4350
1 4351
1 4352
1 4353
1 4354
1 4355
1 4356
1 4357
1 4358
1 4359
1 4360
1 4361
1 4362
1 4363
1 4364
1 4365
1 4366
1 4367
1 4368
1 4369
1 4370
1 4371
1 4372
1 4373
1 4374
1 4375
1 4376
1 4377
1 4378
1 4379
1 4380
1 4381
1 4382
1 4383
1 4384
1 4385
1 4386
1 4387
1 4388
1 4389
1 4390
1 4391
1 4392
1 4393
1 4394
1 4395
1 4396
1 4397
1 4398
1 4399
1 4400
1 4401
1 4402
1 4403
1 4404
1 4405
1 4406
1 4407
1 4408
1 4409
1 4410
1 4411
1 4412
1 4413
1 4414
1 4415
1 4416
1 4417
1 4418
1 4419
1 4420
1 4421
1 4422
1 4423
1 4424
1 4425
1 4426
1 4427
1 4428
1 4429
1 4430
1 4431
1 4432
1 4433
1 4434
1 4435
1 4436
1 4437
1 4438
1 4439
1 4440
1 4441
1 4442
1 4443
1 4444
1 4445
1 4446
1 4447
1 4448
1 4449
1 4450
1 4451
1 4452
1 4453
1 4454
1 4455
1 4456
1 4457
1 4458
1 4459
1 4460
1 4461
1 4462
1 4463
1 4464
1 4465
1 4466
1 4467
1 4468
1 4469
1 4470
1 4471
1 4472
1 4473
1 4474
1 4475
1 4476
1 4477
1 4478
1 4479
1 4480
1 4481
1 4482
1 4483
1 4484
1 4485
1 4486
1 4487
1 4488
1 4489
1 4490
1 4491
1 4492
1 4493
1 4494
1 4495
1 4496
1 4497
1 4498
1 4499
1 4500
1 4501
1 4502
1 4503
1 4504
1 4505
1 4506
1 4507
1 4508
1 4509
1 4510
1 4511
1 4512
1 4513
1 4514
1 4515
1 4516
1 4517
1 4518
1 4519
1 4520
1 4521
1 4522
1 4523
1 4524
1 4525
1 4526
1 4527
1 4528
1 4529
1 4530
1 4531
1 4532
1 4533
1 4534
1 4535
1 4536
1 4537
1 4538
1 4539
1 4540
1 4541
1 4542
1 4543
1 4544
1 4545
1 4546
1 4547
1 4548
1 4549
1 4550
1 4551
1 4552
1 4553
1 4554
1 4555
1 4556
1 4557
1 4558
1 4559
1 4560
1 4561
1 4562
1 4563
1 4564
1 4565
1 4566
1 4567
1 4568
1 4569
1 4570
1 4571
1 4572
1 4573
1 4574
1 4575
1 4576
1 4577
1 4578
1 4579
1 4580
1 4581
1 4582
1 4583
1 4584
1 4585
1 4586
1 4587
1 4588
1 4589
1 4590
1 4591
1 4592
1 4593
1 4594
1 4595
1 4596
1 4597
1 4598
1 4599
1 4600
1 4601
1 4602
1 4603
1 4604
1 4605
1 4606
1 4607
1 4608
1 4609
1 4610
1 4611
1 4612
1 4613
1 4614
1 4615
1 4616
1 4617
1 4618
1 4619
1 4620
1 4621
1 4622
1 4623
1 4624
1 4625
1 4626
1 4627
1 4628
1 4629
1 4630
1 4631
1 4632
1 4633
1 4634
1 4635
1 4636
1 4637
1 4638
1 4639
1 4640
1 4641
1 4642
1 4643
1 4644
1 4645
1 4646
1 4647
1 4648
1 4649
1 4650
1 4651
1 4652
1 4653
1 4654
1 4655
1 4656
1 4657
1 4658
1 4659
1 4660
1 4661
1 4662
1 4663
1 4664
1 4665
1 4666
1 4667
1 4668
1 4669
1 4670
1 4671
1 4672
1 4673
1 4674
1 4675
1 4676
1 4677
1 4678
1 4679
1 4680
1 4681
1 4682
1 4683
1 4684
1 4685
1 4686
1 4687
1 4688
1 4689
1 4690
1 4691
1 4692
1 4693
1 4694
1 4695
1 4696
1 4697
1 4698
1 4699
1 4700
1 4701
1 4702
1 4703
1 4704
1 4705
1 4706
1 4707
1 4708
1 4709
1 4710
1 4711
1 4712
1 4713
1 4714
1 4715
1 4716
1 4717
1 4718
1 4719
1 4720
1 4721
1 4722
1 4723
1 4724
1 4725
1 4726
1 4727
1 4728
1 4729
1 4730
1 4731
1 4732
1 4733
1 4734
1 4735
1 4736
1 4737
1 4738
1 4739
1 4740
1 4741
1 4742
1 4743
1 4744
1 4745
1 4746
1 4747
1 4748
1 4749
1 4750
1 4751
1 4752
1 4753
1 4754
1 4755
1 4756
1 4757
1 4758
1 4759
1 4760
1 4761
1 4762
1 4763
1 4764
1 4765
1 4766
1 4767
1 4768
1 4769
1 4770
1 4771
1 4772
1 4773
1 4774
1 4775
1 4776
1 4777
1 4778
1 4779
1 4780
1 4781
1 4782
1 4783
1 4784
1 4785
1 4786
1 4787
1 4788
1 4789
1 4790
1 4791
1 4792
1 4793
1 4794
1 4795
1 4796
1 4797
1 4798
1 4799
1 4800
1 4801
1 4802
1 4803
1 4804
1 4805
1 4806
1 4807
1 4808
1 4809
1 4810
1 4811
1 4812
1 4813
1 4814
1 4815
1 4816
1 4817
1 4818
1 4819
1 4820
1 4821
1 4822
1 4823
1 4824
1 4825
1 4826
1 4827
1 4828
1 4829
1 4830
1 4831
1 4832
1 4833
1 4834
1 4835
1 4836
1 4837
1 4838
1 4839
1 4840
1 4841
1 4842
1 4843
1 4844
1 4845
1 4846
1 4847
1 4848
1 4849
1 4850
1 4851
1 4852
1 4853
1 4854
1 4855
1 4856
1 4857
1 4858
1 4859
1 4860
1 4861
1 4862
1 4863
1 4864
1 4865
1 4866
1 4867
1 4868
1 4869
1 4870
1 4871
1 4872
1 4873
1 4874
1 4875
1 4876
1 4877
1 4878
1 4879
1 4880
1 4881
1 4882
1 4883
1 4884
1 4885
1 4886
1 4887
1 4888
1 4889
1 4890
1 4891
1 4892
1 4893
1 4894
1 4895
1 4896
1 4897
1 4898
1 4899
1 4900
1 4901
1 4902
1 4903
1 4904
1 4905
1 4906
1 4907
1 4908
1 4909
1 4910
1 4911
1 4912
1 4913
1 4914
1 4915
1 4916
1 4917
1 4918
1 4919
1 4920
1 4921
1 4922
1 4923
1 4924
1 4925
1 4926
1 4927
1 4928
1 4929
1 4930
1 4931
1 4932
1 4933
1 4934
1 4935
1 4936
1 4937
1 4938
1 4939
1 4940
1 4941
1 4942
1 4943
1 4944
1 4945
1 4946
1 4947
1 4948
1 4949
1 4950
1 4951
1 4952
1 4953
1 4954
1 4955
1 4956
1 4957
1 4958
1 4959
1 4960
1 4961
1 4962
1 4963
1 4964
1 4965
1 4966
1 4967
1 4968
1 4969
1 4970
1 4971
1 4972
1 4973
1 4974
1 4975
1 4976
1 4977
1 4978
1 4979
1 4980
1 4981
1 4982
1 4983
1 4984
1 4985
1 4986
1 4987
1 4988
1 4989
1 4990
1 4991
1 4992
1 4993
1 4994
1 4995
1 4996
1 4997
1 4998
1 4999
CELL_TYPES 5000
1 
1 
1 
1 
1 
1 
1 
1 
1 
1 
1 
1 
1 
1 
1 
1 
1 
1 
1 
1 
1 
1 
1 
1 
1 
1 
1 
1 
1 
1 
1 
1 
1 
1 
1 
1 
1 
1 
1 
1 
1 
1 
1 
1 
1 
1 
1 
1 
1 
1 
1 
1 
1 
1 
1 
1 
1 
1 
1 
1 
1 
1 
1 
1 
1 
1 
1 
1 
1 
1 
1 
1 
1 
1 
1 
1 
1 
1 
1 
1 
1 
1 
1 
1 
1 
1 
1 
1 
1 
1 
1 
1 
1 
1 
1 
1 
1 
1 
1 
1 
1 
1 
1 
1 
1 
1 
1 
1 
1 
1 
1 
1 
1 
1 
1 
1 
1 
1 
1 
1 
1 
1 
1 
1 
1 
1 
1 
1 
1 
1 
1 
1 
1 
1 
1 
1 
1 
1 
1 
1 
1 
1 
1 
1 
1 
1 
1 
1 
1 
1 
1 
1 
1 
1 
1 
1 
1 
1 
1 
1 
1 
1 
1 
1 
1 
1 
1 
1 
1 
1 
1 
1 
1 
1 
1 
1 
1 
1 
1 
1 
1 
1 
1 
1 
1 
1 
1 
1 
1 
1 
1 
1 
1 
1 
1 
1 
1 
1 
1 
1 
1 
1 
1 
1 
1 
1 
1 
1 
1 
1 
1 
1 
1 
1 
1 
1 
1 
1 
1 
1 
1 
1 
1 
1 
1 
1 
1 
1 
1 
1 
1 
1 
1 
1 
1 
1 
1 
1 
1 
1 
1 
1 
1 
1 
1 
1 
1 
1 
1 
1 
1 
1 
1 
1 
1 
1 
1 
1 
1 
1 
1 
1 
1 
1 
1 
1 
1 
1 
1 
1 
1 
1 
1 
1 
1 
1 
1 
1 
1 
1 
1 
1 
1 
1 
1 
1 
1 
1 
1 
1 
1 
1 
1 
1 
1 
1 
1 
1 
1 
1 
1 
1 
1 
1 
1 
1 
1 
1 
1 
1 
1 
1 
1 
1 
1 
1 
1 
1 
1 
1 
1 
1 
1 
1 
1 
1 
1 
1 
1 
1 
1 
1 
1 
1 
1 
1 
1 
1 
1 
1 
1 
1 
1 
1 
1 
1 
1 
1 
1 
1 
1 
1 
1 
1 
1 
1 
1 
1 
1 
1 
1 
1 
1 
1 
1 
1 
1 
1 
1 
1 
1 
1 
1 
1 
1 
1 
1 
1 
1 
1 
1 
1 
1 
1 
1 
1 
1 
1 
1 
1 
1 
1 
1 
1 
1 
1 
1 
1 
1 
1 
1 
1 
1 
1 
1 
1 
1 
1 
1 
1 
1 
1 
1 
1 
1 
1 
1 
1 
1 
1 
1 
1 
1 
1 
1 
1 
1 
1 
1 
1 
1 
1 
1 
1 
1 
1 
1 
1 
1 
1 
1 
1 
1 
1 
1 
1 
1 
1 
1 
1 
1 
1 
1 
1 
1 
1 
1 
1 
1 
1 
1 
1 
1 
1 
1 
1 
1 
1 
1 
1 
1 
1 
1 
1 
1 
1 
1 
1 
1 
1 
1 
1 
1 
1 
1 
1 
1 
1 
1 
1 
1 
1 
1 
1 
1 
1 
1 
1 
1 
1 
1 
1 
1 
1 
1 
1 
1 
1 
1 
1 
1 
1 
1 
1 
1 
1 
1 
1 
1 
1 
1 
1 
1 
1 
1 
1 
1 
1 
1 
1 
1 
1 
1 
1 
1 
1 
1 
1 
1 
1 
1 
1 
1 
1 
1 
1 
1 
1 
1 
1 
1 
1 
1 
1 
1 
1 
1 
1 
1 
1 
1 
1 
1 
1 
1 
1 
1 
1 
1 
1 
1 
1 
1 
1 
1 
1 
1 
1 
1 
1 
1 
1 
1 
1 
1 
1 
1 
1 
1 
1 
1 
1 
1 
1 
1 
1 
1 
1 
1 
1 
1 
1 
1 
1 
1 
1 
1 
1 
1 
1 
1 
1 
1 
1 
1 
1 
1 
1 
1 
1 
1 
1 
1 
1 
1 
1 
1 
1 
1 
1 
1 
1 
1 
1 
1 
1 
1 
1 
1 
1 
1 
1 
1 
1 
1 
1 
1 
1 
1 
1 
1 
1 
1 
1 
1 
1 
1 
1 
1 
1 
1 
1 
1 
1 
1 
1 
1 
1 
1 
1 
1 
1 
1 
1 
1 
1 
1 
1 
1 
1 
1 
1 
1 
1 
1 
1 
1 
1 
1 
1 
1 
1 
1 
1 
1 
1 
1 
1 
1 
1 
1 
1 
1 
1 
1 
1 
1 
1 
1 
1 
1 
1 
1 
1 
1 
1 
1 
1 
1 
1 
1 
1 
1 
1 
1 
1 
1 
1 
1 
1 
1 
1 
1 
1 
1 
1 
1 
1 
1 
1 
1 
1 
1 
1 
1 
1 
1 
1 
1 
1 
1 
1 
1 
1 
1 
1 
1 
1 
1 
1 
1 
1 
1 
1 
1 
1 
1 
1 
1 
1 
1 
1 
1 
1 
1 
1 
1 
1 
1 
1 
1 
1 
1 
1 
1 
1 
1 
1 
1 
1 
1 
1 
1 
1 
1 
1 
1 
1 
1 
1 
1 
1 
1 
1 
1 
1 
1 
1 
1 
1 
1 
1 
1 
1 
1 
1 
1 
1 
1 
1 
1 
1 
1 
1 
1 
1 
1 
1 
1 
1 
1 
1 
1 
1 
1 
1 
1 
1 
1 
1 
1 
1 
1 
1 
1 
1 
1 
1 
1 
1 
1 
1 
1 
1 
1 
1 
1 
1 
1 
1 
1 
1 
1 
1 
1 
1 
1 
1 
1 
1 
1 
1 
1 
1 
1 
1 
1 
1 
1 
1 
1 
1 
1 
1 
1 
1 
1 
1 
1 
1 
1 
1 
1 
1 
1 
1 
1 
1 
1 
1 
1 
1 
1 
1 
1 
1 
1 
1 
1 
1 
1 
1 
1 
1 
1 
1 
1 
1 
1 
1 
1 
1 
1 
1 
1 
1 
1 
1 
1 
1 
1 
1 
1 
1 
1 
1 
1 
1 
1 
1 
1 
1 
1 
1 
1 
1 
1 
1 
1 
1 
1 
1 
1 
1 
1 
1 
1 
1 
1 
1 
1 
1 
1 
1 
1 
1 
1 
1 
1 
1 
1 
1 
1 
1 
1 
1 
1 
1 
1 
1 
1 
1 
1 
1 
1 
1 
1 
1 
1 
1 
1 
1 
1 
1 
1 
1 
1 
1 
1 
1 
1 
1 
1 
1 
1 
1 
1 
1 
1 
1 
1 
1 
1 
1 
1 
1 
1 
1 
1 
1 
1 
1 
1 
1 
1 
1 
1 
1 
1 
1 
1 
1 
1 
1 
1 
1 
1 
1 
1 
1 
1 
1 
1 
1 
1 
1 
1 
1 
1 
1 
1 
1 
1 
1 
1 
1 
1 
1 
1 
1 
1 
1 
1 
1 
1 
1 
1 
1 
1 
1 
1 
1 
1 
1 
1 
1 
1 
1 
1 
1 
1 
1 
1 
1 
1 
1 
1 
1 
1 
1 
1 
1 
1 
1 
1 
1 
1 
1 
1 
1 
1 
1 
1 
1 
1 
1 
1 
1 
1 
1 
1 
1 
1 
1 
1 
1 
1 
1 
1 
1 
1 
1 
1 
1 
1 
1 
1 
1 
1 
1 
1 
1 
1 
1 
1 
1 
1 
1 
1 
1 
1 
1 
1 
1 
1 
1 
1 
1 
1 
1 
1 
1 
1 
1 
1 
1 
1 
1 
1 
1 
1 
1 
1 
1 
1 
1 
1 
1 
1 
1 
1 
1 
1 
1 
1 
1 
1 
1 
1 
1 
1 
1 
1 
1 
1 
1 
1 
1 
1 
1 
1 
1 
1 
1 
1 
1 
1 
1 
1 
1 
1 
1 
1 
1 
1 
1 
1 
1 
1 
1 
1 
1 
1 
1 
1 
1 
1 
1 
1 
1 
1 
1 
1 
1 
1 
1 
1 
1 
1 
1 
1 
1 
1 
1 
1 
1 
1 
1 
1 
1 
1 
1 
1 
1 
1 
1 
1 
1 
1 
1 
1 
1 
1 
1 
1 
1 
1 
1 
1 
1 
1 
1 
1 
1 
1 
1 
1 
1 
1 
1 
1 
1 
1 
1 
1 
1 
1 
1 
1 
1 
1 
1 
1 
1 
1 
1 
1 
1 
1 
1 
1 
1 
1 
1 
1 
1 
1 
1 
1 
1 
1 
1 
1 
1 
1 
1 
1 
1 
1 
1 
1 
1 
1 
1 
1 
1 
1 
1 
1 
1 
1 
1 
1 
1 
1 
1 
1 
1 
1 
1 
1 
1 
1 
1 
1 
1 
1 
1 
1 
1 
1 
1 
1 
1 
1 
1 
1 
1 
1 
1 
1 
1 
1 
1 
1 
1 
1 
1 
1 
1 
1 
1 
1 
1 
1 
1 
1 
1 
1 
1 
1 
1 
1 
1 
1 
1 
1 
1 
1 
1 
1 
1 
1 
1 
1 
1 
1 
1 
1 
1 
1 
1 
1 
1 
1 
1 
1 
1 
1 
1 
1 
1 
1 
1 
1 
1 
1 
1 
1 
1 
1 
1 
1 
1 
1 
1 
1 
1 
1 
1 
1 
1 
1 
1 
1 
1 
1 
1 
1 
1 
1 
1 
1 
1 
1 
1 
1 
1 
1 
1 
1 
1 
1 
1 
1 
1 
1 
1 
1 
1 
1 
1 
1 
1 
1 
1 
1 
1 
1 
1 
1 
1 
1 
1 
1 
1 
1 
1 
1 
1 
1 
1 
1 
1 
1 
1 
1 
1 
1 
1 
1 
1 
1 
1 
1 
1 
1 
1 
1 
1 
1 
1 
1 
1 
1 
1 
1 
1 
1 
1 
1 
1 
1 
1 
1 
1 
1 
1 
1 
1 
1 
1 
1 
1 
1 
1 
1 
1 
1 
1 
1 
1 
1 
1 
1 
1 
1 
1 
1 
1 
1 
1 
1 
1 
1 
1 
1 
1 
1 
1 
1 
1 
1 
1 
1 
1 
1 
1 
1 
1 
1 
1 
1 
1 
1 
1 
1 
1 
1 
1 
1 
1 
1 
1 
1 
1 
1 
1 
1 
1 
1 
1 
1 
1 
1 
1 
1 
1 
1 
1 
1 
1 
1 
1 
1 
1 
1 
1 
1 
1 
1 
1 
1 
1 
1 
1 
1 
1 
1 
1 
1 
1 
1 
1 
1 
1 
1 
1 
1 
1 
1 
1 
1 
1 
1 
1 
1 
1 
1 
1 
1 
1 
1 
1 
1 
1 
1 
1 
1 
1 
1 
1 
1 
1 
1 
1 
1 
1 
1 
1 
1 
1 
1 
1 
1 
1 
1 
1 
1 
1 
1 
1 
1 
1 
1 
1 
1 
1 
1 
1 
1 
1 
1 
1 
1 
1 
1 
1 
1 
1 
1 
1 
1 
1 
1 
1 
1 
1 
1 
1 
1 
1 
1 
1 
1 
1 
1 
1 
1 
1 
1 
1 
1 
1 
1 
1 
1 
1 
1 
1 
1 
1 
1 
1 
1 
1 
1 
1 
1 
1 
1 
1 
1 
1 
1 
1 
1 
1 
1 
1 
1 
1 
1 
1 
1 
1 
1 
1 
1 
1 
1 
1 
1 
1 
1 
1 
1 
1 
1 
1 
1 
1 
1 
1 
1 
1 
1 
1 
1 
1 
1 
1 
1 
1 
1 
1 
1 
1 
1 
1 
1 
1 
1 
1 
1 
1 
1 
1 
1 
1 
1 
1 
1 
1 
1 
1 
1 
1 
1 
1 
1 
1 
1 
1 
1 
1 
1 
1 
1 
1 
1 
1 
1 
1 
1 
1 
1 
1 
1 
1 
1 
1 
1 
1 
1 
1 
1 
1 
1 
1 
1 
1 
1 
1 
1 
1 
1 
1 
1 
1 
1 
1 
1 
1 
1 
1 
1 
1 
1 
1 
1 
1 
1 
1 
1 
1 
1 
1 
1 
1 
1 
1 
1 
1 
1 
1 
1 
1 
1 
1 
1 
1 
1 
1 
1 
1 
1 
1 
1 
1 
1 
1 
1 
1 
1 
1 
1 
1 
1 
1 
1 
1 
1 
1 
1 
1 
1 
1 
1 
1 
1 
1 
1 
1 
1 
1 
1 
1 
1 
1 
1 
1 
1 
1 
1 
1 
1 
1 
1 
1 
1 
1 
1 
1 
1 
1 
1 
1 
1 
1 
1 
1 
1 
1 
1 
1 
1 
1 
1 
1 
1 
1 
1 
1 
1 
1 
1 
1 
1 
1 
1 
1 
1 
1 
1 
1 
1 
1 
1 
1 
1 
1 
1 
1 
1 
1 
1 
1 
1 
1 
1 
1 
1 
1 
1 
1 
1 
1 
1 
1 
1 
1 
1 
1 
1 
1 
1 
1 
1 
1 
1 
1 
1 
1 
1 
1 
1 
1 
1 
1 
1 
1 
1 
1 
1 
1 
1 
1 
1 
1 
1 
1 
1 
1 
1 
1 
1 
1 
1 
1 
1 
1 
1 
1 
1 
1 
1 
1 
1 
1 
1 
1 
1 
1 
1 
1 
1 
1 
1 
1 
1 
1 
1 
1 
1 
1 
1 
1 
1 
1 
1 
1 
1 
1 
1 
1 
1 
1 
1 
1 
1 
1 
1 
1 
1 
1 
1 
1 
1 
1 
1 
1 
1 
1 
1 
1 
1 
1 
1 
1 
1 
1 
1 
1 
1 
1 
1 
1 
1 
1 
1 
1 
1 
1 
1 
1 
1 
1 
1 
1 
1 
1 
1 
1 
1 
1 
1 
1 
1 
1 
1 
1 
1 
1 
1 
1 
1 
1 
1 
1 
1 
1 
1 
1 
1 
1 
1 
1 
1 
1 
1 
1 
1 
1 
1 
1 
1 
1 
1 
1 
1 
1 
1 
1 
1 
1 
1 
1 
1 
1 
1 
1 
1 
1 
1 
1 
1 
1 
1 
1 
1 
1 
1 
1 
1 
1 
1 
1 
1 
1 
1 
1 
1 
1 
1 
1 
1 
1 
1 
1 
1 
1 
1 
1 
1 
1 
1 
1 
1 
1 
1 
1 
1 
1 
1 
1 
1 
1 
1 
1 
1 
1 
1 
1 
1 
1 
1 
1 
1 
1 
1 
1 
1 
1 
1 
1 
1 
1 
1 
1 
1 
1 
1 
1 
1 
1 
1 
1 
1 
1 
1 
1 
1 
1 
1 
1 
1 
1 
1 
1 
1 
1 
1 
1 
1 
1 
1 
1 
1 
1 
1 
1 
1 
1 
1 
1 
1 
1 
1 
1 
1 
1 
1 
1 
1 
1 
1 
1 
1 
1 
1 
1 
1 
1 
1 
1 
1 
1 
1 
1 
1 
1 
1 
1 
1 
1 
1 
1 
1 
1 
1 
1 
1 
1 
1 
1 
1 
1 
1 
1 
1 
1 
1 
1 
1 
1 
1 
1 
1 
1 
1 
1 
1 
1 
1 
1 
1 
1 
1 
1 
1 
1 
1 
1 
1 
1 
1 
1 
1 
1 
1 
1 
1 
1 
1 
1 
1 
1 
1 
1 
1 
1 
1 
1 
1 
1 
1 
1 
1 
1 
1 
1 
1 
1 
1 
1 
1 
1 
1 
1 
1 
1 
1 
1 
1 
1 
1 
1 
1 
1 
1 
1 
1 
1 
1 
1 
1 
1 
1 
1 
1 
1 
1 
1 
1 
1 
1 
1 
1 
1 
1 
1 
1 
1 
1 
1 
1 
1 
1 
1 
1 
1 
1 
1 
1 
1 
1 
1 
1 
1 
1 
1 
1 
1 
1 
1 
1 
1 
1 
1 
1 
1 
1 
1 
1 
1 
1 
1 
1 
1 
1 
1 
1 
1 
1 
1 
1 
1 
1 
1 
1 
1 
1 
1 
1 
1 
1 
1 
1 
1 
1 
1 
1 
1 
1 
1 
1 
1 
1 
1 
1 
1 
1 
1 
1 
1 
1 
1 
1 
1 
1 
1 
1 
1 
1 
1 
1 
1 
1 
1 
1 
1 
1 
1 
1 
1 
1 
1 
1 
1 
1 
1 
1 
1 
1 
1 
1 
1 
1 
1 
1 
1 
1 
1 
1 
1 
1 
1 
1 
1 
1 
1 
1 
1 
1 
1 
1 
1 
1 
1 
1 
1 
1 
1 
1 
1 
1 
1 
1 
1 
1 
1 
1 
1 
1 
1 
1 
1 
1 
1 
1 
1 
1 
1 
1 
1 
1 
1 
1 
1 
1 
1 
1 
1 
1 
1 
1 
1 
1 
1 
1 
1 
1 
1 
1 
1 
1 
1 
1 
1 
1 
1 
1 
1 
1 
1 
1 
1 
1 
1 
1 
1 
1 
1 
1 
1 
1 
1 
1 
1 
1 
1 
1 
1 
1 
1 
1 
1 
1 
1 
1 
1 
1 
1 
1 
1 
1 
1 
1 
1 
1 
1 
1 
1 
1 
1 
1 
1 
1 
1 
1 
1 
1 
1 
1 
1 
1 
1 
1 
1 
1 
1 
1 
1 
1 
1 
1 
1 
1 
1 
1 
1 
1 
1 
1 
1 
1 
1 
1 
1 
1 
1 
1 
1 
1 
1 
1 
1 
1 
1 
1 
1 
1 
1 
1 
1 
1 
1 
1 
1 
1 
1 
1 
1 
1 
1 
1 
1 
1 
1 
1 
1 
1 
1 
1 
1 
1 
1 
1 
1 
1 
1 
1 
1 
1 
1 
1 
1 
1 
1 
1 
1 
1 
1 
1 
1 
1 
1 
1 
1 
1 
1 
1 
1 
1 
1 
1 
1 
1 
1 
1 
1 
1 
1 
1 
1 
1 
1 
1 
1 
1 
1 
1 
1 
1 
1 
1 
1 
1 
1 
1 
1 
1 
1 
1 
1 
1 
1 
1 
1 
1 
1 
1 
1 
1 
1 
1 
1 
1 
1 
1 
1 
1 
1 
1 
1 
1 
1 
1 
1 
1 
1 
1 
1 
1 
1 
1 
1 
1 
1 
1 
1 
1 
1 
1 
1 
1 
1 
1 
1 
1 
1 
1 
1 
1 
1 
1 
1 
1 
1 
1 
1 
1 
1 
1 
1 
1 
1 
1 
1 
1 
1 
1 
1 
1 
1 
1 
1 
1 
1 
1 
1 
1 
1 
1 
1 
1 
1 
1 
1 
1 
1 
1 
1 
1 
1 
1 
1 
1 
1 
1 
1 
1 
1 
1 
1 
1 
1 
1 
1 
1 
1 
1 
1 
1 
1 
1 
1 
1 
1 
1 
1 
1 
1 
1 
1 
1 
1 
1 
1 
1 
1 
1 
1 
1 
1 
1 
1 
1 
1 
1 
1 
1 
1 
1 
1 
1 
1 
1 
1 
1 
1 
1 
1 
1 
1 
1 
1 
1 
1 
1 
1 
1 
1 
1 
1 
1 
1 
1 
1 
1 
1 
1 
1 
1 
1 
1 
1 
1 
1 
1 
1 
1 
1 
1 
1 
1 
1 
1 
1 
1 
1 
1 
1 
1 
1 
1 
1 
1 
1 
1 
1 
1 
1 
1 
1 
1 
1 
1 
1 
1 
1 
1 
1 
1 
1 
1 
1 
1 
1 
1 
1 
1 
1 
1 
1 
1 
1 
1 
1 
1 
1 
1 
1 
1 
1 
1 
1 
1 
1 
1 
1 
1 
1 
1 
1 
1 
1 
1 
1 
1 
1 
1 
1 
1 
1 
1 
1 
1 
1 
1 
1 
1 
1 
1 
1 
1 
1 
1 
1 
1 
1 
1 
1 
1 
1 
1 
1 
1 
1 
1 
1 
1 
1 
1 
1 
1 
1 
1 
1 
1 
1 
1 
1 
1 
1 
1 
1 
1 
1 
1 
1 
1 
1 
1 
1 
1 
1 
1 
1 
1 
1 
1 
1 
1 
1 
1 
1 
1 
1 
1 
1 
1 
1 
1 
1 
1 
1 
1 
1 
1 
1 
1 
1 
1 
1 
1 
1 
1 
1 
1 
1 
1 
1 
1 
1 
1 
1 
1 
1 
1 
1 
1 
1 
1 
1 
1 
1 
1 
1 
1 
1 
1 
1 
1 
1 
1 
1 
1 
1 
1 
1 
1 
1 
1 
1 
1 
1 
1 
1 
1 
1 
1 
1 
1 
1 
1 
1 
1 
1 
1 
1 
1 
1 
1 
1 
1 
1 
1 
1 
1 
1 
1 
1 
1 
1 
1 
1 
1 
1 
1 
1 
1 
1 
1 
1 
1 
1 
1 
1 
1 
1 
1 
1 
1 
1 
1 
1 
1 
1 
1 
1 
1 
1 
1 
1 
1 
1 
1 
1 
1 
1 
1 
1 
1 
1 
1 
1 
1 
1 
1 
1 
1 
1 
1 
1 
1 
1 
1 
1 
1 
1 
1 
1 
1 
1 
1 
1 
1 
1 
1 
1 
1 
1 
1 
1 
1 
1 
1 
1 
1 
1 
1 
1 
1 
1 
1 
1 
1 
1 
1 
1 
1 
1 
1 
1 
1 
1 
1 
1 
1 
1 
1 
1 
1 
1 
1 
1 
1 
1 
1 
1 
1 
1 
1 
1 
1 
1 
1 
1 
1 
1 
1 
1 
1 
1 
1 
1 
1 
1 
1 
1 
1 
1 
1 
1 
1 
1 
1 
1 
1 
1 
1 
1 
1 
1 
1 
1 
1 
1 
1 
1 
1 
1 
1 
1 
1 
1 
1 
1 
1 
1 
1 
1 
1 
1 
1 
1 
1 
1 
1 
1 
1 
1 
1 
1 
1 
1 
1 
1 
1 
1 
1 
1 
1 
1 
1 
1 
1 
1 
1 
1 
1 
1 
1 
1 
1 
1 
1 
1 
1 
1 
1 
1 
1 
1 
1 
1 
1 
1 
1 
1 
1 
1 
1 
1 
1 
1 
1 
1 
1 
1 
1 
1 
1 
1 
1 
1 
1 
1 
1 
1 
1 
1 
1 
1 
1 
1 
1 
1 
1 
1 
1 
1 
1 
1 
1 
1 
1 
1 
1 
1 
1 
1 
1 
1 
1 
1 
1 
1 
1 
1 
1 
1 
1 
1 
1 
1 
1 
1 
1 
1 
1 
1 
1 
1 
1 
1 
1 
1 
1 
1 
1 
1 
1 
1 
1 
1 
1 
1 
1 
1 
1 
1 
1 
1 
1 
1 
1 
1 
1 
1 
1 
1 
1 
1 
1 
1 
1 
1 
1 
1 
1 
1 
1 
1 
1 
1 
1 
1 
1 
1 
1 
1 
1 
1 
1 
1 
1 
1 
1 
1 
1 
1 
1 
1 
1 
1 
1 
1 
1 
1 
1 
1 
1 
1 
1 
1 
1 
1 
1 
1 
1 
1 
1 
1 
1 
1 
1 
1 
1 
1 
1 
1 
1 
1 
1 
1 
1 
1 
1 
1 
1 
1 
1 
1 
1 
1 
1 
1 
1 
1 
1 
1 
1 
1 
1 
1 
1 
1 
1 
1 
1 
1 
1 
1 
1 
1 
1 
1 
1 
1 
1 
1 
1 
1 
1 
1 
1 
1 
1 
1 
1 
1 
1 
1 
1 
1 
1 
1 
1 
1 
1 
1 
1 
1 
1 
1 
1 
1 
1 
1 
1 
1 
1 
1 
1 
1 
1 
1 
1 
1 
1 
1 
1 
1 
1 
1 
1 
1 
1 
1 
1 
1 
1 
1 
1 
1 
1 
1 
1 
1 
1 
1 
1 
1 
1 
1 
1 
1 
1 
1 
1 
1 
1 
1 
1 
1 
1 
1 
1 
1 
1 
1 
1 
1 
1 
1 
1 
1 
1 
1 
1 
1 
1 
1 
1 
1 
1 
1 
1 
1 
1 
1 
1 
1 
1 
1 
1 
1 
1 
1 
1 
1 
1 
1 
1 
1 
1 
1 
1 
1 
1 
1 
1 
1 
1 
1 
1 
1 
1 
1 
1 
1 
1 
1 
1 
1 
1 
1 
1 
1 
1 
1 
1 
1 
1 
1 
1 
1 
1 
1 
1 
1 
1 
1 
1 
1 
1 
1 
1 
1 
1 
1 
1 
1 
1 
1 
1 
1 
1 
1 
1 
1 
1 
1 
1 
1 
1 
1 
1 
1 
1 
1 
1 
1 
1 
1 
1 
1 
1 
1 
1 
1 
1 
1 
1 
1 
1 
1 
1 
1 
1 
1 
1 
1 
1 
1 
1 
1 
1 
1 
1 
1 
1 
1 
1 
1 
1 
1 
1 
1 
1 
1 
1 
1 
1 
1 
1 
1 
1 
1 
1 
1 
1 
1 
1 
1 
1 
1 
1 
1 
1 
1 
1 
1 
1 
1 
1 
1 
1 
1 
1 
1 
1 
1 
1 
1 
1 
1 
1 
1 
1 
1 
1 
1 
1 
1 
1 
1 
1 
1 
1 
1 
1 
1 
1 
1 
1 
1 
1 
1 
1 
1 
1 
1 
1 
1 
1 
1 
1 
1 
1 
1 
1 
1 
1 
1 
1 
1 
1 
1 
1 
1 
1 
1 
1 
1 
1 
1 
1 
1 
1 
1 
1 
1 
1 
1 
1 
1 
1 
1 
1 
1 
1 
1 
1 
1 
1 
1 
1 
1 
1 
1 
1 
1 
1 
1 
1 
1 
1 
1 
1 
1 
1 
1 
1 
1 
1 
1 
1 
1 
1 
1 
1 
1 
1 
1 
1 
1 
1 
1 
1 
1 
1 
1 
1 
1 
1 
1 
1 
1 
1 
1 
1 
1 
1 
1 
1 
1 
1 
1 
1 
1 
1 
1 
1 
1 
1 
1 
1 
1 
1 
1 
1 
1 
1 
1 
1 
1 
1 
1 
1 
1 
1 
1 
1 
1 
1 
1 
1 
1 
1 
1 
1 
1 
1 
1 
1 
1 
1 
1 
1 
1 
1 
1 
1 
1 
1 
1 
1 
1 
1 
1 
1 
1 
1 
1 
1 
1 
1 
1 
1 
1 
1 
1 
1 
1 
1 
1 
1 
1 
1 
1 
1 
1 
1 
1 
1 
1 
1 
1 
1 
1 
1 
1 
1 
1 
1 
1 
1 
1 
1 
1 
1 
1 
1 
1 
1 
1 
1 
1 
1 
1 
1 
1 
1 
1 
1 
1 
1 
1 
1 
1 
1 
1 
1 
1 
1 
1 
1 
1 
1 
1 
1 
1 
1 
1 
1 
1 
1 
1 
1 
1 
1 
1 
1 
1 
1 
1 
1 
1 
1 
1 
1 
1 
1 
1 
1 
1 
1 
1 
1 
1 
1 
1 
1 
1 
1 
1 
1 
1 
1 
1 
1 
1 
1 
1 
1 
1 
1 
1 
1 
1 
1 
1 
1 
1 
1 
1 
1 
1 
1 
1 
1 
1 
1 
1 
1 
1 
1 
1 
1 
1 
1 
1 
1 
1 
1 
1 
1 
1 
1 
1 
1 
1 
1 
1 
1 
1 
1 
1 
1 
1 
1 
1 
1 
1 
1 
1 
1 
1 
1 
1 
1 
1 
1 
1 
1 
1 
1 
1 
1 
1 
1 
1 
1 
1 
1 
1 
1 
1 
1 
1 
1 
1 
1 
1 
1 
1 
1 
1 
1 
1 
1 
1 
1 
1 
1 
1 
1 
1 
1 
1 
1 
1 
1 
1 
1 
1 
1 
1 
1 
1 
1 
1 
1 
1 
1 
1 
1 
1 
1 
1 
1 
1 
1 
1 
1 
1 
1 
1 
1 
1 
1 
1 
1 
1 
1 
1 
1 
1 
1 
1 
1 
1 
1 
1 
1 
1 
1 
1 
1 
1 
1 
1 
1 
1 
1 
1 
1 
1 
1 
1 
1 
1 
1 
1 
1 
1 
1 
1 
1 
1 
1 
1 
1 
1 
1 
1 
1 
1 
1 
1 
1 
1 
1 
1 
1 
1 
1 
1 
1 
1 
1 
1 
1 
1 
1 
1 
1 
1 
1 
1 
1 
1 
1 
1 
1 
1 
1 
1 
1 
1 
1 
1 
1 
1 
1 
1 
1 
1 
1 
1 
1 
1 
1 
1 
1 
1 
1 
1 
1 
1 
1 
1 
1 
1 
1 
1 
1 
1 
1 
1 
1 
1 
1 
1 
1 
1 
1 
1 
1 
1 
1 
1 
1 
1 
1 
1 
1 
1 
1 
1 
1 
1 
1 
1 
1 
1 
1 
1 
1 
1 
1 
1 
1 
1 
1 
1 
1 
1 
1 
1 
1 
1 
1 
1 
1 
1 
1 
1 
1 
1 
1 
1 
1 
1 
1 
1 
1 
1 
1 
1 
1 
1 
1 
1 
1 
1 
1 
1 
1 
1 
1 
1 
1 
1 
1 
1 
1 
1 
1 
1 
1 
1 
1 
1 
1 
1 
1 
1 
1 
1 
1 
1 
1 
1 
1 
1 
1 
1 
1 
1 
1 
1 
1 
1 
1 
1 
1 
1 
1 
1 
1 
1 
1 
1 
1 
1 
1 
1 
1 
1 
1 
1 
1 
1 
1 
1 
1 
1 
1 
1 
1 
1 
1 
1 
1 
1 
1 
1 
1 
1 
1 
1 
1 
1 
1 
1 
1 
1 
1 
1 
1 
1 
1 
1 
1 
1 
1 
1 
1 
1 
1 
1 
1 
1 
1 
1 
1 
1 
1 
1 
1 
1 
1 
1 
1 
1 
1 
1 
1 
1 
1 
1 
1 
1 
1 
1 
1 
1 
1 
1 
1 
1 
1 
1 
1 
1 
1 
1 
1 
1 
1 
1 
1 
1 
1 
1 
1 
1 
1 
1 
1 
1 
1 
1 
1 
1 
1 
1 
1 
1 
1 
1 
1 
1 
1 
1 
1 
1 
1 
1 
1 
1 
1 
1 
1 
1 
1 
1 
1 
1 
1 
1 
1 
1 
1 
1 
1 
1 
1 
1 
1 
1 
1 
1 
1 
1 
1 
1 
1 
1 
1 
1 
1 
1 
1 
1 
1 
1 
1 
1 
1 
1 
1 
1 
1 
1 
1 
1 
1 
1 
1 
1 
1 
1 
1 
1 
1 
1 
1 
1 
1 
1 
1 
1 
1 
1 
1 
1 
1 
1 
1 
1 
1 
1 
1 
1 
1 
1 
1 
1 
1 
1 
1 
1 
1 
1 
1 
1 
1 
1 
1 
1 
1 
1 
1 
1 
1 
1 
1 
1 
1 
1 
1 
1 
1 
1 
1 
1 
1 
1 
1 
1 
1 
1 
1 
1 
1 
1 
1 
1 
1 
1 
1 
1 
1 
1 
1 
1 
1 
1 
1 
1 
1 
1 
1 
1 
1 
1 
1 
1 
1 
1 
1 
1 
1 
1 
1 
1 
1 
1 
1 
1 
1 
1 
1 
1 
1 
1 
1 
1 
1 
1 
1 
1 
1 
1 
1 
1 
1 
1 
1 
1 
1 
1 
1 
1 
1 
1 
1 
1 
1 
1 
1 
1 
1 
1 
1 
1 
1 
1 
1 
1 
1 
1 
1 
1 
1 
1 
1 
1 
1 
1 
1 
1 
1 
1 
1 
1 
1 
1 
1 
1 
1 
1 
1 
1 
1 
1 
1 
1 
1 
1 
1 
1 
1 
1 
1 
1 
1 
1 
1 
1 
1 
1 
1 
1 
1 
1 
1 
1 
1 
1 
1 
1 
1 
1 
1 
1 
1 
1 
1 
1 
1 
1 
1 
1 
1 
1 
1 
1 
1 
1 
1 
1 
1 
1 
1 
1 
1 
1 
1 
1 
1 
1 
1 
1 
1 
1 
1 
1 
1 
1 
1 
1 
1 
1 
1 
1 
1 
1 
1 
1 
1 
1 
1 
1 
1 
1 
1 
1 
1 
1 
1 
1 
1 
1 
1 
1 
1 
1 
1 
1 
1 
1 
1 
1 
1 
1 
1 
1 
1 
1 
1 
1 
1 
1 
1 
1 
1 
1 
1 
1 
1 
1 
1 
1 
1 
1 
1 
1 
1 
1 
1 
1 
1 
1 
1 
1 
1 
1 
1 
1 
1 
1 
1 
1 
1 
1 
1 
1 
1 
1 
1 
1 
1 
1 
1 
1 
1 
1 
1 
1 
1 
1 
1 
1 
1 
1 
1 
1 
1 
1 
1 
1 
1 
1 
1 
1 
1 
1 
1 
1 
1 
1 
1 
1 
1 
1 
1 
1 
1 
1 
1 
1 
1 
1 
1 
1 
1 
1 
1 
1 
1 
1 
1 
1 
1 
1 
1 
1 
1 
1 
1 
1 
1 
1 
1 
1 
1 
1 
1 
1 
1 
1 
1 
1 
1 
1 
1 
1 
1 
1 
1 
1 
1 
1 
1 
1 
1 
1 
1 
1 
1 
1 
1 
1 
1 
1 
1 
1 
1 
1 
1 
1 
1 
1 
POINT_DATA 5000
VECTORS Stress float
212.374 -949.985 0.
-215.962 -1281.54 0.
-284.643 -1441.84 0.
1.95989 -1429.29 0.
1.03846 -1432.25 0.
0.117041 -1435.22 0.
-143.468 -1509.31 0.
-163.126 -1555.24 0.
-182.784 -1601.17 0.
-55.726 -1563.21 0.
-55.86 -1563.56 0.
-55.9941 -1563.9 0.
-19.5073 -1545.14 0.
-16.8011 -1539.09 0.
-628.672 -1791.14 0.
-607.11 -1740.76 0.
-585.549 -1690.38 0.
-312.308 -1555.3 0.
-333.284 -1604.39 0.
-354.259 -1653.48 0.
-198.928 -1607.47 0.
-199.188 -1608.06 0.
-199.448 -1608.64 0.
-445.275 -1596.89 0.
-363.805 -1407.09 0.
-153.866 -1162.25 0.
-1004.89 -1345.81 0.
-909.796 -1123.61 0.
-801.339 -994.094 0.
-950.916 -1343.47 0.
-1100.49 -1692.85 0.
-622.711 -1615.36 0.
-584.331 -1524.7 0.
-545.95 -1434.03 0.
-1358.85 -1844.62 0.
-1430.67 -2011.81 0.
-1502.5 -2178.99 0.
-2009.3 -2387.17 0.
-1994.27 -2352.02 0.
-2186.07 -2346.47 0.
-1852.01 -1566.97 0.
-1517.96 -787.467 0.
-3368.29 -1056.11 0.
-3223.22 -716.332 0.
-3078.16 -376.552 0.
-4575.85 -1438.42 0.
-5111.16 -2686.45 0.
-5646.46 -3934.47 0.
18236.3 7280.93 0.
19084.3 9261.46 0.
-135984 -55580.1 0.
19403.5 9422.56 0.
18569.1 7473.09 0.
-5833.07 -4030.55 0.
-5488.98 -3228.31 0.
-5144.9 -2426.07 0.
-3205.54 -1237.92 0.
-3203.31 -1232.81 0.
-3201.07 -1227.69 0.
-2149.49 -775.749 0.
-2145.72 -766.91 0.
-2141.94 -758.071 0.
-2034.71 -931.183 0.
-2162.43 -1228.94 0.
-321.452 -699.743 0.
-521.648 -1166.94 0.
-721.844 -1634.14 0.
-816.599 -1889.42 0.
-769.55 -1779.72 0.
-722.5 -1670.02 0.
-596.528 -1582.35 0.
-600.207 -1590.7 0.
-603.887 -1599.06 0.
-1600.62 -1704.41 0.
-1387.06 -1206.34 0.
74.3378 -197.908 0.
-137.79 -761.936 0.
-385.923 -1341.39 0.
75.2204 -1497.51 0.
74.3058 -1499.51 0.
73.3912 -1501.52 0.
285.924 -1406.9 0.
289.244 -1398.53 0.
292.565 -1390.17 0.
-261.858 -1502.07 0.
-172.288 -1292.4 0.
-82.7173 -1082.73 0.
-486.869 -1419.69 0.
-584.258 -1647.95 0.
-468.443 -1735.79 0.
-389.047 -1550.58 0.
-309.651 -1365.37 0.
-76.2504 -1229.87 0.
-161.079 -1428.39 0.
-245.908 -1626.92 0.
-330.373 -1639.4 0.
-247.669 -1446.57 0.
-164.966 -1253.73 0.
-381.756 -1440.76 0.
-466.335 -1636.34 0.
185.764 -931.524 0.
-238.012 -1262.2 0.
-306.788 -1422.79 0.
-183.278 -1475.45 0.
-183.776 -1479.06 0.
-184.273 -1482.66 0.
60.0411 -1390.76 0.
40.5042 -1436.54 0.
20.9671 -1482.32 0.
55.3373 -1484.86 0.
55.2234 -1485.23 0.
55.1096 -1485.6 0.
-530.096 -1732.3 0.
-527.235 -1726.41 0.
-352.893 -1642.08 0.
-331.313 -1591.52 0.
-309.734 -1540.95 0.
-445.889 -1581.66 0.
-466.79 -1630.87 0.
-487.69 -1680.08 0.
459.977 -1294.38 0.
459.686 -1294.99 0.
459.395 -1295.61 0.
-703.874 -1675.54 0.
-622.343 -1486.2 0.
-871.51 -1438.6 0.
-1302.48 -1441.97 0.
-1207.7 -1219.88 0.
-610.79 -881.171 0.
-760.12 -1230.71 0.
-909.451 -1580.24 0.
-900.824 -1703.63 0.
-863.095 -1612.28 0.
-825.367 -1520.93 0.
-888.275 -1612.87 0.
-960.347 -1779.82 0.
-1032.42 -1946.77 0.
-1555.99 -2162.08 0.
-1540.96 -2126.75 0.
-2221.63 -2329.71 0.
-1887.57 -1550.1 0.
-1553.51 -770.485 0.
-3046.27 -887.705 0.
-2901.82 -546.782 0.
-2757.37 -205.858 0.
-2792.82 -647.214 0.
-3329.47 -1896.37 0.
-3866.12 -3145.52 0.
15629.9 6198.48 0.
16475 8176.22 0.
-114920 -46521.3 0.
16642.9 8272.23 0.
15811.6 6325.39 0.
-3780.98 -3121.21 0.
-3436.05 -2318.24 0.
-3091.12 -1515.26 0.
-2755.48 -1013.91 0.
-2753.23 -1008.92 0.
-2750.97 -1003.94 0.
-1880.12 -629.209 0.
-1876.31 -620.231 0.
-1872.51 -611.254 0.
-2170.5 -958.014 0.
-2298.34 -1255.56 0.
-519.638 -753.589 0.
-719.741 -1220.71 0.
-919.845 -1687.84 0.
-237.548 -1609.52 0.
-190.413 -1499.79 0.
-143.278 -1390.06 0.
-614.298 -1559.2 0.
-618.139 -1567.47 0.
-621.981 -1575.74 0.
-1771.72 -1747 0.
-1558.06 -1249.18 0.
-628.049 -466.191 0.
-764.934 -998.208 0.
-1012.7 -1577.74 0.
1325.77 -930.364 0.
1324.75 -932.347 0.
1323.74 -934.331 0.
339.565 -1352.92 0.
342.525 -1344.16 0.
345.485 -1335.4 0.
-729.829 -1672.49 0.
-640.791 -1462.72 0.
-551.753 -1252.95 0.
-900.833 -1566.17 0.
-997.607 -1795.06 0.
-225.536 -1601.12 0.
-146.14 -1416.01 0.
-66.7435 -1230.91 0.
14.6324 -1159.31 0.
-69.9691 -1358.48 0.
-154.571 -1557.66 0.
-160.299 -1534.39 0.
-77.4689 -1341.54 0.
5.36132 -1148.69 0.
-176.419 -1320.95 0.
-261.88 -1515.03 0.
-200.186 -1753.45 0.
-405.114 -1581.46 0.
-300.352 -1335.98 0.
-673.863 -2244.55 0.
-358.904 -1508.91 0.
-662.363 -2216.25 0.
-1087.07 -4425.52 0.
-1053.87 -4349.24 0.
-2830.5 -8495.88 0.
-4648.45 -12640 0.
-2002.06 -6465.82 0.
-1940.95 -6323.99 0.
-2932.64 -6336.54 0.
-3230.05 -7027.15 0.
-3731.94 -10029.5 0.
-1076.11 -3829.97 0.
-1268.37 -4275.97 0.
-1889.4 -4667.21 0.
-2327.08 -5689.21 0.
-5426.9 -12922.9 0.
-12921 -33740.7 0.
-3590.89 -11968.7 0.
-2441.35 -9284.62 0.
-3236.97 -7063.31 0.
-2560.71 -5484.6 0.
-3463.36 -7646.26 0.
-3208.8 -5291.23 0.
-3105.37 -5048.73 0.
-1715.86 -3802.66 0.
-1733.96 -3842.42 0.
-3051.57 -6914.34 0.
-6523.2 -14260.5 0.
-3457.27 -7109.44 0.
-3276.7 -6690.86 0.
-2764.81 -6849.97 0.
-3640.88 -8897.95 0.
-10069.9 -23902.9 0.
-11227.7 -25563.2 0.
-7330.56 -16470.3 0.
-7004.94 -13395.4 0.
-5051.17 -8837.28 0.
-5226.58 -9247.25 0.
-5250.63 -6613.36 0.
-4129.5 -4000.52 0.
-4178.63 -4118.27 0.
-3159.44 -4863.64 0.
-3686.9 -6093.24 0.
-10895 -22911 0.
10716.4 -269.11 0.
11189.4 842.396 0.
-91747 -45653.7 0.
11062.1 541.283 0.
10373 -1074.79 0.
-10150.8 -21868 0.
-3857 -7182.57 0.
-4495.41 -8672.27 0.
-5394.67 -7999.99 0.
-4721.58 -6428.87 0.
-5727.91 -8776.38 0.
-4711.58 -7727.67 0.
-3562.48 -5047.23 0.
-3730.46 -5439.96 0.
-3800.62 -4470.54 0.
-3895.92 -4692.81 0.
-3918.79 -8277.03 0.
-3994.42 -8453.56 0.
-6604.65 -14544.1 0.
-13730 -34164.8 0.
-3968.85 -11388.6 0.
-3500.18 -10294.8 0.
-3766.53 -8850.27 0.
-3284.21 -7725.76 0.
-5109.28 -11985.1 0.
-3073.59 -4429.07 0.
-2719.64 -3602.12 0.
-2967.44 -4705.53 0.
-2322.18 -3414.75 0.
-3269.47 -5622.28 0.
-7068.11 -22865.8 0.
-6657.69 -21907.7 0.
-12944.3 -36575.9 0.
-10858.1 -27551.5 0.
-5439.8 -14908.8 0.
-4784.14 -13379.1 0.
-2659.67 -5255.24 0.
-1640.42 -2879.49 0.
-2362.9 -4567.75 0.
-2571.98 -4641.01 0.
-2755.41 -5069.47 0.
-2666.27 -7741.3 0.
-657.444 -3051.81 0.
-537.56 -2770.2 0.
-749.416 -3084.73 0.
-551.204 -2621.59 0.
-1418.31 -4644.15 0.
-697.36 -3086.28 0.
-45.8405 -1563.73 0.
14.0045 -1421.79 0.
-210.234 -1753.62 0.
-994.425 -3585.8 0.
313.362 -485.122 0.
-199.719 -634.147 0.
-200.221 -634.612 0.
175.184 -457.974 0.
226.159 -336.26 0.
277.133 -214.545 0.
845.643 189.49 0.
975.503 491.753 0.
1105.36 794.016 0.
975.659 916.045 0.
1049.07 1086.15 0.
1122.47 1256.27 0.
586.031 1150.36 0.
647.759 1296.4 0.
1150.24 1606.61 0.
1070.57 1423.7 0.
990.895 1240.79 0.
614.266 1189.61 0.
963.025 2002.82 0.
1311.78 2816.02 0.
2526.8 3526.01 0.
2410.06 3253.37 0.
2293.32 2980.72 0.
940.968 2125.8 0.
787.023 1767.02 0.
1182.99 1643.87 0.
-213.717 811.893 0.
-334.442 531.208 0.
273.551 752.399 0.
626.602 1579.36 0.
979.654 2406.33 0.
950.339 2691.22 0.
853.103 2463.11 0.
755.866 2235 0.
1178.67 2951.32 0.
1661.46 4075.48 0.
2144.25 5199.64 0.
1800.7 5249.7 0.
1850.68 5366.28 0.
1013.71 4977.46 0.
417.521 3586.28 0.
-178.672 2195.1 0.
-688.513 1072.06 0.
-907.635 559.241 0.
-1126.75 46.4288 0.
-20.1663 463.552 0.
101.19 746.4 0.
222.55 1029.25 0.
11085 6117.34 0.
11348.7 6739.08 0.
-41603.6 -15445.7 0.
11595.3 7037.12 0.
11433.3 6651.01 0.
680.308 1822.47 0.
718.759 1911.35 0.
757.208 2000.24 0.
-563.897 1525.95 0.
-506.131 1661.72 0.
-448.365 1797.49 0.
-395.53 1655.67 0.
-547.648 1300.28 0.
-699.765 944.888 0.
-650.516 1103.13 0.
-554.587 1325.74 0.
444.779 2041.72 0.
978.445 3286.04 0.
1512.11 4530.36 0.
2634.22 5428.07 0.
2268.84 4574.52 0.
1903.46 3720.96 0.
1341.6 3124.52 0.
1287.31 2996.02 0.
1233.02 2867.52 0.
245.931 1822.47 0.
-150.7 900.288 0.
-71.6719 220.992 0.
430.268 1553.48 0.
1015.81 2921.8 0.
3662.16 4986.94 0.
3849.89 5424.69 0.
4037.61 5862.44 0.
2776.15 5181.64 0.
2401.88 4307.54 0.
2027.61 3433.44 0.
941.544 2209.47 0.
535.185 1259.65 0.
128.827 309.825 0.
51.3467 355.586 0.
131.641 543.688 0.
971.93 976.332 0.
770.212 507.375 0.
568.494 38.4191 0.
439.619 -184.862 0.
538.695 47.5512 0.
637.771 279.964 0.
745.17 188.696 0.
552.482 -257.88 0.
359.794 -704.457 0.
380.544 -197.061 0.
752.067 668.57 0.
293.747 -460.949 0.
-428.966 -700.959 0.
-429.436 -701.671 0.
294.208 -374.822 0.
344.392 -252.904 0.
394.575 -130.986 0.
806.666 203.902 0.
936.381 506.26 0.
1066.1 808.618 0.
764.667 856.819 0.
838.258 1026.94 0.
911.849 1197.07 0.
982.396 1351.86 0.
1044.53 1497.52 0.
1038.62 1590.55 0.
958.84 1407.76 0.
879.06 1224.98 0.
622.603 1224.01 0.
971.326 2037.32 0.
1320.05 2850.63 0.
1902.68 3291.63 0.
1786.55 3018.33 0.
1670.41 2745.04 0.
1251.33 2290.55 0.
1097.4 1931.48 0.
1639.42 1870.59 0.
267.971 1050.41 0.
147.232 769.547 0.
335.556 810.193 0.
688.364 1637.27 0.
1041.17 2464.34 0.
1222.05 2838.69 0.
1124.37 2611.09 0.
1026.7 2383.49 0.
879.495 2853.09 0.
1361.69 3977.33 0.
1843.88 5101.58 0.
1601 5196.97 0.
1650.84 5313.62 0.
1207.23 5091.69 0.
610.92 3700.84 0.
14.6088 2310 0.
881.425 1775.73 0.
661.691 1263.07 0.
441.961 750.41 0.
1043.15 946.845 0.
1165.01 1229.41 0.
1286.87 1511.98 0.
8201.95 4916.52 0.
8465.33 5536.15 0.
-12605.5 -2986.57 0.
8854.81 5894.47 0.
8693.45 5509.53 0.
1527.21 2216.47 0.
1565.99 2305.37 0.
1604.77 2394.27 0.
368.832 1956.44 0.
426.452 2092.28 0.
484.073 2228.12 0.
-18.2361 1848.56 0.
-170.47 1493.23 0.
-322.703 1137.9 0.
299.428 1543.1 0.
395.907 1765.65 0.
389.22 2049.16 0.
923.152 3293.26 0.
1457.09 4537.36 0.
1910.95 5150.19 0.
1546.07 4296.55 0.
1181.19 3442.9 0.
1329.21 3151.43 0.
1275.14 3022.51 0.
1221.07 2893.6 0.
1048.06 2200.09 0.
650.528 1278.03 0.
679.236 572.078 0.
1209.32 1917.11 0.
1795.53 3286.2 0.
2201.22 4393.48 0.
2389.18 4831.07 0.
2577.14 5268.66 0.
2310.39 5014.69 0.
1936.45 4140.7 0.
1562.51 3266.72 0.
1449.92 2457.58 0.
1043.11 1507.54 0.
636.299 557.497 0.
658.41 647.561 0.
738.246 835.87 0.
867.951 961.857 0.
666.22 492.732 0.
464.489 23.6076 0.
391.122 -172.547 0.
490.026 60.0078 0.
588.929 292.562 0.
809.35 247.595 0.
616.445 -198.785 0.
423.54 -645.164 0.
303.821 -197.824 0.
675.124 668.4 0.
142.592 -879.397 0.
-660.232 -1303.56 0.
-678.795 -1348.93 0.
-27.3361 -1123.6 0.
-85.787 -1261.16 0.
-144.238 -1398.71 0.
-14.4793 -1480.94 0.
-104.413 -1690.72 0.
-194.347 -1900.5 0.
-520.615 -2085.82 0.
-503.845 -2046.34 0.
-487.074 -2006.85 0.
-285.913 -1927.1 0.
-295.862 -1949.63 0.
-565.757 -2065.88 0.
-461.501 -1821.53 0.
-357.246 -1577.17 0.
-544.67 -1669.83 0.
-798.029 -2254.49 0.
-1051.39 -2839.16 0.
-977.411 -2834.84 0.
-783.274 -2384.59 0.
-589.137 -1934.35 0.
-405.228 -1785.07 0.
-415.199 -1811.98 0.
90.7053 -1617.7 0.
-663.412 -1714.11 0.
-539.97 -1428.93 0.
-563.951 -1310.5 0.
-697.896 -1625.12 0.
-831.841 -1939.75 0.
-776.002 -1934.59 0.
-617.103 -1571.29 0.
-458.203 -1207.99 0.
-1144.46 -1787.95 0.
-1455.66 -2515.5 0.
-1766.87 -3243.05 0.
-1766.26 -3156.3 0.
-1671.6 -2937.94 0.
-1906.92 -2853.32 0.
-1766.63 -2529.02 0.
-1626.33 -2204.73 0.
85.7124 -1388.2 0.
-74.6555 -1764.08 0.
-235.024 -2139.95 0.
306.093 -1697.33 0.
644.327 -910.42 0.
982.56 -123.505 0.
4340.71 -28.4886 0.
3329.67 -2382.73 0.
-1644.42 -6435.63 0.
3497.03 -2543.04 0.
4387.12 -472.357 0.
477.132 -963.014 0.
207.053 -1582.65 0.
-63.024 -2202.28 0.
-1109.43 -2734.51 0.
-885.727 -2217.7 0.
-662.019 -1700.89 0.
-1254.06 -1737.09 0.
-1194.44 -1593.87 0.
-1134.82 -1450.64 0.
-628.146 -1393.21 0.
-728.732 -1627.09 0.
-1247.24 -2047.94 0.
-1381.21 -2360.3 0.
-1515.18 -2672.67 0.
-1503.61 -2738.53 0.
-1356.38 -2392.18 0.
-1209.14 -2045.84 0.
-847.737 -1849.17 0.
-918.175 -2012.66 0.
-988.613 -2176.16 0.
-431.499 -1846.82 0.
-350.774 -1665.75 0.
41.1146 -1355.68 0.
-154.336 -1735.2 0.
-311.522 -2098.32 0.
-1274.39 -2788.37 0.
-1392.76 -3061.5 0.
-1511.13 -3334.62 0.
-1252.25 -3197.03 0.
-1087.45 -2812.35 0.
-922.653 -2427.67 0.
-292.541 -1837 0.
-120.173 -1438.98 0.
52.1945 -1040.95 0.
-14.5081 -1294.59 0.
-162.027 -1635.15 0.
-394.972 -1929.92 0.
-235.842 -1555.57 0.
-76.7114 -1181.23 0.
-25.0041 -1028.08 0.
-117.712 -1238.57 0.
-210.419 -1449.06 0.
97.306 -1270.19 0.
201.522 -1029.89 0.
305.74 -789.596 0.
-148.337 -1100.24 0.
-249.419 -1332.15 0.
252.682 -803.58 0.
-323.403 -1127.99 0.
-342.544 -1172.98 0.
-110.267 -1129.5 0.
-168.479 -1267.48 0.
-226.692 -1405.46 0.
-194.46 -1525.87 0.
-284.618 -1736.02 0.
-374.777 -1946.17 0.
-340.772 -1978.18 0.
-323.929 -1938.99 0.
-307.086 -1899.81 0.
-320.343 -1911.47 0.
-330.271 -1934.42 0.
-509.434 -2010.9 0.
-405.558 -1766.38 0.
-301.681 -1521.85 0.
-357.295 -1557.98 0.
-610.115 -2143.6 0.
-862.933 -2729.22 0.
-953.689 -2792.74 0.
-759.536 -2342.54 0.
-565.383 -1892.34 0.
-458.044 -1777.94 0.
-468.048 -1804.65 0.
-1003.03 -2056.39 0.
-500.853 -1614.08 0.
-378.057 -1328.72 0.
-564.113 -1280.11 0.
-698.557 -1594.26 0.
-833.002 -1908.41 0.
-882.939 -1950.59 0.
-724.957 -1586.64 0.
-566.976 -1222.68 0.
-921.58 -1663.49 0.
-1232.94 -2390.86 0.
-1544.31 -3118.24 0.
-1039.52 -2815.27 0.
-944.959 -2596.74 0.
-1356.33 -2586.22 0.
-1215.78 -2262.16 0.
-1075.23 -1938.09 0.
-70.7265 -1425.56 0.
-231.082 -1801.65 0.
-391.437 -2177.73 0.
242.65 -1694.97 0.
581.13 -908.569 0.
919.609 -122.166 0.
2939.21 -599.256 0.
1930.53 -2951.95 0.
-2407.33 -6732.61 0.
1987.64 -3160.87 0.
2876.25 -1092.09 0.
411.596 -958.159 0.
142.021 -1578.05 0.
-127.551 -2197.94 0.
-699.959 -2530.6 0.
-476.629 -2013.17 0.
-253.298 -1495.73 0.
-860.042 -1538.37 0.
-800.453 -1395.04 0.
-740.863 -1251.71 0.
-734.678 -1407.62 0.
-835.11 -1641.9 0.
-872.062 -1856.72 0.
-1006.41 -2169.15 0.
-1140.76 -2481.57 0.
-864.486 -2432.58 0.
-716.824 -2086.4 0.
-569.162 -1740.21 0.
-885.943 -1835.26 0.
-956.13 -1998.88 0.
-1026.32 -2162.5 0.
-567.016 -1873.05 0.
-486.544 -1691.39 0.
-176.768 -1418.23 0.
-384.03 -1802.91 0.
-540.809 -2165.95 0.
-805.28 -2557.75 0.
-923.413 -2830.55 0.
-1041.55 -3103.36 0.
-885.707 -3010.03 0.
-720.616 -2625.27 0.
-555.524 -2240.51 0.
-523.267 -1905.5 0.
-351.014 -1507.49 0.
-178.761 -1109.48 0.
-222.461 -1353.42 0.
-369.381 -1694.67 0.
-313.068 -1863.77 0.
-153.774 -1489.9 0.
5.51956 -1116.04 0.
-80.6278 -1020.18 0.
-172.744 -1231.23 0.
-264.859 -1442.28 0.
-69.7482 -1312.56 0.
33.9317 -1071.9 0.
137.612 -831.236 0.
-198.46 -1089.48 0.
-300.3 -1321.11 0.
151.763 -1181.76 0.
97.9885 -764.991 0.
123.695 -700.941 0.
-232.062 -1229.23 0.
-43.5244 -788.72 0.
53.6519 -561.363 0.
-586.353 -2062.47 0.
357.845 141.754 0.
312.218 35.9846 0.
319.999 -758.966 0.
-124.662 -1794.73 0.
245.135 -930.103 0.
214.783 -561.619 0.
148.593 -718.992 0.
-232.045 -1430.71 0.
128.129 -596.579 0.
-188.812 -1342.4 0.
-468.774 -2128.08 0.
-235.582 -1585.21 0.
225.15 -511.438 0.
17.8612 -549.951 0.
-64.2652 -742.431 0.
-133.211 -904.2 0.
-5.72547 -596.138 0.
-227.75 -1112.52 0.
-63.4965 -618.254 0.
120.792 -435.344 0.
-236.907 -1276.93 0.
-503.571 -1098.49 0.
-12.6096 40.687 0.
391.153 976.418 0.
-1027.08 -2067.31 0.
-623.484 -1126.74 0.
-171.491 -73.1706 0.
65.802 242.98 0.
-910.533 -2032.3 0.
-1711.3 -3898.02 0.
-409.846 -2677.84 0.
157.92 -1349.14 0.
-453.233 -1509.5 0.
-426.804 -1444.76 0.
-196.123 -903.519 0.
-124.196 -1228.24 0.
-183.764 -1367.22 0.
596.132 452.432 0.
1088.45 422.94 0.
689.654 -503.209 0.
849.648 -125.562 0.
1637.04 -958.349 0.
2264.19 510.123 0.
-2664.53 -2456.19 0.
2176.66 161.703 0.
1955.06 -354.427 0.
328.197 -981.125 0.
-113.937 -2015.16 0.
-542.353 -3017.17 0.
456.738 -582.23 0.
1052.76 808.173 0.
1008.96 705.691 0.
-327.918 -1017.26 0.
-804.166 -2132.21 0.
289.458 415.977 0.
-415.217 -435.99 0.
-1144.11 -2130.94 0.
-486.157 -1628.81 0.
437.537 525.427 0.
-176.426 -908.23 0.
160.551 -1207.05 0.
105.755 -1335.59 0.
357.995 -747.672 0.
-797.55 -1526.13 0.
94.779 556.92 0.
1.10322 339.347 0.
-484.84 -1395.67 0.
-704.897 -1905.06 0.
397.991 -88.0657 0.
-178.164 -872.133 0.
-528.525 -1689.25 0.
624.12 -67.2374 0.
82.4457 -1330.99 0.
31.8204 -1448.89 0.
93.8403 -1381.34 0.
299.444 -900.347 0.
467.274 -507.436 0.
-729.306 -1931.61 0.
-767.074 -2017.89 0.
-1229.71 -3095.58 0.
-313.607 -1131.3 0.
195.285 54.3481 0.
892.837 822.521 0.
657.075 265.735 0.
402.817 -334.372 0.
-63.52 -833.3 0.
25.5692 -624.787 0.
599.231 714.397 0.
304.798 -95.7454 0.
179.883 -388.309 0.
162.846 -429.12 0.
322.033 241.839 0.
-183.893 -941.453 0.
-44.4819 -1323.2 0.
-284.825 -1240.78 0.
-171.632 -973.663 0.
-77.5289 -760.167 0.
-98.7252 -809.735 0.
-119.922 -859.303 0.
-6.15194 -874.506 0.
-51.6287 -977.752 0.
-97.1055 -1081 0.
189.828 -1081.49 0.
108.299 -1271.37 0.
26.7704 -1461.25 0.
-130.885 -1498.92 0.
-96.4835 -1421.12 0.
-291.436 -1436.54 0.
-213.575 -1258.94 0.
-135.715 -1081.34 0.
-80.3441 -999.327 0.
-163.663 -1194.46 0.
-246.982 -1389.6 0.
-115.04 -1499.21 0.
-203.855 -1707.5 0.
-292.67 -1915.78 0.
-505.779 -1779.28 0.
-320.646 -1346.46 0.
-140.217 -915.496 0.
-466.876 -1147.48 0.
-514.154 -1263.45 0.
-643.087 -1395.41 0.
-630.54 -1370.75 0.
-617.994 -1346.09 0.
-348.174 -1237.37 0.
-371.915 -1293.66 0.
-395.655 -1349.95 0.
-522.783 -1404.05 0.
-513.469 -1378.29 0.
-504.154 -1352.52 0.
-55.1425 -1259.23 0.
-118.813 -1403.89 0.
-283.027 -1573.5 0.
-288.317 -1583.13 0.
-293.607 -1592.76 0.
-224.758 -1511.27 0.
-129.191 -1288.72 0.
-33.6237 -1066.18 0.
525.287 -743.221 0.
525.254 -742.09 0.
525.22 -740.958 0.
1504.35 -535.596 0.
1361.34 -865.883 0.
-1429.84 -2328.45 0.
1411.84 -858.8 0.
1542.46 -551.129 0.
245.568 -933.473 0.
205.08 -1029.33 0.
164.592 -1125.19 0.
144.17 -1280.42 0.
14.2391 -1584.02 0.
-115.692 -1887.63 0.
-682.967 -2074.8 0.
-573.979 -1822.01 0.
-464.99 -1569.22 0.
-719.882 -1515.68 0.
-640.603 -1325.81 0.
-215.94 -1070.56 0.
-461.441 -1645.31 0.
-706.941 -2220.06 0.
-352.969 -2234.3 0.
-141.157 -1740.53 0.
70.6548 -1246.77 0.
-494.938 -1271.53 0.
-456.303 -1179.88 0.
-417.668 -1088.23 0.
-369.22 -1000.05 0.
-336.671 -919.108 0.
-122.493 -765.721 0.
-311.327 -1144.74 0.
-468.341 -1510.13 0.
22.1267 -1569.62 0.
-76.0991 -1798.89 0.
-174.325 -2028.16 0.
-229.594 -1984.87 0.
-35.831 -1531.31 0.
157.932 -1077.74 0.
-192.221 -1053.41 0.
-148.107 -948.525 0.
-103.993 -843.64 0.
-159.508 -957.661 0.
-214.142 -1085.31 0.
-72.892 -1137.56 0.
-146.325 -1313.57 0.
-219.758 -1489.58 0.
-463.328 -1622.71 0.
-369.85 -1402.9 0.
-276.373 -1183.08 0.
-125.862 -946.905 0.
-38.3363 -743.801 0.
49.1894 -540.696 0.
-83.7289 -744.678 0.
-199.449 -1015.55 0.
-195.115 -1358.2 0.
-487.444 -1296.21 0.
-373.961 -1029.44 0.
-117.624 -745.202 0.
-138.697 -795.229 0.
-159.771 -845.256 0.
96.8602 -799.979 0.
50.918 -902.657 0.
4.97592 -1005.33 0.
217.197 -1037.15 0.
135.978 -1227.68 0.
54.7602 -1418.22 0.
-45.8686 -1431.68 0.
-11.6515 -1353.64 0.
-343.947 -1426.58 0.
-266.803 -1248.79 0.
-189.661 -1071 0.
-181.128 -1012.18 0.
-264.599 -1207.31 0.
-348.07 -1402.45 0.
237.1 -1316.76 0.
148.238 -1525.08 0.
59.3754 -1733.4 0.
-480.879 -1737.65 0.
-295.309 -1305.08 0.
-128.025 -880.132 0.
-795.246 -1255.83 0.
-842.82 -1371.22 0.
-642.629 -1364.72 0.
-630.919 -1339.78 0.
-619.209 -1314.84 0.
64.0287 -1030.91 0.
40.0004 -1087.16 0.
15.9731 -1143.4 0.
-363.014 -1304.6 0.
-354.149 -1278.73 0.
-345.283 -1252.86 0.
-347.883 -1351.84 0.
-411.486 -1496.72 0.
-24.3409 -1430.27 0.
-29.625 -1440.44 0.
-34.9087 -1450.61 0.
-182.723 -1462.29 0.
-86.9601 -1239.47 0.
8.80233 -1016.65 0.
463.937 -738.575 0.
464.882 -737.743 0.
465.825 -736.911 0.
1137.84 -660.087 0.
995.477 -990.551 0.
-1558.9 -2354.25 0.
1025.38 -994.59 0.
1155.39 -686.68 0.
135.846 -949.508 0.
95.0266 -1044.97 0.
54.2073 -1140.42 0.
144.427 -1248.85 0.
14.5422 -1552.55 0.
-115.343 -1856.24 0.
-546.836 -1986.37 0.
-438.539 -1732.48 0.
-330.242 -1478.6 0.
-510.26 -1395.92 0.
-430.507 -1206.35 0.
-160.523 -1012.88 0.
-405.424 -1587.89 0.
-650.325 -2162.9 0.
-425.383 -2232.61 0.
-213.648 -1738.7 0.
-1.91358 -1244.8 0.
-241.97 -1133.55 0.
-203.534 -1041.61 0.
-165.098 -949.677 0.
-418.762 -989.593 0.
-386.547 -908.694 0.
-43.4086 -701.414 0.
-315.757 -1116.02 0.
-472.756 -1481.17 0.
89.6973 -1510.32 0.
-8.30707 -1739.28 0.
-106.311 -1968.24 0.
-292.841 -1980.58 0.
-98.9144 -1526.88 0.
95.0115 -1073.18 0.
22.1813 -928.144 0.
66.3301 -823.204 0.
110.479 -718.264 0.
-45.2417 -876.95 0.
-100.508 -1004.17 0.
-211.176 -1165.95 0.
-285.069 -1341.21 0.
-358.962 -1516.47 0.
-523.383 -1618.98 0.
-430.269 -1399.07 0.
-337.156 -1179.16 0.
-189.988 -942.965 0.
-102.453 -739.804 0.
-14.9176 -536.643 0.
-46.9744 -698.673 0.
-163.29 -969.029 0.
73.9623 -576.736 0.
-340.604 -927.421 0.
-451.994 -1190.43 0.
-340.288 -1333.68 0.
-390.782 -1451.98 0.
-441.276 -1570.28 0.
-166.999 -1494.95 0.
-153.66 -1467.17 0.
-140.322 -1439.4 0.
-10.4848 -1478.58 0.
-93.0744 -1671.15 0.
-175.664 -1863.72 0.
-256.858 -1816.85 0.
-198.699 -1677.08 0.
-452.52 -1681.86 0.
-432.537 -1633.28 0.
-412.554 -1584.71 0.
-397.445 -1584.82 0.
-448.75 -1703.38 0.
-500.055 -1821.93 0.
190.862 -1578.64 0.
182.513 -1599.05 0.
174.163 -1619.47 0.
-685.938 -1954.01 0.
-660.179 -1893.16 0.
-349.324 -1710.05 0.
-1163.85 -2015.27 0.
-1137.54 -1956.89 0.
-687.751 -1738.14 0.
-700.386 -1766.48 0.
-713.021 -1794.81 0.
-40.6822 -1554.44 0.
-77.641 -1644.95 0.
-114.6 -1735.46 0.
-629.92 -2034.66 0.
-671.172 -2130.39 0.
-712.424 -2226.13 0.
-718.897 -2178.16 0.
-687.303 -2102.31 0.
-228.241 -1854.33 0.
-254.647 -1912.12 0.
-281.053 -1969.91 0.
-328.88 -1958.76 0.
-230.93 -1722.81 0.
-132.979 -1486.86 0.
168.941 -1276.56 0.
159.928 -1298.47 0.
150.915 -1320.37 0.
731.952 -925.471 0.
834.524 -690.314 0.
-1360.02 -1439.48 0.
1021.49 -439.3 0.
1011.1 -463.802 0.
38.8458 -931.066 0.
-61.255 -1161.93 0.
-161.356 -1392.79 0.
-5.53129 -1487.58 0.
-73.1263 -1643.51 0.
-140.722 -1799.43 0.
-444.359 -1863.06 0.
-359.979 -1666.97 0.
-275.598 -1470.87 0.
-494.84 -1641.19 0.
-550.993 -1774.28 0.
-506.577 -1839.31 0.
-470.787 -1752.22 0.
-434.998 -1665.13 0.
-169.5 -1574.02 0.
-280.261 -1830.8 0.
-391.021 -2087.59 0.
-526.089 -2019.15 0.
-329.273 -1562.81 0.
-132.457 -1106.47 0.
-597.95 -1374.54 0.
-690.123 -1593.47 0.
-509.149 -1693.66 0.
-691.713 -1883.22 0.
-749.876 -2019.48 0.
-97.8896 -1845.75 0.
-145.64 -1956.23 0.
-193.391 -2066.71 0.
-385.655 -2182 0.
-370.701 -2146.57 0.
-355.747 -2111.15 0.
-320.791 -2003.65 0.
-260.917 -1864.59 0.
-201.044 -1725.52 0.
-411.44 -1670.87 0.
-335.617 -1495.9 0.
-305.173 -1358.94 0.
-286.656 -1314.21 0.
-268.139 -1269.49 0.
-384.053 -1303.11 0.
-397.846 -1339.48 0.
-411.64 -1375.84 0.
-298.613 -1320.04 0.
-281.818 -1278.43 0.
-265.023 -1236.82 0.
-116.795 -1069.64 0.
-51.0512 -920.137 0.
76.5064 -542.019 0.
-124.97 -803.033 0.
-236.449 -1066.19 0.
-201.971 -1243.25 0.
-252.589 -1361.42 0.
-303.206 -1479.6 0.
-145.522 -1454 0.
-132.388 -1425.98 0.
-119.254 -1397.96 0.
-96.7379 -1485.98 0.
-179.342 -1678.54 0.
-261.945 -1871.11 0.
-422.579 -1856.92 0.
-364.493 -1717.17 0.
-371.739 -1616.31 0.
-351.7 -1567.89 0.
-331.661 -1519.48 0.
-191.373 -1464.86 0.
-242.813 -1583.64 0.
-294.252 -1702.41 0.
33.6296 -1613.37 0.
25.625 -1633.95 0.
17.6203 -1654.53 0.
-956.929 -2041.19 0.
-931.046 -1980.7 0.
-293.12 -1657.84 0.
-910.327 -1873.43 0.
-883.523 -1815.76 0.
-385.195 -1576.07 0.
-398.089 -1604.72 0.
-410.983 -1633.38 0.
-113.999 -1556.45 0.
-151.787 -1646.64 0.
-189.576 -1736.83 0.
-634.259 -2005.57 0.
-676.742 -2100.65 0.
-719.226 -2195.72 0.
-451.95 -2032.9 0.
-421.117 -1956.43 0.
-487.515 -1935.51 0.
-514.299 -1993.38 0.
-541.084 -2051.25 0.
-197.326 -1871.54 0.
-98.8425 -1635.97 0.
-0.359393 -1400.39 0.
98.3325 -1274.36 0.
89.2522 -1296.14 0.
80.1718 -1317.93 0.
422.216 -1028.64 0.
523.916 -792.875 0.
-345.273 -974.15 0.
836.688 -486.879 0.
825.692 -511.022 0.
-76.214 -949.135 0.
-176.695 -1180.1 0.
-277.175 -1411.05 0.
-91.1597 -1493.11 0.
-159.165 -1649.23 0.
-227.171 -1805.34 0.
-433.2 -1826 0.
-349.436 -1629.7 0.
-265.672 -1433.4 0.
-356.719 -1550.71 0.
-413.178 -1683.44 0.
-521.642 -1815.65 0.
-485.535 -1728.19 0.
-449.427 -1640.72 0.
-141.03 -1531.28 0.
-251.934 -1787.49 0.
-362.837 -2043.69 0.
-512.426 -1984.1 0.
-315.396 -1527.87 0.
-118.365 -1071.64 0.
-542.699 -1316.93 0.
-634.651 -1536.23 0.
-923.937 -1841.03 0.
-763.176 -1883.07 0.
-821.474 -2018.99 0.
-252.15 -1881.28 0.
-299.878 -1991.09 0.
-347.607 -2100.91 0.
-309.687 -2119.56 0.
-294.964 -2083.95 0.
-280.242 -2048.33 0.
-192.134 -1915.56 0.
-132.396 -1776.25 0.
-72.6582 -1636.93 0.
-545.899 -1698.56 0.
-470.371 -1522.78 0.
-170.73 -1269.41 0.
-151.839 -1224.92 0.
-132.948 -1180.44 0.
-282.542 -1228.93 0.
-297.352 -1264.05 0.
-312.163 -1299.17 0.
-77.9124 -1195.52 0.
-61.1271 -1153.72 0.
-44.3415 -1111.92 0.
97.6558 -948.263 0.
163.981 -798.274 0.
-1.61598 -706.388 0.
22.0469 -841.73 0.
589.391 484.21 0.
403.882 -63.587 0.
196.284 -546.527 0.
325.899 -242.495 0.
509.787 59.2775 0.
444.756 -91.6892 0.
596.538 261.987 0.
633.169 412.393 0.
680.492 523.292 0.
556.995 235.667 0.
55.3171 -401.949 0.
-215.869 -1036.96 0.
24.8403 -804.918 0.
513.991 333.755 0.
247.559 -290.611 0.
575.358 -34.153 0.
538.674 -119.105 0.
462.262 -297.026 0.
752.251 384.822 0.
783.529 457.682 0.
173.963 -964.62 0.
-580.614 -618.991 0.
-180.198 310.363 0.
-240.66 -227.053 0.
50.551 -94.5549 0.
-357.454 -1053.3 0.
218.355 -695.889 0.
590.035 166.785 0.
702.308 424.115 0.
535.5 126.848 0.
379.094 -238.786 0.
412.926 -160.132 0.
232.822 62.2096 0.
465.317 605.298 0.
232.549 63.3579 0.
1230.67 1432.14 0.
643.647 58.9926 0.
47.1825 -169.317 0.
-93.9938 -503.02 0.
19.21 -242.9 0.
623.942 -159.183 0.
879.332 430.237 0.
735.433 88.3145 0.
47.1941 -1226.64 0.
257.469 -737.372 0.
860.331 668.277 0.
907.244 715.973 0.
918.044 739.876 0.
-1746.17 827.64 0.
1575.33 1641.44 0.
881.347 19.1072 0.
586.559 850.308 0.
350.079 297.426 0.
-32.6673 -596.075 0.
618.716 363.905 0.
529.041 155.965 0.
594.919 310.443 0.
180.247 -379.989 0.
312.166 -69.9699 0.
586.199 571.125 0.
336.257 -171.68 0.
328.5 -181.407 0.
193.858 -87.3023 0.
174.331 -132.456 0.
296.9 154.27 0.
595.907 174.82 0.
939.466 971.919 0.
464.177 -141.713 0.
166.245 -400.441 0.
375.302 88.288 0.
447.331 257.043 0.
49.3113 -20.5352 0.
531.145 1106.8 0.
-877.248 -331.22 0.
-276.311 -589.032 0.
-16.9278 13.8979 0.
80.1476 -773.953 0.
127.509 -664.801 0.
317.211 -223.747 0.
524.397 -293.798 0.
375.734 -634.277 0.
578.172 -155.427 0.
639.451 -190.457 0.
422.648 -692.671 0.
953.542 549.281 0.
-7.6488 -149.928 0.
205.393 349.46 0.
246.452 -522.093 0.
377.698 -215.857 0.
360.959 -255.051 0.
-259.032 -1334.49 0.
294.212 -46.2919 0.
328.662 30.819 0.
152.161 -1037.76 0.
443.488 -360.889 0.
206.256 -917.145 0.
227.108 -1032.75 0.
218.995 -1048.86 0.
48.3011 -940.666 0.
158.216 -944.586 0.
134.731 -997.478 0.
-28.2797 -1095.34 0.
-16.206 -1064.73 0.
-4.13202 -1034.11 0.
-99.1228 -1141 0.
-197.598 -1370.48 0.
-296.073 -1599.96 0.
-322.718 -1579.39 0.
-241.178 -1389.13 0.
-159.637 -1198.87 0.
-122.21 -1226.77 0.
-164.131 -1323.97 0.
-295.396 -1463.49 0.
-381.003 -1664.58 0.
-466.611 -1865.67 0.
-130.885 -1797.08 0.
-65.7403 -1644.68 0.
-0.595159 -1492.27 0.
-219.864 -1419.34 0.
-113.678 -1172.37 0.
-7.49198 -925.404 0.
-672.215 -1337.71 0.
-787.244 -1610.11 0.
-541.735 -1728.2 0.
-572.201 -1643 0.
-515.153 -1514.6 0.
-205.45 -1325.86 0.
-263.401 -1466.46 0.
-321.351 -1607.06 0.
-169.758 -1591.45 0.
-150.912 -1548.59 0.
-132.066 -1505.72 0.
-469.676 -1668.11 0.
-495.198 -1727.56 0.
-520.72 -1787.01 0.
-348.638 -1696.22 0.
-336.045 -1667.15 0.
-437.881 -1685.41 0.
-415.638 -1635.96 0.
-393.395 -1586.52 0.
30.0794 -1377.5 0.
27.1093 -1389.14 0.
24.139 -1400.77 0.
-126.493 -1378.46 0.
-37.5958 -1174.74 0.
51.3018 -971.019 0.
164.711 -968.068 0.
110.867 -1095.63 0.
-2316.71 -2240.83 0.
463.66 -1088.75 0.
443.782 -1136.72 0.
-660.285 -1627.69 0.
-627.859 -1552 0.
-595.434 -1476.31 0.
-326.001 -1364.08 0.
-369.058 -1464.55 0.
-412.114 -1565.01 0.
-241.187 -1527.5 0.
-250.318 -1549.02 0.
-259.449 -1570.54 0.
-214.155 -1593.94 0.
-243.831 -1658.29 0.
-466.739 -1793.09 0.
-437.756 -1725.85 0.
-408.774 -1658.61 0.
-336.948 -1558.9 0.
-288.599 -1447.66 0.
-240.249 -1336.43 0.
-229.256 -1384.95 0.
-316.09 -1586.17 0.
-402.923 -1787.4 0.
-638.361 -1856.4 0.
-592.545 -1746.62 0.
-625.735 -1672.03 0.
-543.53 -1741.69 0.
-596.639 -1869.27 0.
-299.347 -1782.46 0.
-203.6 -1560.98 0.
-107.854 -1339.49 0.
-91.3794 -1263.78 0.
-137.636 -1364.15 0.
-183.892 -1464.53 0.
-94.7858 -1482.94 0.
-119.594 -1538.45 0.
-144.402 -1593.95 0.
-517.928 -1658.31 0.
-460.685 -1524.87 0.
-98.0892 -1271.03 0.
-86.4677 -1244.29 0.
-74.8461 -1217.54 0.
-244.686 -1257.02 0.
-198.968 -1155.32 0.
-153.25 -1053.62 0.
110.788 -937.709 0.
85.3391 -1001.08 0.
59.8905 -1064.46 0.
377.94 -785.782 0.
473.586 -559.117 0.
248.109 -825.227 0.
394.914 -813.096 0.
371.673 -866.275 0.
1.00625 -1050.55 0.
12.5992 -1019.92 0.
24.1925 -989.287 0.
-198.536 -1152.14 0.
-296.94 -1382 0.
-395.344 -1611.85 0.
-431.282 -1593.49 0.
-349.357 -1403.42 0.
-267.432 -1213.35 0.
108.215 -1096.72 0.
65.7686 -1193.55 0.
-327.572 -1447.71 0.
-413.204 -1648.75 0.
-498.836 -1849.8 0.
-54.1417 -1732.27 0.
10.7563 -1580.05 0.
75.6546 -1427.82 0.
-444.397 -1482.78 0.
-337.57 -1235.94 0.
-230.743 -989.1 0.
-389.964 -1185.96 0.
-505.582 -1457.87 0.
-226.767 -1561.1 0.
-505.666 -1584.64 0.
-448.397 -1456.38 0.
-375.194 -1366.26 0.
-432.93 -1507.16 0.
-490.665 -1648.06 0.
-114.128 -1533.16 0.
-94.9681 -1490.84 0.
-75.8087 -1448.53 0.
-405.054 -1609.72 0.
-430.531 -1668.82 0.
-456.008 -1727.93 0.
-623.581 -1782.22 0.
-611.679 -1752.52 0.
-219.471 -1560.61 0.
-197.766 -1510.63 0.
-176.061 -1460.65 0.
-42.1193 -1379.15 0.
-45.485 -1390.47 0.
-48.851 -1401.79 0.
-243.529 -1397.43 0.
-153.993 -1194.13 0.
-64.4565 -990.836 0.
157.764 -938.256 0.
104.13 -1066.38 0.
-4393.21 -3098.36 0.
551.688 -1018.8 0.
531.55 -1067.25 0.
-869.215 -1684.23 0.
-836.73 -1608.59 0.
-804.245 -1532.96 0.
-559.144 -1433.51 0.
-601.765 -1533.91 0.
-644.384 -1634.31 0.
-139.159 -1453.55 0.
-148.242 -1475.08 0.
-157.324 -1496.61 0.
-123.423 -1521.89 0.
-152.519 -1586.45 0.
-361.28 -1715.93 0.
-332.509 -1648.54 0.
-303.738 -1581.15 0.
-555.233 -1622.04 0.
-507.13 -1510.49 0.
-459.027 -1398.94 0.
-182.371 -1333.59 0.
-268.475 -1535.18 0.
-354.578 -1736.77 0.
-500.594 -1764.93 0.
-454.475 -1655.11 0.
393.526 -1204.47 0.
-249.963 -1584.71 0.
-303.457 -1712.11 0.
-214.816 -1714.14 0.
-119.219 -1492.54 0.
-23.6227 -1270.94 0.
-321.81 -1332.31 0.
-368.268 -1432.52 0.
-414.725 -1532.73 0.
-299.411 -1540.12 0.
-323.919 -1596.23 0.
-348.426 -1652.35 0.
-333.193 -1546.73 0.
-275.195 -1413.59 0.
-110.285 -1245.36 0.
-98.6986 -1218.56 0.
-87.1123 -1191.77 0.
-250.66 -1227.57 0.
-204.402 -1126.16 0.
-158.144 -1024.76 0.
23.857 -944.034 0.
-1.18653 -1007.59 0.
-26.2302 -1071.14 0.
449.698 -723.426 0.
545.551 -495.686 0.
198.006 -941.572 0.
351.286 -1036 0.
288.988 -1184.15 0.
-194.405 -1489.03 0.
-199.353 -1502.26 0.
-204.302 -1515.49 0.
-364.4 -1512.37 0.
-264.227 -1280.04 0.
-164.053 -1047.7 0.
-286.744 -1129.34 0.
-363.495 -1307.25 0.
-440.246 -1485.17 0.
11.7677 -1333.19 0.
-6.73976 -1373.77 0.
-374.555 -1572.26 0.
-420.553 -1677.57 0.
-466.551 -1782.87 0.
-64.0338 -1596.38 0.
53.3411 -1323.11 0.
170.716 -1049.83 0.
-418.448 -1299.92 0.
-515.48 -1523.52 0.
-612.512 -1747.11 0.
-455.654 -1674.78 0.
-418.374 -1588.58 0.
282.049 -1218.05 0.
-513.385 -1668.37 0.
-571.146 -1801.81 0.
-633.037 -1906.1 0.
-595.615 -1814.49 0.
-558.194 -1722.89 0.
-180.016 -1470.18 0.
-118.849 -1329.66 0.
-57.6805 -1189.14 0.
-195.375 -1227.81 0.
-207.775 -1257.3 0.
-220.176 -1286.79 0.
-669.917 -1641.95 0.
-767.936 -1869.04 0.
-323.476 -1815.26 0.
-159.642 -1433.48 0.
4.19275 -1051.7 0.
135.277 -789.629 0.
121.477 -816.935 0.
107.676 -844.241 0.
-85.0901 -983.333 0.
-126.519 -1075.16 0.
-167.948 -1166.98 0.
31.6576 -1204.42 0.
-37.6932 -1364.71 0.
-4734.49 -3508.88 0.
501.252 -1054.2 0.
613.109 -794.985 0.
-749.224 -1224.37 0.
-774.343 -1283.17 0.
-799.462 -1341.96 0.
-445.377 -1219.38 0.
-455.2 -1240.13 0.
-465.022 -1260.88 0.
-76.4349 -1227.42 0.
-178.628 -1461.75 0.
-280.821 -1696.08 0.
-168.934 -1547.22 0.
-97.898 -1381.96 0.
-261.519 -1335.78 0.
-293.297 -1407.72 0.
-325.075 -1479.66 0.
-459.551 -1503.8 0.
-350.871 -1245.81 0.
-242.192 -987.827 0.
-61.0788 -953.675 0.
-189.262 -1252.24 0.
-317.445 -1550.81 0.
-383.319 -1689.07 0.
-419.856 -1779.89 0.
710.215 -1374.97 0.
-335.972 -1744.84 0.
-294.763 -1648.63 0.
-87.2998 -1483.49 0.
-66.2211 -1429.29 0.
-45.1422 -1375.09 0.
-451.841 -1511.25 0.
-434.598 -1473.61 0.
-417.354 -1435.97 0.
-327.17 -1454.15 0.
-380.371 -1581.91 0.
-433.572 -1709.67 0.
-231.815 -1518.77 0.
-159.79 -1354.47 0.
-147.733 -1223.49 0.
-138.491 -1204.2 0.
-129.249 -1184.91 0.
-187.637 -1197.01 0.
-177.618 -1174.86 0.
-167.6 -1152.72 0.
-63.1766 -1106.59 0.
-70.2369 -1119.39 0.
-77.2972 -1132.19 0.
140.482 -1068.85 0.
122.465 -1113.23 0.
34.9552 -982.182 0.
279.873 -1035.47 0.
216.923 -1183.42 0.
-196.429 -1459.11 0.
-202.154 -1472.12 0.
-207.878 -1485.13 0.
-258.365 -1434.35 0.
-157.85 -1202.66 0.
-57.3342 -970.969 0.
-277.186 -1093.81 0.
-354.078 -1271.74 0.
-430.969 -1449.68 0.
-174.54 -1381.95 0.
-192.99 -1422.07 0.
-308.784 -1513.19 0.
-354.571 -1618.56 0.
-400.357 -1723.92 0.
-270.262 -1653.34 0.
-152.835 -1380.22 0.
-35.4084 -1107.1 0.
-300.708 -1219.6 0.
-397.865 -1443.25 0.
-495.02 -1666.9 0.
-354.779 -1599.53 0.
-317.464 -1513.35 0.
-79.5899 -1341.16 0.
-466.418 -1617.57 0.
-523.747 -1751.48 0.
-515.886 -1824.25 0.
-478.307 -1732.58 0.
-440.727 -1640.91 0.
-426.972 -1541.79 0.
-365.421 -1401.83 0.
-303.869 -1261.87 0.
-115.713 -1161.99 0.
-128.342 -1191.51 0.
-140.971 -1221.04 0.
-624.698 -1590.88 0.
-722.299 -1817.65 0.
-484.863 -1853.61 0.
-321.315 -1471.64 0.
-157.767 -1089.68 0.
48.7525 -796.255 0.
34.8709 -824.149 0.
20.9895 -852.042 0.
4.91311 -911.536 0.
-36.2704 -1004.41 0.
-77.4538 -1097.29 0.
38.7036 -1168.29 0.
-30.1215 -1329.36 0.
3502.08 52.6856 0.
358.436 -1083.48 0.
470.399 -824.382 0.
-695.052 -1168.55 0.
-720.321 -1227.18 0.
-745.59 -1285.81 0.
-143.246 -1061.13 0.
-153.785 -1081.48 0.
-164.324 -1101.83 0.
-236.375 -1264.78 0.
-338.874 -1498.89 0.
-441.371 -1733 0.
-304.634 -1572.99 0.
-234.341 -1407.38 0.
-490.015 -1404.05 0.
-521.424 -1476.23 0.
-552.834 -1548.41 0.
-108.173 -1320.24 0.
1.01071 -1062.58 0.
110.194 -804.922 0.
-171.594 -970.282 0.
-299.532 -1269.05 0.
-427.47 -1567.82 0.
-275.466 -1610.07 0.
-312.424 -1700.5 0.
397.619 -1477.29 0.
-624.587 -1837.74 0.
-583.238 -1742.08 0.
-83.145 -1450.45 0.
-61.6136 -1396.79 0.
-40.082 -1343.13 0.
-316.742 -1421.82 0.
-300.118 -1384.05 0.
-283.495 -1346.27 0.
-240.054 -1385.98 0.
-293.612 -1514.08 0.
-347.171 -1642.17 0.
-171.685 -1461.95 0.
-99.8639 -1297.51 0.
-216.536 -1222.08 0.
-207.032 -1202.8 0.
-197.528 -1183.51 0.
-31.09 -1098.86 0.
-21.0305 -1076.91 0.
-10.9709 -1054.96 0.
-2.63354 -1049.34 0.
-9.42153 -1062.43 0.
-16.2095 -1075.52 0.
-281.488 -1217.81 0.
-300.341 -1262.47 0.
679.333 875.105 0.
576.406 -179.765 0.
388.6 -621.951 0.
259.332 -353.915 0.
194.195 -510.289 0.
561.334 343.269 0.
-98.9801 -1230.88 0.
36.3831 -916.155 0.
159.627 -630.386 0.
-398.075 -1361.29 0.
-98.6304 -663.154 0.
324.1 323.192 0.
8.63453 -571.525 0.
110.275 -331.723 0.
527.934 352.728 0.
-101.148 -1118.02 0.
-36.6183 -970.007 0.
-35.3155 -680.462 0.
259.615 7.11928 0.
236.852 -46.688 0.
597.497 687.659 0.
563.401 605.593 0.
749.505 1037.77 0.
510.443 248.881 0.
840.926 1016.82 0.
679.041 125.245 0.
8.48625 -572.343 0.
226.113 -68.9322 0.
404.971 139.273 0.
540.512 457.638 0.
312.694 -71.6087 0.
192.65 399.816 0.
-247.645 -625.001 0.
-187.306 -481.774 0.
760.469 777.25 0.
654.495 529.304 0.
500.29 168.359 0.
432.834 830.211 0.
112.787 84.0395 0.
108.332 -144.007 0.
465.358 687.473 0.
-83.8281 -595.987 0.
394.538 212.557 0.
150.595 -359.192 0.
393.01 203.883 0.
1071.98 1459.33 0.
453.753 11.682 0.
432.119 -43.9036 0.
418.661 -258.394 0.
1189.87 1543.36 0.
-6195.27 -426.884 0.
1029.55 786.137 0.
335.293 -832.59 0.
-953.161 -1846.69 0.
226.652 904.568 0.
74.5841 548.467 0.
600.276 140.586 0.
818.273 645.694 0.
522.136 -48.258 0.
116.501 -93.0839 0.
525.13 854.392 0.
-298.811 -1074.39 0.
127.528 -266.873 0.
472.031 535.294 0.
163.646 587.547 0.
78.7852 390.573 0.
-195.453 -248.741 0.
557.669 -404.698 0.
463.542 -624.332 0.
687.721 -101.215 0.
366.309 527.527 0.
-72.6589 -499.441 0.
-153.599 -690.797 0.
167.44 -750.938 0.
246.851 -563.382 0.
860.578 618.779 0.
-186.738 -246.595 0.
259.068 797.175 0.
931.521 949.113 0.
636.791 260.347 0.
36.0632 -1143.26 0.
230.416 -378.104 0.
416.415 54.4233 0.
371.081 -52.544 0.
336.621 -172.659 0.
254.008 -362.827 0.
462.84 126.896 0.
528.739 85.6842 0.
357.948 -307.095 0.
627.14 899.586 0.
316.553 180.366 0.
-110.786 -811.868 0.
730.849 391.917 0.
889.607 764.188 0.
582.786 50.1005 0.
147.768 -778.454 0.
346.231 -316.61 0.
956.317 1106.6 0.
90.6778 462.343 0.
159.442 623.449 0.
162.6 -817.051 0.
94.1222 -887.406 0.
45.2986 -1002.55 0.
-171.684 -1158.77 0.
-150.948 -1111.55 0.
-130.212 -1064.32 0.
-50.0673 -1000.06 0.
-40.6045 -978.84 0.
-31.142 -957.625 0.
-239.02 -1066.67 0.
-259.952 -1114.58 0.
-280.883 -1162.49 0.
-113.877 -1113.95 0.
-123.114 -1136.53 0.
-63.7648 -1113.45 0.
-39.1306 -1060.85 0.
-14.4963 -1008.26 0.
-210.152 -1126.09 0.
-302.849 -1343.39 0.
-395.546 -1560.7 0.
-431.485 -1657.05 0.
-433.944 -1666.44 0.
-436.402 -1675.84 0.
-382.024 -1608.56 0.
-347.724 -1532.74 0.
-44.3017 -1341.5 0.
-499.352 -1533.9 0.
-496.459 -1529.54 0.
-239.34 -1402.43 0.
-210.637 -1334.66 0.
-181.934 -1266.88 0.
-529.303 -1442.54 0.
-602.416 -1611.86 0.
-675.528 -1781.18 0.
-243.798 -1597.07 0.
-208.287 -1514.86 0.
-172.775 -1432.65 0.
-492.891 -1411.31 0.
-400.037 -1195.46 0.
-192.562 -967.637 0.
-272.246 -1156.54 0.
-351.929 -1345.45 0.
-293.41 -1410.63 0.
-274.031 -1367.96 0.
-254.652 -1325.29 0.
-266.926 -1322.92 0.
-274.932 -1348.48 0.
-282.938 -1374.04 0.
-27.7006 -1038.79 0.
130.239 -669.819 0.
-1735.79 -1169.67 0.
260.232 -553.284 0.
133.966 -846.755 0.
-533.465 -1298.75 0.
-499.774 -1220.83 0.
-466.081 -1142.91 0.
63.0989 -938.717 0.
7.24944 -1071.22 0.
-48.6002 -1203.73 0.
-550.613 -1470.9 0.
-564.114 -1505.9 0.
-577.615 -1540.89 0.
-433.765 -1422.54 0.
-395.393 -1335.44 0.
-521.549 -1327.5 0.
-531.522 -1352.61 0.
-541.497 -1377.72 0.
138.275 -1174.1 0.
26.3665 -1435.81 0.
-85.5419 -1697.52 0.
-423.538 -1875.22 0.
-365.655 -1743.03 0.
-307.772 -1610.84 0.
-359.918 -1591.31 0.
-347.296 -1558.23 0.
-341.905 -1519.82 0.
-674.428 -1482.85 0.
-582.904 -1264.52 0.
56.0093 -902.178 0.
-45.2715 -1140.01 0.
-146.552 -1377.83 0.
-158.678 -1468.41 0.
-132.748 -1407.43 0.
-106.817 -1346.44 0.
-154.871 -1301.16 0.
-118.323 -1213.05 0.
-81.7745 -1124.95 0.
-244.888 -1171.23 0.
-239.932 -1154.61 0.
-174.88 -1126.82 0.
-214.933 -1215.6 0.
-254.986 -1304.37 0.
34.2617 -1240.24 0.
6.37147 -1303.69 0.
-21.5185 -1367.15 0.
-142.382 -1333.98 0.
-38.9539 -1092.91 0.
64.4739 -851.842 0.
-230.419 -981.375 0.
-257.986 -1045.64 0.
433.897 -670.706 0.
-108.383 -942.537 0.
-158.051 -1057.45 0.
-261.415 -1167.46 0.
-241.769 -1119.42 0.
-222.121 -1071.39 0.
-95.5915 -988.733 0.
-86.0947 -967.395 0.
-76.5982 -946.058 0.
-184.328 -1013.19 0.
-205.415 -1060.88 0.
-226.502 -1108.58 0.
37.175 -1018.84 0.
28.0798 -1041.55 0.
0.302117 -1053.35 0.
24.8949 -1000.9 0.
49.4878 -948.459 0.
-173.545 -1077.15 0.
-266.498 -1293.95 0.
-359.451 -1510.74 0.
-444.655 -1634.19 0.
-447.929 -1643.16 0.
-451.203 -1652.13 0.
-480.848 -1618.21 0.
-446.761 -1542.75 0.
-841.932 -1651.41 0.
-600.833 -1546.34 0.
-598.377 -1542.1 0.
-200.159 -1356.31 0.
-171.604 -1288.38 0.
-143.049 -1220.46 0.
-426.908 -1365.01 0.
-499.363 -1534.62 0.
-571.819 -1704.24 0.
-209.736 -1548.99 0.
-174.585 -1466.28 0.
-139.435 -1383.58 0.
-432.483 -1354.64 0.
-339.634 -1138.56 0.
-111.792 -901.667 0.
-190.978 -1090.72 0.
-270.165 -1279.78 0.
-269.935 -1367.95 0.
-250.51 -1325.52 0.
-231.085 -1283.1 0.
-428.897 -1361.09 0.
-437.296 -1386.33 0.
-445.694 -1411.56 0.
-146.309 -1058.44 0.
11.2568 -689.418 0.
-872.117 -767.805 0.
37.9754 -616.572 0.
-88.2798 -909.791 0.
-291.381 -1164.67 0.
-257.764 -1087.23 0.
-224.147 -1009.79 0.
-10.236 -937.16 0.
-66.0729 -1070.13 0.
-121.91 -1203.1 0.
-628.721 -1473.09 0.
-642.517 -1507.68 0.
-656.312 -1542.26 0.
-501.365 -1420.92 0.
-463.025 -1334.17 0.
-332.294 -1212.46 0.
-341.636 -1238.15 0.
-350.979 -1263.85 0.
40.3224 -1184.94 0.
-71.1134 -1446.67 0.
-182.549 -1708.4 0.
-112.962 -1711.53 0.
-54.4647 -1579.64 0.
4.03254 -1447.75 0.
-549.344 -1640.39 0.
-536.44 -1607.27 0.
-619.163 -1606.84 0.
-607.342 -1422.98 0.
-515.416 -1205.17 0.
-27.9747 -907.566 0.
-129.558 -1144.98 0.
-231.141 -1382.4 0.
-48.2787 -1389.64 0.
-22.3327 -1328.88 0.
3.61367 -1268.13 0.
-148.813 -1266.77 0.
-111.847 -1179.3 0.
-74.8811 -1091.84 0.
-516.825 -1256.75 0.
-511.38 -1240.84 0.
-76.8986 -1054.03 0.
-116.874 -1142.85 0.
-156.848 -1231.67 0.
56.1088 -1197.62 0.
28.3025 -1261.2 0.
0.49631 -1324.78 0.
-191.479 -1325.29 0.
-88.0819 -1084.45 0.
15.3158 -843.616 0.
150.84 -786.814 0.
123.254 -851.648 0.
94.4016 -1293.66 0.
-346.707 -1422.95 0.
-280.66 -1266.21 0.
-216.857 -1148.47 0.
-243.436 -1209.6 0.
-270.014 -1270.74 0.
-266.621 -1333.97 0.
-314.272 -1442.73 0.
-361.924 -1551.49 0.
-325.047 -1489.62 0.
-258.905 -1336.72 0.
-192.763 -1183.81 0.
9.2353 -1047.86 0.
24.813 -1006.98 0.
-50.9928 -1018.12 0.
-103.74 -1135.39 0.
-156.486 -1252.65 0.
-361.267 -1426.57 0.
-391.795 -1495.51 0.
-422.324 -1564.45 0.
-325.468 -1438.86 0.
-218.816 -1190.52 0.
-112.164 -942.18 0.
-333.606 -1105.8 0.
-415.123 -1293.84 0.
-393.828 -1437.36 0.
-605.562 -1474.58 0.
-577.487 -1408.35 0.
-180.779 -1206.05 0.
-201.43 -1254.95 0.
-222.081 -1303.84 0.
-380.839 -1350.58 0.
-329.234 -1228.12 0.
-277.628 -1105.66 0.
45.9031 -930.786 0.
50.5314 -921.573 0.
55.1596 -912.361 0.
-304.533 -1133.98 0.
-347.288 -1233.46 0.
-291.721 -1280.83 0.
-290.102 -1273.59 0.
-288.483 -1266.34 0.
-233.256 -1209.5 0.
-191.69 -1107.56 0.
-150.124 -1005.61 0.
-376.338 -1067.26 0.
-374.986 -1064.24 0.
-373.634 -1061.22 0.
-190.268 -1038.14 0.
-223.81 -1118.7 0.
-1736.21 -1832.28 0.
-273.049 -1148.04 0.
-243.252 -1078.09 0.
-129.997 -980.427 0.
-117.655 -950.615 0.
-105.314 -920.804 0.
-164.474 -964.543 0.
-202.379 -1052.82 0.
-240.285 -1141.09 0.
-530.433 -1285.8 0.
-526.155 -1275.83 0.
-521.876 -1265.86 0.
-497.672 -1401.46 0.
-585.709 -1603.8 0.
-519.993 -1704.04 0.
-427.801 -1487.52 0.
-335.609 -1271 0.
11.2425 -1052.48 0.
-58.7276 -1212.41 0.
-128.697 -1372.34 0.
112.996 -1255.56 0.
170.099 -1118.09 0.
227.203 -980.628 0.
-319.297 -1145.56 0.
-294.904 -1086.4 0.
-208.191 -1016.08 0.
-656.802 -1383.34 0.
-747.874 -1596.91 0.
-252.038 -1495.1 0.
-212.554 -1400.44 0.
-173.071 -1305.79 0.
19.9755 -1192.78 0.
8.72987 -1217.43 0.
-2.51562 -1242.08 0.
-193.446 -1306.07 0.
-174.364 -1262.96 0.
-155.284 -1219.85 0.
-698.593 -1592.86 0.
-778.372 -1778.71 0.
-346.376 -1693.97 0.
-249.199 -1471.52 0.
-152.022 -1249.06 0.
86.8413 -1040.48 0.
86.1569 -1046.2 0.
85.4724 -1051.92 0.
-194.747 -1223.28 0.
-242.201 -1334.44 0.
-289.656 -1445.6 0.
-53.256 -1306.15 0.
-10.9652 -1214.17 0.
-337.797 -1450.23 0.
-186.628 -1324.23 0.
-120.375 -1167.58 0.
2.66627 -1022 0.
-23.9496 -1083.13 0.
-50.5652 -1144.25 0.
-251.066 -1294.91 0.
-298.071 -1404.16 0.
-345.077 -1513.42 0.
-200.737 -1406.5 0.
-134.836 -1253.36 0.
-68.936 -1100.22 0.
-144.486 -1081.62 0.
-128.692 -1041.24 0.
-251.164 -1072.12 0.
-304.371 -1189.55 0.
-357.577 -1306.97 0.
-460.925 -1437.29 0.
-490.617 -1507 0.
-520.308 -1576.71 0.
-188.38 -1347.44 0.
-81.9912 -1098.99 0.
24.3975 -850.541 0.
-369.304 -1089.53 0.
-450.899 -1277.78 0.
-508.31 -1455.63 0.
-554.118 -1421.3 0.
-526.084 -1354.53 0.
-298.609 -1225.33 0.
-319.46 -1273.81 0.
-340.312 -1322.28 0.
-361.477 -1312.74 0.
-310.297 -1189.68 0.
-259.118 -1066.62 0.
29.6193 -904.551 0.
34.6383 -895.536 0.
39.6572 -886.522 0.
-247.076 -1079.2 0.
-290.001 -1178.1 0.
-385.35 -1289.69 0.
-384.237 -1281.65 0.
-383.124 -1273.61 0.
-303.267 -1210.23 0.
-261.86 -1107.8 0.
-220.454 -1005.36 0.
-367.418 -1029.69 0.
-365.128 -1027.57 0.
-362.837 -1025.45 0.
-171.488 -999.125 0.
-205.3 -1079.55 0.
-301.983 -1186.03 0.
-207.314 -1087.77 0.
-178.081 -1017.62 0.
-137.157 -951.381 0.
-124.407 -921.944 0.
-111.657 -892.506 0.
-413.564 -1041.34 0.
-451.419 -1129.73 0.
-489.273 -1218.12 0.
-377.106 -1188.85 0.
-372.081 -1179.62 0.
-367.057 -1170.39 0.
-412.302 -1333.78 0.
-500.584 -1536.16 0.
-634.413 -1719.82 0.
-541.484 -1503.99 0.
-448.555 -1288.16 0.
-78.2461 -1059.7 0.
-147.78 -1220.07 0.
-217.314 -1380.44 0.
-100.705 -1314.74 0.
-43.4013 -1177.05 0.
13.9034 -1039.35 0.
-60.4505 -1006.54 0.
-36.2833 -947.297 0.
-53.3551 -915.246 0.
-845.193 -1430.2 0.
-936.264 -1644.29 0.
-69.8038 -1385.6 0.
-30.3355 -1291.3 0.
9.13224 -1197.01 0.
-93.5256 -1210.09 0.
-104.358 -1235.55 0.
-115.191 -1261.01 0.
-237.241 -1292.25 0.
-217.447 -1249.75 0.
-197.653 -1207.25 0.
-486.323 -1470.16 0.
-566.102 -1656.34 0.
-387.949 -1681.77 0.
-290.435 -1459.05 0.
-192.92 -1236.33 0.
26.4736 -1034.19 0.
25.8201 -1040.02 0.
25.1666 -1045.84 0.
-229.83 -1205.9 0.
-277.361 -1317.35 0.
-324.892 -1428.8 0.
-343.262 -1400.09 0.
-301.642 -1308.96 0.
-41.5867 114.275 0.
770.608 631.654 0.
477.66 -54.6529 0.
922.669 744.266 0.
436.592 -393.909 0.
573.177 -78.5569 0.
-78.2486 -895.115 0.
77.2878 -528.918 0.
323.815 49.5926 0.
607.063 262.903 0.
750.659 600.769 0.
883.246 913.623 0.
457.255 647.098 0.
346.003 388.432 0.
122.751 222.546 0.
-103.555 -306.261 0.
201.432 404.936 0.
293.881 538.915 0.
440.315 879.373 0.
239.708 409.935 0.
356.471 -302.122 0.
530.733 108.475 0.
557.396 174.599 0.
-47.5728 -254.148 0.
522.444 1074.04 0.
556.349 363.775 0.
-4.89553 -210.156 0.
563.008 1120.4 0.
152.793 72.1128 0.
586.78 1088.89 0.
432.037 732.685 0.
45.9715 -355.742 0.
588.643 907.264 0.
206.736 12.8227 0.
92.3235 -695.848 0.
340.752 -116.79 0.
889.972 1163.53 0.
311.078 152.014 0.
-61.5306 -719.344 0.
-206.797 -650.402 0.
507.426 1020.38 0.
437.845 861.939 0.
130.462 -34.733 0.
-60.9187 -483.569 0.
400.972 591.664 0.
403.575 779.494 0.
56.2536 -30.9693 0.
223.667 359.366 0.
283.142 55.2149 0.
388.263 300.676 0.
-3266.44 -1141.32 0.
711.66 953.636 0.
360.72 135.616 0.
406.332 369.613 0.
331.115 193.966 0.
169.214 -184.111 0.
-280.522 -239.725 0.
-57.6049 282.465 0.
-186.203 -15.191 0.
362.407 263.772 0.
-74.3503 -755.918 0.
376.16 294.328 0.
185.636 -65.682 0.
457.14 563.206 0.
166.289 385.308 0.
100.401 237.2 0.
334.542 790.011 0.
684.439 920.065 0.
796.119 1184.69 0.
306.802 47.1388 0.
57.0275 -515.73 0.
203.735 -169.075 0.
372.155 228.584 0.
249.234 -752.364 0.
-46.6232 -1444.79 0.
-332.194 -340.111 0.
-612.093 -503.266 0.
-526.856 -305.847 0.
926.739 635.295 0.
291.339 -850.731 0.
810.319 356.599 0.
97.0477 -523.173 0.
334.786 31.4468 0.
701.052 885.871 0.
204.158 -154.418 0.
397.466 296.747 0.
66.482 -474.581 0.
411.138 244.631 0.
65.319 -560.114 0.
98.7437 -449.685 0.
70.985 -511.831 0.
185.486 -242.416 0.
-180.368 -1381.25 0.
290.022 -283.573 0.
308.969 -239.226 0.
-89.1434 -770.577 0.
-130.865 -866.178 0.
449.106 487.699 0.
-31.6157 -103.993 0.
-319.817 -774.04 0.
-263.073 -840.644 0.
166.882 -745.184 0.
92.5425 -921.583 0.
83.2227 -1054.28 0.
54.1627 -1126.6 0.
25.1026 -1198.93 0.
-163.2 -1297.5 0.
-143.586 -1250.01 0.
-123.973 -1202.52 0.
-72.9344 -1127.67 0.
-43.2114 -1059.59 0.
-13.4883 -991.506 0.
-249.829 -1050.2 0.
-223.737 -990.483 0.
-249.665 -977.482 0.
-343.744 -1201.62 0.
-437.824 -1425.76 0.
-435.004 -1512.66 0.
-380.793 -1386.56 0.
-326.583 -1260.46 0.
-178.998 -1155.49 0.
-187.371 -1175.24 0.
-195.743 -1195 0.
-515.411 -1238.45 0.
-448.507 -1081.61 0.
-559.571 -1001.23 0.
-534.307 -1171.97 0.
-628.314 -1391.54 0.
-578.218 -1479.4 0.
-510.03 -1320.34 0.
-441.843 -1161.28 0.
-100.264 -987.592 0.
-160.168 -1129.7 0.
-220.073 -1271.8 0.
-263.019 -1295.05 0.
-233.4 -1227.18 0.
-203.782 -1159.3 0.
-516.428 -1300.49 0.
-525.79 -1324.69 0.
-437.865 -1300.93 0.
-400.7 -1217.88 0.
-363.535 -1134.83 0.
-220.637 -985.381 0.
-156.391 -838.044 0.
-92.1446 -690.707 0.
-248.009 -671.59 0.
-216.019 -597.068 0.
-184.029 -522.546 0.
59.116 -395.653 0.
65.9499 -381.711 0.
-896.016 -783.947 0.
59.0713 -494.072 0.
-4.14988 -640.484 0.
-87.294 -792.954 0.
-152.292 -946.079 0.
-217.289 -1099.2 0.
-558.61 -1267.1 0.
-499.305 -1129.5 0.
-440 -991.894 0.
-233.776 -881.684 0.
-247.553 -910.945 0.
-261.33 -940.205 0.
-282.338 -844.59 0.
-216.863 -697.537 0.
-256.97 -644.953 0.
-415.789 -1008.05 0.
-574.607 -1371.14 0.
-444.695 -1446.37 0.
-362.832 -1251.75 0.
-280.97 -1057.13 0.
-47.5691 -862.985 0.
-20.6008 -801.597 0.
6.36772 -740.209 0.
121.55 -762.622 0.
70.2427 -886.216 0.
368.246 -857.914 0.
-810.888 -1394.76 0.
-827.372 -1433.67 0.
-34.3843 -1118.48 0.
-32.7458 -1120.3 0.
-31.1082 -1122.11 0.
-158.199 -1204.79 0.
-188.663 -1275.9 0.
-219.127 -1347.01 0.
-271.155 -1312.07 0.
-207.031 -1161.88 0.
-142.906 -1011.7 0.
-245.295 -1066.42 0.
-261.403 -1104.51 0.
-146.815 -1081.53 0.
-128.068 -1036.32 0.
-109.322 -991.116 0.
-188.725 -1000.99 0.
-187.641 -997.342 0.
-186.558 -993.696 0.
38.2003 -821.184 0.
109.499 -653.86 0.
180.797 -486.537 0.
-283.515 -751.648 0.
-350.213 -905.385 0.
-19.0213 -709.659 0.
166.287 -715.942 0.
91.9916 -892.14 0.
17.1526 -1050.16 0.
-11.6074 -1122.93 0.
-40.3676 -1195.71 0.
-41.0297 -1214.18 0.
-20.887 -1166.81 0.
-0.744868 -1119.44 0.
-156.445 -1131.7 0.
-126.037 -1064.36 0.
-95.6278 -997.03 0.
-211.783 -1001.97 0.
-185.281 -942.846 0.
-52.8737 -860.761 0.
-147.869 -1084.08 0.
-242.864 -1307.39 0.
-233.419 -1395.94 0.
-179.447 -1269.35 0.
-125.476 -1142.77 0.
-371.371 -1208.84 0.
-379.954 -1228.75 0.
-388.535 -1248.66 0.
-553.566 -1223.37 0.
-487.138 -1066.07 0.
369.927 -570.236 0.
-663.47 -1198.55 0.
-756.924 -1418.4 0.
-637.878 -1472.43 0.
-568.953 -1313.96 0.
-500.028 -1155.49 0.
66.572 -883.742 0.
7.14545 -1026.03 0.
-52.282 -1168.33 0.
-365.712 -1305.78 0.
-335.608 -1238.13 0.
-305.503 -1170.48 0.
-753.592 -1370.38 0.
-763.049 -1394.31 0.
-356.681 -1234.02 0.
-319.928 -1150.71 0.
-283.175 -1067.4 0.
-134.462 -918.356 0.
-70.1704 -770.928 0.
-5.87842 -623.5 0.
-268.274 -650.305 0.
-235.897 -575.941 0.
-203.519 -501.576 0.
41.1475 -372.138 0.
48.1209 -358.105 0.
-1141.54 -856.884 0.
32.8213 -474.452 0.
-30.0116 -621.477 0.
-65.8243 -751.811 0.
-130.795 -905.721 0.
-195.767 -1059.63 0.
-338.462 -1140.71 0.
-279.488 -1003.27 0.
-220.515 -865.818 0.
-347.962 -900.464 0.
-361.832 -929.95 0.
-375.702 -959.436 0.
-429.364 -876.138 0.
-363.357 -729.096 0.
-216.757 -594.019 0.
-374.792 -957.342 0.
-532.826 -1320.66 0.
-570.876 -1470.78 0.
-488.897 -1275.9 0.
-406.919 -1081.02 0.
25.6601 -799.297 0.
53.3414 -738.241 0.
81.0227 -677.185 0.
-10.4056 -789.964 0.
-61.3595 -914.03 0.
270.936 -866.44 0.
-570.356 -1258.51 0.
-587.065 -1297.44 0.
-277.365 -1191.77 0.
-275.96 -1193.65 0.
-274.556 -1195.52 0.
-98.988 -1148.1 0.
-129.291 -1219.71 0.
-159.593 -1291.32 0.
-231.357 -1264.48 0.
-166.625 -1115.18 0.
-101.893 -965.881 0.
-345.207 -1078.4 0.
-361.249 -1116.51 0.
-102.522 -1029.72 0.
-83.2159 -984.562 0.
-63.9093 -939.406 0.
-381.876 -1053.03 0.
-381.068 -1049.04 0.
-380.259 -1045.04 0.
235.251 -706.525 0.
306.413 -539.637 0.
377.575 -372.748 0.
-233.85 -697.37 0.
-300.757 -852.439 0.
-103.578 -1063.23 0.
-16.4505 -1026.3 0.
39.2313 -894.512 0.
51.9138 -808.689 0.
35.0205 -843.749 0.
18.1273 -878.809 0.
54.2525 -893.405 0.
32.9026 -940.466 0.
11.5525 -987.528 0.
-217.132 -1084.54 0.
-205.951 -1057.26 0.
-194.769 -1029.97 0.
-203.612 -1115.9 0.
-254.247 -1234.05 0.
-249.953 -1307.78 0.
-167.468 -1113.99 0.
-84.9818 -920.204 0.
53.977 -746.446 0.
61.2065 -728.269 0.
68.4361 -710.091 0.
-342.663 -930.743 0.
-388.9 -1040.12 0.
-435.136 -1149.5 0.
-460.164 -1155.32 0.
-437.778 -1103.88 0.
573.649 -628.334 0.
-640.801 -1169.31 0.
-661.08 -1212.06 0.
-510.968 -1192.95 0.
-549.045 -1277.78 0.
-587.123 -1362.61 0.
-57.4961 -1111.97 0.
14.6625 -937.678 0.
86.8201 -763.384 0.
-277.838 -891.724 0.
-288.606 -915.348 0.
-299.375 -938.971 0.
-770.177 -1214.08 0.
-815.392 -1316.45 0.
-312.423 -1140.72 0.
-166.793 -800.83 0.
-21.1639 -460.94 0.
107.982 -270.255 0.
24.0074 -465.951 0.
-59.9682 -661.646 0.
-248.175 -820.774 0.
-250.02 -821.143 0.
-251.865 -821.512 0.
-231.197 -923.878 0.
-305.104 -1093.91 0.
1037.36 -659.199 0.
-139.113 -846.878 0.
27.8514 -458.631 0.
113.244 -204.622 0.
35.7661 -384.717 0.
-41.7124 -564.811 0.
-139.719 -770.707 0.
-233.18 -991.446 0.
-326.641 -1212.19 0.
-525.683 -1214.25 0.
-413.377 -950.968 0.
-301.071 -687.685 0.
-378.452 -733.195 0.
-401.821 -784.633 0.
-251.198 -760.581 0.
-267.569 -799.453 0.
-283.939 -838.325 0.
-445.951 -932.285 0.
-460.653 -967.015 0.
-475.355 -1001.74 0.
-63.3697 -951.041 0.
-171.933 -1199.28 0.
-280.495 -1447.53 0.
-453.791 -1415.27 0.
-351.596 -1180.95 0.
619.476 -573.714 0.
-405.153 -1082.53 0.
-441.671 -1168.22 0.
-374.843 -1212.35 0.
-431.991 -1340.56 0.
-489.138 -1468.77 0.
-117.596 -1300.89 0.
-39.0819 -1117.06 0.
39.4324 -933.224 0.
-93.6548 -962.111 0.
-108.143 -996.022 0.
-122.631 -1029.93 0.
-422.725 -1108.8 0.
-390.522 -1031.56 0.
-19.1819 -820.853 0.
-26.4477 -836.438 0.
-33.7133 -852.022 0.
-385.83 -1012.01 0.
-395.74 -1035.6 0.
-405.65 -1059.19 0.
170.304 -908.494 0.
86.7336 -1105.41 0.
3.16313 -1302.33 0.
-453.78 -1370.98 0.
-337.813 -1103.09 0.
-181.119 -1064.37 0.
-110.662 -1038.7 0.
-55.581 -905.961 0.
-36.7601 -813.115 0.
-53.1664 -848.401 0.
-69.5726 -883.687 0.
-142.402 -947.854 0.
-163.835 -994.956 0.
-185.269 -1042.06 0.
-305.335 -1089.22 0.
-293.742 -1062.37 0.
-282.148 -1035.51 0.
-60.5743 -1025.42 0.
-110.919 -1144.03 0.
-427.065 -1348.51 0.
-344.12 -1154.79 0.
-261.174 -961.073 0.
-94.0433 -779.079 0.
-86.6563 -760.497 0.
-79.269 -741.914 0.
-348.927 -902.839 0.
-394.55 -1012.61 0.
-440.173 -1122.38 0.
-224.499 -1019.9 0.
-202.199 -968.596 0.
-42.653 -858.735 0.
-459.481 -1062.13 0.
-479.74 -1104.88 0.
-409.978 -1116.06 0.
-447.486 -1201.66 0.
-484.994 -1287.25 0.
-258.145 -1165.73 0.
-185.401 -991.886 0.
-112.658 -818.045 0.
-361.566 -895.968 0.
-372.241 -919.82 0.
-382.915 -943.672 0.
-708.846 -1157.22 0.
-753.338 -1259.69 0.
-352.636 -1123.81 0.
-206.466 -784.637 0.
-60.2961 -445.467 0.
-36.644 -303.377 0.
-119.967 -499.757 0.
-203.291 -696.138 0.
12.2707 -675.67 0.
11.4502 -677.097 0.
10.6296 -678.524 0.
-285.321 -914.742 0.
-358.518 -1085.79 0.
-720.372 -1379.93 0.
-90.3113 -792.842 0.
76.266 -404.622 0.
-20.5962 -231.106 0.
-98.9356 -410.835 0.
-177.275 -590.563 0.
-232.869 -780.226 0.
-326.604 -1000.92 0.
-420.34 -1221.62 0.
-480.949 -1163.13 0.
-368.23 -899.918 0.
-255.512 -636.709 0.
-227.975 -637.371 0.
-251.131 -688.705 0.
-171.309 -696.111 0.
-188.041 -734.565 0.
-204.774 -773.018 0.
-546.024 -946.045 0.
-561.212 -980.17 0.
-576.401 -1014.3 0.
-179.575 -968.253 0.
-288.498 -1216.36 0.
-397.421 -1464.46 0.
-701.447 -1491.23 0.
-599.898 -1256.34 0.
243.737 -701.01 0.
-388.871 -1042.28 0.
-425.207 -1127.92 0.
-319.573 -1158.13 0.
-376.018 -1287.2 0.
-432.463 -1416.28 0.
-40.526 -1236.12 0.
37.9708 -1052.55 0.
116.467 -868.979 0.
-90.1893 -928.761 0.
-104.195 -963.281 0.
-118.2 -997.801 0.
-445.79 -1086.47 0.
-413.16 -1009.2 0.
-38.1558 -797.246 0.
-45.6554 -811.878 0.
-53.1549 -826.509 0.
-213.343 -908.023 0.
-223.673 -931.341 0.
-234.005 -954.659 0.
59.7863 -923.76 0.
-23.8043 -1121.21 0.
-107.395 -1318.67 0.
-301.239 -1274.11 0.
-185.866 -1007.3 0.
-353.613 -1252.4 0.
482.489 570.755 0.
309.32 162.908 0.
170.727 -132.335 0.
-259.352 -1135.47 0.
457.415 537.133 0.
363.192 649.138 0.
-135.655 -521.033 0.
-621.253 -1658.69 0.
-53.3396 -299.133 0.
155.782 187.778 0.
49.1752 -62.465 0.
595.012 259.014 0.
306.19 -414.4 0.
278.409 675.882 0.
662.895 1570.96 0.
136.135 339.516 0.
101.205 -9.42689 0.
114.898 24.9197 0.
-101.608 -477.985 0.
-343.887 -852.214 0.
-104.561 -293.54 0.
-32.1184 -124.3 0.
441.072 111.866 0.
543.466 348.983 0.
198.168 38.531 0.
21.3007 -249.788 0.
645.402 1207.51 0.
474.74 793.764 0.
-64.9254 -461.578 0.
-27.9965 -371.039 0.
52.1023 -34.5629 0.
67.3061 0.784597 0.
324.159 600.036 0.
79.5009 321.567 0.
-195.803 -320.228 0.
242.679 703.497 0.
-72.261 239.543 0.
-453.91 -648.473 0.
-109.154 -454.065 0.
-106.358 -445.768 0.
-59.1934 -333.686 0.
-60.9276 -78.3274 0.
98.0726 294.812 0.
-154.267 -291.549 0.
296.791 -466.295 0.
364.991 -311.951 0.
497.546 -7.14498 0.
244.586 463.675 0.
550.995 1177.84 0.
156.781 208.292 0.
395.797 272.693 0.
359.552 191.648 0.
141.078 422.943 0.
-182.904 -327.396 0.
228.964 639.782 0.
122.881 256.425 0.
181.798 395.439 0.
373.328 843.803 0.
-179.881 -507.628 0.
34.884 -3.36632 0.
372.394 786.988 0.
295.292 324.042 0.
126.185 -63.5914 0.
-1.82351 -431.114 0.
-146.495 -760.947 0.
29.9109 -341.285 0.
-110.057 286.804 0.
-391.929 -369.614 0.
-709.129 -1108.67 0.
-164.065 -664.951 0.
149.409 70.0263 0.
11.9414 -248.287 0.
137.097 953.109 0.
-261.069 31.4777 0.
71.6168 467.127 0.
131.643 166.524 0.
-680.745 -1724.6 0.
257.469 108.812 0.
59.8351 -349.722 0.
308.667 233.553 0.
605.824 165.46 0.
798.769 609.651 0.
355.302 -430.629 0.
173.388 -284.624 0.
182.096 -262.757 0.
58.4787 -549.377 0.
98.2898 253.16 0.
-189.146 -418.936 0.
105.88 -384.563 0.
440.773 399.075 0.
236.68 -75.7845 0.
403.338 238.636 0.
199.342 -235.06 0.
194.673 -244.224 0.
227.666 -290.703 0.
15.8202 -785.765 0.
144.918 -482.977 0.
28.8856 -764.129 0.
174.106 -424.99 0.
-348.412 -1198.66 0.
-157.187 -957.845 0.
-135.983 -911.054 0.
-178.973 -897.725 0.
-157.678 -846.613 0.
-136.384 -795.501 0.
-80.3351 -751.266 0.
-82.5877 -761.937 0.
-84.8397 -772.606 0.
-442.355 -1008.26 0.
-498.36 -1140.07 0.
-554.366 -1271.89 0.
-156.097 -1088.22 0.
-149.174 -1068.69 0.
-389.266 -1144.37 0.
-294.717 -925.531 0.
-200.168 -706.692 0.
-284.775 -677.684 0.
-376.574 -890.986 0.
-468.372 -1104.29 0.
-260.027 -1075.66 0.
-251.652 -1052.86 0.
-243.276 -1030.07 0.
-366.8 -1149.66 0.
-412.758 -1257.28 0.
-48.3875 -1187.99 0.
-309.741 -1049.6 0.
-177.242 -740.016 0.
-137.988 -525.563 0.
-145.05 -540.704 0.
-152.112 -555.845 0.
-387.815 -708.142 0.
-434.585 -819.5 0.
-481.355 -930.859 0.
-322.12 -781.301 0.
-243.564 -594.288 0.
-165.009 -407.276 0.
-222.451 -394.271 0.
-211.866 -365.367 0.
-158.758 -349.158 0.
-279.309 -628.486 0.
-399.861 -907.814 0.
-206.889 -921.96 0.
-122.125 -723.768 0.
-37.3602 -525.576 0.
61.913 -391.421 0.
87.2304 -338.643 0.
112.548 -285.865 0.
-116.609 -434.717 0.
-158.828 -530.133 0.
259.843 -428.061 0.
3.94735 -716.198 0.
-92.3957 -936.869 0.
-301.84 -1144.59 0.
-250.617 -1022.22 0.
-199.395 -899.855 0.
-557.043 -958.548 0.
-510.714 -848.654 0.
-464.385 -738.761 0.
-303.087 -639.855 0.
-305.404 -641.69 0.
-307.722 -643.526 0.
-220.437 -764.065 0.
-312.365 -980.546 0.
-465.383 -1183.04 0.
-386.154 -994.686 0.
-306.925 -806.335 0.
-506.103 -803.728 0.
-527.166 -850.876 0.
-548.228 -898.024 0.
-108.373 -666.096 0.
-53.8291 -536.359 0.
0.714543 -406.621 0.
-423.087 -698.123 0.
-513.724 -906.713 0.
112.019 -807.126 0.
-577.217 -1067.96 0.
-561.259 -1026.5 0.
-147.796 -804.36 0.
-103.984 -700.218 0.
-60.1728 -596.075 0.
203.651 -494.983 0.
136.447 -654.383 0.
69.2423 -813.784 0.
-179.74 -971.988 0.
-184.984 -986.374 0.
-190.23 -1000.76 0.
-392.459 -1022.64 0.
-350.535 -926.825 0.
-79.4991 -740.946 0.
-86.5874 -757.206 0.
-93.6759 -773.465 0.
-13.3434 -751.66 0.
-27.1431 -785.932 0.
-40.9435 -820.203 0.
-33.3383 -760.252 0.
37.342 -594.337 0.
108.022 -428.422 0.
223.177 -466.799 0.
140.796 -658.272 0.
-353.7 -1171.44 0.
-122.928 -911.988 0.
-101.861 -864.83 0.
-186.897 -869.222 0.
-165.854 -817.687 0.
-144.811 -766.152 0.
128.048 -629.9 0.
125.615 -640.787 0.
123.183 -651.673 0.
-530.517 -1016.05 0.
-586.81 -1147.54 0.
-643.102 -1279.03 0.
-357.015 -1142.94 0.
-349.894 -1123.49 0.
-238.428 -1049.84 0.
-144.566 -830.148 0.
-50.7041 -610.456 0.
-386.394 -690.347 0.
-478.429 -903.541 0.
-570.464 -1116.73 0.
-23.9553 -943.645 0.
-15.4775 -921.036 0.
-6.99963 -898.427 0.
-677.747 -1250.25 0.
-723.953 -1357.98 0.
-94.5998 -1175.1 0.
-280.216 -1005.41 0.
-147.021 -696.077 0.
-176.109 -510.872 0.
-183.813 -525.071 0.
-191.517 -539.27 0.
-555.819 -749.27 0.
-602.652 -860.456 0.
-649.485 -971.642 0.
-216.603 -704.637 0.
-137.656 -517.962 0.
-58.7096 -331.287 0.
-58.1528 -291.761 0.
-47.9426 -262.127 0.
-259.53 -362.246 0.
-380.021 -641.583 0.
-500.513 -920.92 0.
77.0248 -770.444 0.
162.484 -572.62 0.
247.944 -374.795 0.
-251.678 -493.034 0.
-226.245 -440.669 0.
-200.812 -388.305 0.
-69.9597 -382.54 0.
-111.875 -478.21 0.
-1831.09 -1291.61 0.
60.1115 -659.704 0.
-36.7898 -880.045 0.
-2.83227 -986.375 0.
48.2547 -864.287 0.
99.3415 -742.2 0.
-733.552 -1002.31 0.
-687.355 -892.504 0.
-641.159 -782.699 0.
-370.421 -637.336 0.
-372.592 -638.901 0.
-374.764 -640.465 0.
-263.36 -751.88 0.
-355.113 -968.384 0.
-615.833 -1214.62 0.
-535.976 -1026.73 0.
-456.118 -838.832 0.
-403.738 -728.138 0.
-424.437 -775.538 0.
-445.137 -822.939 0.
-21.3033 -598.761 0.
32.4197 -468.346 0.
86.1424 -337.931 0.
-219.532 -578.735 0.
-309.496 -787.776 0.
492.655 -612.435 0.
-779.4 -1123.77 0.
-762.917 -1083.06 0.
-149.205 -771.336 0.
-105.18 -667.595 0.
-61.1541 -563.854 0.
74.633 -520.632 0.
7.16949 -679.739 0.
-60.2943 -838.845 0.
-230.743 -960.279 0.
-235.667 -975.064 0.
-240.591 -989.849 0.
-304.264 -952.297 0.
-262.306 -856.044 0.
-106.908 -722.625 0.
-114.062 -738.668 0.
-121.217 -754.71 0.
17.0316 -706.44 0.
2.92998 -740.77 0.
-11.1723 -775.1 0.
-90.4947 -754.164 0.
-19.9902 -588.659 0.
50.5137 -423.155 0.
320.241 -393.885 0.
237.554 -585.767 0.
-90.9442 -855.513 0.
-229.824 -970.302 0.
-226.132 -958.677 0.
-221.578 -933.456 0.
-202.453 -891.413 0.
-183.328 -849.371 0.
121.534 -743.199 0.
78.4078 -842.79 0.
35.2802 -942.38 0.
-498.923 -1095.85 0.
-422.983 -919.035 0.
-347.041 -742.221 0.
-358.721 -787.098 0.
-386.834 -851.29 0.
-78.5935 -764.678 0.
-103.886 -822.057 0.
-129.178 -879.435 0.
-647.392 -1118.18 0.
-639.817 -1099.3 0.
-632.241 -1080.41 0.
32.5581 -745.03 0.
77.2948 -641.152 0.
122.032 -537.274 0.
-569.64 -880.49 0.
-615.411 -987.227 0.
-111.994 -858.519 0.
-159.532 -849.257 0.
-145.759 -817.295 0.
-367.288 -862.808 0.
-271.422 -643.681 0.
-175.556 -424.554 0.
-512.235 -480.019 0.
-538.543 -538.47 0.
-564.851 -596.921 0.
-140.085 -510.02 0.
-194.728 -638.192 0.
-249.371 -766.364 0.
-187.584 -711.354 0.
-166.99 -666.161 0.
-379.483 -723.649 0.
-359.487 -676.267 0.
-339.491 -628.885 0.
235.624 -388.278 0.
188.218 -497.755 0.
140.812 -607.232 0.
-603.489 -926.128 0.
-563.51 -830.82 0.
-523.532 -735.513 0.
-92.5504 -577.361 0.
-122.734 -647.314 0.
-2142 -1570.45 0.
73.6749 -574.269 0.
100.603 -516.279 0.
222.033 -403.629 0.
284.647 -263.334 0.
347.263 -123.038 0.
-381.313 -307.205 0.
-307.254 -136.789 0.
-233.196 33.6284 0.
-185.76 -146.648 0.
-380.829 -603.687 0.
-575.899 -1060.73 0.
-337.774 -756.456 0.
-198.458 -428.548 0.
-255.352 -228.9 0.
-323.675 -388.082 0.
-391.997 -547.263 0.
-205.128 -590.261 0.
-267.102 -735.86 0.
-329.075 -881.458 0.
-183.239 -908.43 0.
-217.276 -992.564 0.
-251.312 -1076.7 0.
-429.687 -1104.26 0.
-385.734 -1002.47 0.
-828.542 -1105.36 0.
-788.019 -1074.61 0.
-782.416 -1059.2 0.
-220.407 -820.211 0.
-244.218 -874.904 0.
-268.029 -929.597 0.
-177.422 -896.17 0.
-162.217 -860.282 0.
-147.012 -824.394 0.
-194.072 -921.462 0.
-257.337 -1065.37 0.
-320.601 -1209.27 0.
-367.111 -1151.34 0.
-316.923 -1036.09 0.
-193.556 -895.225 0.
-189.251 -886.563 0.
-184.946 -877.901 0.
-90.0713 -819.566 0.
-62.8338 -755.058 0.
-35.597 -690.551 0.
-97.3523 -700.477 0.
-106.825 -724.339 0.
-116.298 -748.202 0.
256.076 -473.812 0.
340.64 -274.673 0.
315.057 -654.319 0.
-449.685 -1034.34 0.
-445.35 -1023.22 0.
-190.142 -887.345 0.
-170.831 -845.304 0.
-151.52 -803.263 0.
50.1824 -739.56 0.
7.80847 -840.05 0.
-34.5665 -940.54 0.
-221.506 -947.095 0.
-145.865 -770.136 0.
-70.2235 -593.176 0.
-493.031 -811.487 0.
-520.858 -875.73 0.
-102.5 -744.373 0.
-128.788 -800.952 0.
-155.076 -857.53 0.
-706.725 -1115.03 0.
-700.012 -1095.11 0.
-693.297 -1075.19 0.
-235.319 -829.002 0.
-190.808 -725.27 0.
-146.296 -621.538 0.
-345.515 -752.936 0.
-391.46 -859.889 0.
-326.354 -918.62 0.
-20.5346 -757.541 0.
-6.64967 -725.446 0.
-389.082 -840.854 0.
-292.896 -621.659 0.
-196.71 -402.463 0.
-483.658 -437.105 0.
-509.74 -496.084 0.
-535.821 -555.064 0.
-236.006 -518.719 0.
-290.458 -647.133 0.
-344.91 -775.548 0.
-186.789 -679.56 0.
-166.289 -634.16 0.
-162.554 -598.673 0.
-141.936 -551.582 0.
-121.319 -504.49 0.
-26.7864 -470.273 0.
-74.3724 -579.835 0.
-121.959 -689.397 0.
-662.951 -919.66 0.
-622.077 -825.438 0.
-581.203 -731.217 0.
41.717 -487.237 0.
11.7348 -557.114 0.
-1613.56 -1311.61 0.
-5.11874 -576.474 0.
21.8652 -518.284 0.
-84.6199 -503.803 0.
-22.8698 -362.675 0.
38.8814 -221.546 0.
-39.376 -132.147 0.
34.2314 38.8552 0.
107.838 209.858 0.
-146.574 -99.3883 0.
-342.397 -555.801 0.
-538.22 -1012.21 0.
-435.131 -767.914 0.
-295.921 -440.278 0.
-227.717 -186.165 0.
-296.606 -344.848 0.
-365.495 -503.53 0.
59.3885 -446.907 0.
-3.1294 -592.016 0.
-65.6471 -737.126 0.
-307.394 -930.726 0.
-341.568 -1014.68 0.
-375.741 -1098.64 0.
-555.769 -1127.58 0.
-512.241 -1025.38 0.
-573.676 -966.215 0.
-627.61 -975.816 0.
-622.069 -960.401 0.
-316.722 -830.918 0.
-340.903 -885.117 0.
-365.084 -939.316 0.
-236.587 -891.557 0.
-221.074 -855.744 0.
-205.561 -819.931 0.
-68.7823 -833.57 0.
-132.174 -977.743 0.
-195.565 -1121.92 0.
-360.848 -1119.24 0.
-311.571 -1003.44 0.
-155.702 -849.316 0.
-151.491 -840.392 0.
-147.281 -831.468 0.
-240.939 -852.109 0.
-214.054 -787.3 0.
-187.169 -722.492 0.
-83.4126 -664.125 0.
-92.5256 -688.386 0.
-101.638 -712.647 0.
133.581 -495.531 0.
218.395 -296.913 0.
1030.61 -22.502 0.
-246.625 -88.101 0.
-701.843 -1149.57 0.
-243.502 -1051.19 0.
576.378 864.292 0.
371.078 387.572 0.
681.772 897.669 0.
149.405 -343.018 0.
232.196 -147.332 0.
580.162 433.284 0.
515.614 283.75 0.
427.332 78.8493 0.
-454.099 -439.214 0.
-589.091 -754.351 0.
532.735 827.066 0.
344.55 387.609 0.
60.2517 -275.031 0.
-393.368 -239.879 0.
-52.4232 557.958 0.
-176.471 269.775 0.
-321.445 -491.062 0.
-263.997 -361.172 0.
-407.759 -701.013 0.
-120.346 -629.078 0.
-166.442 -731.288 0.
721.928 -260.758 0.
67.0654 -779.395 0.
443.646 100.659 0.
38.8057 221.411 0.
-78.97 -58.7207 0.
-210.181 -369.695 0.
-308.539 -45.8887 0.
-155.123 311.138 0.
-82.8135 479.256 0.
30.3888 309.624 0.
66.1981 394.612 0.
48.2649 353.893 0.
366.041 639.369 0.
154.333 139.184 0.
617.016 836.776 0.
165.732 -219.149 0.
315.716 127.795 0.
125.636 409.118 0.
110.173 374.452 0.
-153.915 -240.231 0.
-306.283 46.7783 0.
-342.279 -32.9791 0.
-256.956 170.388 0.
722.505 868.236 0.
753.865 940.551 0.
-3072.51 -1400.05 0.
136.477 -52.9184 0.
285.453 292.082 0.
-2.19689 306.77 0.
118.491 585.623 0.
222.228 824.77 0.
404.84 289.58 0.
192.538 -208.214 0.
163.015 -279.5 0.
2.49119 200.001 0.
-145.294 -144.278 0.
-572.39 -1140.27 0.
-422.377 -530.804 0.
132.992 771.257 0.
-34.8089 242.861 0.
-453.3 -731.2 0.
111.332 589.202 0.
174.484 -643.258 0.
100.285 -814.747 0.
511.91 147.695 0.
94.074 259.411 0.
298.565 738.739 0.
-42.6413 -56.4239 0.
-229.492 -107.624 0.
241.288 995.72 0.
-14.7477 791.244 0.
212.981 710.728 0.
-326.498 -548.816 0.
-130.337 -177.345 0.
-55.964 -6.52921 0.
-372.146 -746.812 0.
-400.271 -1139.26 0.
-307.612 -915.299 0.
47.4507 -77.996 0.
597.681 515.61 0.
222.704 -361.658 0.
-222.406 -1402 0.
151.861 96.7345 0.
518.557 957.387 0.
42.1401 -430.943 0.
514.466 671.236 0.
267.189 93.0214 0.
-187.329 -397.905 0.
-62.4663 -107.975 0.
-180.093 -384.391 0.
23.8509 -421.376 0.
294.031 213.168 0.
35.886 -385.598 0.
525.782 665.009 0.
-218.219 -1077.85 0.
59.8491 -681.922 0.
-343.803 -569.285 0.
-210.237 -255.558 0.
113.34 -12.417 0.
-87.8773 -482.134 0.
-289.096 -951.85 0.
-260.174 -1054.36 0.
-152.782 -802.133 0.
-45.3918 -549.909 0.
70.1421 -518.378 0.
6.45914 -667.498 0.
-57.2239 -816.618 0.
-543.896 -987.135 0.
-512.454 -916.191 0.
-139.574 -713.09 0.
-165.123 -777.915 0.
-190.673 -842.741 0.
-514.611 -981.149 0.
-456.701 -847.77 0.
-398.791 -714.391 0.
-471.995 -691.424 0.
-472.526 -694.276 0.
-473.056 -697.127 0.
-185.872 -544.168 0.
-159.834 -482.385 0.
212.126 -272.552 0.
46.7931 -383.943 0.
26.635 -430.08 0.
-235.002 -592.92 0.
-306.772 -759.458 0.
-378.541 -925.997 0.
-615.279 -1036.32 0.
-522.484 -821.583 0.
-429.689 -606.848 0.
-382.474 -503.385 0.
-372.857 -477.136 0.
-363.239 -450.887 0.
72.8383 -245.576 0.
86.8575 -215.575 0.
102.093 -187.453 0.
102.904 -186.248 0.
103.715 -185.043 0.
-242.034 -355.508 0.
-277.825 -441.208 0.
-313.616 -526.909 0.
-450.071 -697.454 0.
-528.693 -876.721 0.
-607.314 -1055.99 0.
-56.5426 -664.05 0.
72.2607 -364.297 0.
-4654.19 -2147.09 0.
157.219 -113.065 0.
142.529 -146.727 0.
-372.551 -418.878 0.
-447.517 -593.109 0.
-522.483 -767.338 0.
-14.3679 -642.953 0.
-27.5445 -675.192 0.
-40.721 -707.431 0.
-484.471 -788.491 0.
-388.999 -567.985 0.
-293.526 -347.479 0.
-373.873 -450.689 0.
-429.494 -578.115 0.
-248.372 -595.772 0.
-268.655 -642.343 0.
-288.938 -688.915 0.
-272.573 -693.137 0.
-256.933 -656.431 0.
-241.293 -619.726 0.
-196.586 -586.085 0.
-197.806 -583.084 0.
-199.026 -580.083 0.
-236.261 -616.924 0.
-255.785 -658.366 0.
-86.7952 -616.225 0.
-404.734 -702.667 0.
-377.184 -639.669 0.
-290.881 -561.969 0.
-274.199 -527.6 0.
-257.518 -493.229 0.
-29.4125 -372.462 0.
-18.7685 -344.747 0.
-8.12398 -317.032 0.
166.498 -182.801 0.
205.519 -96.1063 0.
244.54 -9.41105 0.
41.7941 -196.198 0.
-21.0075 -340.586 0.
-162.762 -512.136 0.
-191.557 -578.473 0.
-220.351 -644.809 0.
-322.696 -689.594 0.
-266.939 -562.365 0.
-211.182 -435.136 0.
206.214 -321.053 0.
106.525 -552.341 0.
6.83717 -783.629 0.
103.468 -1076.79 0.
-93.9075 -1539.9 0.
-108.413 -728.377 0.
-194.192 -476.596 0.
-60.7595 -162.479 0.
22.9993 -19.0896 0.
-177.027 -489.651 0.
-377.056 -960.213 0.
-372.391 -1068.96 0.
-264.001 -817.264 0.
-155.612 -565.565 0.
-38.5954 -532.382 0.
-102.192 -681.443 0.
-165.788 -830.505 0.
-346.224 -869.614 0.
-314.711 -798.925 0.
-136.085 -680.832 0.
-162.192 -745.223 0.
-188.298 -809.615 0.
-253.337 -838.119 0.
-195.664 -704.721 0.
-137.991 -571.322 0.
-536.949 -688.387 0.
-537.181 -691.475 0.
-537.414 -694.563 0.
-290.664 -558.198 0.
-264.173 -496.564 0.
-744.739 -652.578 0.
-173.149 -446.114 0.
-192.536 -492.871 0.
-127.986 -515.667 0.
-199.725 -682.195 0.
-271.463 -848.723 0.
-459.779 -939.296 0.
-367.426 -723.858 0.
-275.072 -508.421 0.
-439.665 -497.794 0.
-429.877 -472.281 0.
-420.09 -446.768 0.
193.258 -161.695 0.
207.293 -131.941 0.
23.2125 -189.597 0.
24.4307 -188.976 0.
25.649 -188.355 0.
-270.464 -336.419 0.
-306.294 -422.59 0.
-342.124 -508.762 0.
-222.749 -568.115 0.
-300.945 -748.151 0.
-379.142 -928.186 0.
-193.495 -691.118 0.
-64.4421 -391.515 0.
-2054.98 -1000.52 0.
232.66 -48.1364 0.
218.4 -81.992 0.
-433.732 -414.276 0.
-508.475 -588.377 0.
-583.217 -762.476 0.
-20.5209 -614.917 0.
-33.5458 -647.212 0.
-46.5704 -679.508 0.
-545.975 -782.674 0.
-450.164 -562.271 0.
-354.353 -341.869 0.
-340.498 -405.278 0.
-395.873 -533.012 0.
-57.2507 -481.867 0.
-77.3578 -528.811 0.
-97.4646 -575.755 0.
-774.61 -877.44 0.
-759.089 -841.103 0.
-743.567 -804.767 0.
-92.7006 -510.152 0.
-94.0505 -507.708 0.
-95.4006 -505.263 0.
35.8148 -470.497 0.
16.1379 -512.084 0.
-156.034 -614.515 0.
-404.491 -669.728 0.
-377.014 -606.385 0.
-271.161 -524.57 0.
-254.427 -489.52 0.
-237.692 -454.47 0.
41.833 -310.162 0.
53.1098 -282.471 0.
64.3872 -254.78 0.
21.5305 -214.475 0.
60.5255 -127.605 0.
99.5206 -40.7341 0.
79.945 -147.805 0.
17.9457 -292.817 0.
-360.863 -563.334 0.
-389.211 -630.325 0.
-417.559 -697.316 0.
-317.643 -657.499 0.
-262.212 -530.205 0.
-206.782 -402.911 0.
396.172 -206.879 0.
296.649 -438.723 0.
197.126 -670.568 0.
516.197 -870.91 0.
317.914 -1333.35 0.
-677.213 -1049.96 0.
-329.175 -911.227 0.
-346.025 -950.66 0.
-414.843 -959.644 0.
-296.979 -678.635 0.
-179.116 -397.627 0.
-76.5985 -293.002 0.
-159.573 -483.765 0.
-242.548 -674.527 0.
-209.703 -715.882 0.
-214.785 -725.429 0.
-219.867 -734.976 0.
-310.131 -921.899 0.
-393.577 -1119.15 0.
-408.701 -1244.17 0.
-310.824 -1017.15 0.
-212.946 -790.131 0.
-33.7061 -588.172 0.
-18.5238 -554.201 0.
-3.3415 -520.229 0.
-533.389 -722.609 0.
-519.569 -690.388 0.
-505.749 -658.167 0.
-324.878 -558.916 0.
-320.968 -549.189 0.
-90.9321 -440.953 0.
-372.863 -623.66 0.
-407.631 -701.047 0.
-199.559 -622.533 0.
-118.083 -432.102 0.
-36.6063 -241.67 0.
-35.186 -166.967 0.
-48.2991 -194.915 0.
-61.4114 -222.863 0.
-416.993 -514.741 0.
-519.082 -754.724 0.
-621.17 -994.707 0.
-68.5423 -710.36 0.
-28.2682 -616.146 0.
-165.216 -601.463 0.
-132.343 -522.055 0.
-99.4711 -442.646 0.
-399.013 -515.979 0.
-377.654 -467.019 0.
-356.296 -418.059 0.
-112.652 -336.257 0.
-147.324 -416.221 0.
-181.996 -496.186 0.
-72.0809 -470.079 0.
-71.6174 -470.928 0.
-451.621 -633.369 0.
197.207 -248.1 0.
252.906 -117.261 0.
-379.736 -321.215 0.
-416.282 -408.359 0.
-452.827 -495.504 0.
-53.2221 -385.338 0.
-82.5212 -454.347 0.
-111.82 -523.357 0.
-417.011 -629.401 0.
-381.71 -547.202 0.
-346.408 -465.002 0.
-440.646 -630.112 0.
-516.476 -806.427 0.
-171.82 -769.35 0.
-92.7109 -583.471 0.
-13.6021 -397.592 0.
-726.607 -579.55 0.
-681.18 -472.673 0.
-635.753 -365.796 0.
-5.72668 -167.789 0.
-117.108 -433.229 0.
-228.49 -698.67 0.
21.7558 -586.184 0.
60.1185 -499.506 0.
-488.982 -668.153 0.
-457.946 -676.956 0.
-468.257 -703.007 0.
-266.075 -637.977 0.
-282.553 -675.233 0.
-299.03 -712.489 0.
-85.3651 -628.189 0.
-69.0229 -590.891 0.
-52.68 -553.592 0.
-152.999 -599.296 0.
-168.084 -630.51 0.
-183.17 -661.724 0.
-142.929 -643.157 0.
-139.604 -635.556 0.
-515.944 -795.836 0.
-554.21 -888.518 0.
-592.476 -981.199 0.
-398.903 -937.603 0.
-376.808 -886.441 0.
-354.713 -835.278 0.
274.269 -552.906 0.
267.764 -569.284 0.
261.26 -585.663 0.
648.333 -367.699 0.
686.883 -280.685 0.
389.608 -564.845 0.
-336.403 -885.77 0.
-353.465 -924.863 0.
-401.01 -921.191 0.
-282.509 -640.49 0.
-164.009 -359.79 0.
-24.5151 -238.11 0.
-107.174 -429.03 0.
-189.833 -619.95 0.
-295.642 -721.603 0.
-299.814 -732.164 0.
-303.986 -742.724 0.
-323.401 -894.795 0.
-406.45 -1092.62 0.
-463.43 -1236.66 0.
-365.625 -1009.53 0.
-267.82 -782.404 0.
19.89 -532.087 0.
35.0719 -498.643 0.
50.254 -465.198 0.
-389.597 -629.749 0.
-375.957 -597.292 0.
-362.318 -564.834 0.
-277.751 -506.1 0.
-274.029 -495.939 0.
749.905 -46.5487 0.
-414.438 -610.369 0.
-449.004 -687.956 0.
-340.759 -651.747 0.
-259.281 -461.433 0.
-177.804 -271.12 0.
72.7839 -89.2566 0.
59.6218 -117.346 0.
46.4604 -145.436 0.
-261.77 -418.03 0.
-364.129 -658.044 0.
-466.487 -898.059 0.
-213.321 -740.5 0.
-172.592 -646.796 0.
-92.585 -537.267 0.
-59.449 -458.326 0.
-26.3129 -379.384 0.
-471.221 -515.574 0.
-449.901 -467.458 0.
-428.58 -419.342 0.
-269.423 -370.881 0.
-304.465 -450.852 0.
-339.507 -530.823 0.
174.205 -333.548 0.
174.317 -334.171 0.
-3060.9 -1720.35 0.
247.227 -195.112 0.
302.666 -64.3699 0.
-243.318 -232.621 0.
-280.079 -319.714 0.
-316.84 -406.808 0.
-341.907 -477.076 0.
-371.014 -546.201 0.
-400.122 -615.326 0.
-174.91 -493.38 0.
-138.795 -411.394 0.
-102.679 -329.408 0.
-436.918 -596.659 0.
-512.319 -773.702 0.
-314.662 -798.142 0.
-235.104 -612.839 0.
-155.546 -427.536 0.
-400.735 -407.471 0.
-355.796 -300.459 0.
-310.857 -193.446 0.
-219.291 -229.167 0.
-331.455 -494.51 0.
-443.619 -759.853 0.
-110.873 -613.796 0.
-72.9959 -527.126 0.
14.7529 -419.778 0.
-551.6 -684.396 0.
-561.895 -710.65 0.
-126.583 -547.544 0.
-142.799 -585.099 0.
-159.015 -622.655 0.
-98.441 -599.577 0.
-81.8504 -562.196 0.
-65.2591 -524.814 0.
-0.674498 -503.042 0.
-14.9427 -534.54 0.
-29.2106 -566.039 0.
-176.958 -623.696 0.
-173.941 -615.581 0.
-411.932 -721.094 0.
-450.504 -813.572 0.
-489.076 -906.049 0.
-284.356 -859.114 0.
-262.383 -807.762 0.
-240.41 -756.409 0.
173.698 -564.933 0.
167.496 -581.55 0.
161.294 -598.167 0.
76.9444 -582.705 0.
115.837 -496.559 0.
393.314 675.745 0.
-318.914 -793.599 0.
278.031 596.784 0.
90.632 237.075 0.
-110.426 -229.205 0.
76.4452 209.944 0.
-215.455 -753.76 0.
333.384 529.573 0.
100.589 -10.6367 0.
-64.8585 13.3636 0.
-165.108 -219.931 0.
-332.17 -608.988 0.
-123.733 -378.451 0.
-62.7159 -233.331 0.
-250.613 -601.191 0.
365.137 833.654 0.
150.456 331.176 0.
449.805 397.829 0.
175.403 -240.884 0.
154.836 -288.163 0.
-213.353 -451.352 0.
-163.941 -339.802 0.
-54.8748 -88.7515 0.
-364.003 -749.036 0.
16.9165 141.324 0.
423.549 1459.33 0.
8.38679 479.977 0.
-216.56 -43.5079 0.
-239.09 -113.642 0.
-222.474 -76.7177 0.
-236.798 -111.278 0.
-131.18 -736.197 0.
-140.195 -756.88 0.
-43.8539 -531.482 0.
138.82 247.437 0.
151.38 276.36 0.
-259.688 -682.388 0.
195.104 511.838 0.
140.229 384.289 0.
110.606 -155.364 0.
320.416 330.888 0.
434.148 593.026 0.
-285.644 79.0442 0.
-348.709 -71.1866 0.
-563.922 -576.16 0.
-313.296 -142.405 0.
-0.22858 585.814 0.
-407.405 -366.496 0.
606.748 247.706 0.
564.934 144.849 0.
-1291.5 -1108.64 0.
425.279 174.623 0.
294.933 -130.162 0.
-337.722 -689.964 0.
3.5324 106.378 0.
240.283 659.481 0.
-92.7257 684.147 0.
-48.5804 785.448 0.
-231.675 356.588 0.
291.624 173.137 0.
540.35 750.964 0.
868.689 1514.47 0.
-64.5597 288.046 0.
-95.8661 213.328 0.
33.3264 319.409 0.
-414.669 -728.478 0.
-477.168 -875.644 0.
162.503 319.832 0.
400.548 878.249 0.
284.228 610.18 0.
-327.401 -51.7865 0.
-14.1906 680.42 0.
146.856 1058.49 0.
-259.856 -689.398 0.
-65.5668 -228.579 0.
-343.649 -98.4875 0.
8.75974 825.247 0.
-280.168 149.815 0.
845.32 1502.71 0.
681.626 1115.8 0.
258.929 125.046 0.
112.25 -42.4611 0.
485.829 829.013 0.
234.722 242.796 0.
612.213 668.333 0.
454.616 299.778 0.
97.4672 -534.567 0.
-150.041 -463.026 0.
-68.6236 -271.544 0.
-157.626 -293.956 0.
254.091 666.694 0.
-100.367 -160.462 0.
-196.142 -853.776 0.
161.8 -15.9308 0.
206.469 90.8702 0.
710.068 911.618 0.
392.821 174.334 0.
534.4 506.599 0.
-226.162 -185.616 0.
-22.8527 289.311 0.
-218.873 -405.256 0.
-308.767 -562.236 0.
-337.701 -629.157 0.
-235.426 -595.052 0.
-166.372 -432.327 0.
-97.3179 -269.603 0.
-159.035 -258.371 0.
-204.387 -363.309 0.
-249.74 -468.248 0.
-188.385 -461.835 0.
-183.748 -447.741 0.
-179.11 -433.647 0.
-256.481 -390.584 0.
-215.668 -290.623 0.
14.6836 -150.182 0.
-97.5305 -412.356 0.
-209.745 -674.53 0.
-185.877 -767.249 0.
-130.637 -633.192 0.
-75.3973 -499.136 0.
-210.707 -561.477 0.
-262.842 -681.966 0.
-314.977 -802.454 0.
-319.05 -711.358 0.
-236.684 -517.906 0.
-288.963 -382.231 0.
-264.425 -314.634 0.
-240.521 -258.643 0.
-249.037 -244.097 0.
-272.745 -301.057 0.
-296.453 -358.016 0.
-41.7333 -311.236 0.
-84.5871 -414.467 0.
-127.441 -517.699 0.
-363.81 -567.853 0.
-302.941 -424.829 0.
-242.072 -281.806 0.
-74.6121 -263.97 0.
-115.691 -356.865 0.
22.6354 -361.869 0.
36.6184 -326.495 0.
50.6011 -291.121 0.
-288.643 -402.072 0.
-266.649 -349.846 0.
-244.655 -297.619 0.
-394.867 -360.103 0.
-406.701 -393.822 0.
-418.535 -427.54 0.
365.797 70.0611 0.
477.906 328.88 0.
-1666.93 -381.457 0.
501.823 328.17 0.
388.827 60.4682 0.
-94.055 -274.413 0.
6.52143 -39.4728 0.
107.098 195.467 0.
-151.264 150.006 0.
-194.937 48.7522 0.
-238.61 -52.5015 0.
-73.0978 -122.08 0.
-166.543 -335.167 0.
-259.988 -548.254 0.
-278.634 -450.25 0.
-203.457 -275.191 0.
-164.228 -145.404 0.
-230.717 -304.476 0.
-297.207 -463.548 0.
-287.034 -505.429 0.
-222.668 -355.933 0.
-158.301 -206.438 0.
-315.14 -257.214 0.
-344.113 -328.034 0.
-373.087 -398.854 0.
-167.439 -263.383 0.
-127.452 -169.543 0.
469.728 164.23 0.
-460.201 -486.941 0.
-594.254 -799.167 0.
-130.184 -752.158 0.
-14.0933 -482.566 0.
101.998 -212.974 0.
-52.6132 -250.921 0.
-163.951 -505.834 0.
-275.289 -760.746 0.
-50.024 -701.463 0.
-28.8268 -651.361 0.
-7.62952 -601.259 0.
-290.255 -695.751 0.
-277.667 -665.846 0.
-267.705 -638.711 0.
-251.635 -601.38 0.
-235.565 -564.048 0.
39.179 -455.89 0.
-10.4393 -571.278 0.
-60.0573 -686.666 0.
-89.4267 -709.415 0.
-59.3026 -636.374 0.
-29.1787 -563.333 0.
-424.71 -774.585 0.
-463.885 -861.758 0.
403.568 -105.926 0.
-404.537 -571.516 0.
-433.604 -638.185 0.
-179.949 -541.535 0.
-111.437 -378.416 0.
-42.9256 -215.297 0.
-331.22 -300.878 0.
-376.31 -406.13 0.
-421.4 -511.382 0.
-73.8808 -381.482 0.
-69.0327 -368.025 0.
-64.1845 -354.567 0.
-398.798 -419.753 0.
-357.529 -320.575 0.
120.417 -71.4119 0.
8.61958 -334.087 0.
-103.178 -596.762 0.
-335.423 -797.728 0.
-280.023 -663.924 0.
-224.623 -530.119 0.
-135.935 -499.126 0.
-187.782 -620.185 0.
-239.629 -741.245 0.
-266.781 -656.621 0.
-183.463 -463.461 0.
-1174.46 -730.653 0.
-167.69 -241.019 0.
-143.311 -185.276 0.
-174.111 -179.661 0.
-197.511 -236.649 0.
-220.911 -293.638 0.
-141.106 -322.851 0.
-184.052 -426.151 0.
-226.998 -529.452 0.
-535.778 -611.267 0.
-475.123 -468.192 0.
-414.468 -325.119 0.
22.2944 -189.444 0.
-18.7123 -282.74 0.
33.4222 -325.919 0.
47.0012 -290.73 0.
60.58 -255.54 0.
-24.0256 -257.362 0.
-2.22052 -205.6 0.
19.5848 -153.839 0.
-363.28 -315.587 0.
-375.682 -349.104 0.
-388.084 -382.621 0.
178.858 21.286 0.
290.608 279.967 0.
-217.735 271.16 0.
533.186 372.544 0.
420.301 104.373 0.
1.23403 -199.141 0.
102.793 34.8061 0.
204.352 268.753 0.
78.088 279.098 0.
34.8085 177.592 0.
-8.47107 76.0854 0.
-353.223 -209.704 0.
-446.097 -423.091 0.
-538.969 -636.477 0.
-136.547 -356.99 0.
-61.2375 -182.362 0.
-141.495 -102.373 0.
-207.909 -262.283 0.
-274.323 -422.194 0.
-385.156 -515.743 0.
-320.963 -366.784 0.
-256.77 -217.825 0.
-171.939 -163.958 0.
-200.594 -235.104 0.
-229.249 -306.252 0.
-264.531 -274.091 0.
-224.484 -180.465 0.
-491.336 -216.038 0.
-325.653 -397.144 0.
-459.938 -709.344 0.
-127.356 -718.478 0.
-10.4584 -449.539 0.
106.44 -180.6 0.
-130.863 -251.208 0.
-242.138 -506.047 0.
-353.411 -760.883 0.
-124.776 -702.027 0.
-103.525 -651.703 0.
-82.2744 -601.378 0.
-322.835 -678.718 0.
-309.659 -649.146 0.
-209.426 -581.206 0.
-192.83 -544.521 0.
-176.234 -507.835 0.
136.967 -381.433 0.
87.3901 -496.58 0.
37.8136 -611.727 0.
-200.992 -725.918 0.
-170.929 -652.752 0.
-140.866 -579.585 0.
-343.445 -709.825 0.
-383.504 -796.738 0.
-1285.92 -1227.47 0.
-397.035 -694.027 0.
-343.288 -570.56 0.
-108.275 -370.818 0.
-59.1095 -258.114 0.
-9.94378 -145.41 0.
-299.058 -212.382 0.
-300.022 -210.315 0.
-300.985 -208.249 0.
18.5064 -156.46 0.
-46.0055 -310.056 0.
-110.517 -463.653 0.
-486.917 -659.898 0.
-504.062 -699.549 0.
-115.358 -540.162 0.
-7.64441 -288.783 0.
100.07 -37.4035 0.
-119.234 -83.4861 0.
-253.488 -398.986 0.
-387.743 -714.487 0.
-189.519 -680.455 0.
-127.843 -538.429 0.
-66.1676 -396.404 0.
-202.428 -451.921 0.
-220.106 -490.382 0.
14.7589 -420.225 0.
-220.276 -411.021 0.
-165.156 -276.02 0.
-128.837 -201.611 0.
-217.074 -406.833 0.
-305.312 -612.055 0.
-337.946 -656.418 0.
-255.348 -460.879 0.
-172.751 -265.341 0.
-473.295 -366.253 0.
-496.209 -417.435 0.
-519.123 -468.618 0.
-4.39723 -254.971 0.
-4.31301 -258.409 0.
106.157 -230.936 0.
18.4244 -442.149 0.
-69.3077 -653.362 0.
-115.338 -721.539 0.
-13.3801 -484.482 0.
88.5776 -247.426 0.
-352.414 -245.513 0.
-254.457 -15.4304 0.
-156.501 214.652 0.
109.635 58.4445 0.
-100.058 -428.333 0.
492.8 -573.195 0.
120.522 -549.144 0.
215.974 -325.286 0.
28.374 -278.092 0.
3.17494 -335.105 0.
-22.0239 -392.118 0.
-196.249 -493.362 0.
-199.362 -500.773 0.
-202.474 -508.184 0.
-478.568 -543.548 0.
-408.189 -381.188 0.
-337.811 -218.828 0.
-123.401 -190.854 0.
-173.828 -304.859 0.
-249.343 -391.889 0.
-137.83 -126.235 0.
-26.3186 139.417 0.
-73.8822 178.027 0.
-200.593 -116.401 0.
-327.303 -410.828 0.
-247.273 -361.286 0.
-135.904 -97.9283 0.
-24.5349 165.429 0.
-237.511 -98.3022 0.
-383.579 -436.309 0.
-434.707 -728.786 0.
-296.557 -532.798 0.
-224.596 -364.039 0.
28.7418 -178.177 0.
-56.8794 -373.296 0.
-142.5 -568.414 0.
-301.169 -641.483 0.
-197.384 -400.016 0.
-93.5982 -158.55 0.
78.7695 -79.6425 0.
29.0608 -194.35 0.
-20.6479 -309.057 0.
-372.931 -642.649 0.
-473.514 -878.279 0.
-335.983 -971.755 0.
-251.772 -774.517 0.
-167.562 -577.279 0.
93.2549 -413.968 0.
8.84813 -611.883 0.
-75.558 -809.797 0.
-328.866 -934.271 0.
-277.613 -815.077 0.
-226.36 -695.883 0.
-231.532 -745.891 0.
-277.825 -857.97 0.
-240.56 -747.267 0.
-117.441 -543.517 0.
-63.928 -419.471 0.
-137.002 -353.559 0.
-87.845 -240.797 0.
-38.6882 -128.035 0.
-112.136 -99.5765 0.
-113.286 -97.5496 0.
-114.437 -95.5226 0.
-79.1691 -169.616 0.
-144.431 -322.314 0.
-209.692 -475.012 0.
-269.1 -534.508 0.
-286.255 -573.844 0.
-278.359 -581.164 0.
-170.843 -329.728 0.
-63.3255 -78.293 0.
-157.896 -66.9244 0.
-291.807 -382.636 0.
-425.719 -698.349 0.
-172.7 -642.786 0.
-110.816 -501.012 0.
-48.9319 -359.237 0.
-280.338 -455.085 0.
-298.63 -492.612 0.
231.016 -294.045 0.
-229.71 -383.523 0.
-174.275 -248.703 0.
-39.5087 -133.712 0.
-127.653 -338.912 0.
-215.797 -544.113 0.
-347.288 -627.447 0.
-264.456 -432.518 0.
-181.625 -237.59 0.
-371.51 -290.967 0.
-394.356 -342.253 0.
-417.202 -393.538 0.
-64.8498 -248.435 0.
-65.1218 -251.922 0.
223.55 -149.101 0.
135.287 -360.231 0.
47.0239 -571.361 0.
-71.4451 -671.189 0.
29.855 -433.795 0.
131.155 -196.401 0.
-403.348 -238.217 0.
-305.333 -8.26792 0.
-207.318 221.68 0.
100.041 87.1344 0.
-109.102 -400.399 0.
-1243.02 -1284.68 0.
89.4957 -530.679 0.
185.53 -307.299 0.
109.883 -208.162 0.
85.6152 -266.036 0.
61.3473 -323.911 0.
-255.391 -487.513 0.
-258.373 -495.214 0.
-261.354 -502.915 0.
-122.201 -357.783 0.
-51.9639 -194.97 0.
18.2737 -32.1557 0.
-353.099 -258.569 0.
-403.574 -372.322 0.
-220.927 -348.638 0.
-109.267 -83.5022 0.
2.39326 181.633 0.
98.7232 284.99 0.
-27.9869 -9.9278 0.
-154.696 -304.845 0.
-345.31 -372.382 0.
-233.094 -109.604 0.
-120.879 153.175 0.
-220.719 -59.3109 0.
-367.012 -397.024 0.
154.952 -446.394 0.
-189.361 -455.99 0.
-117.832 -286.143 0.
-138.277 -219.193 0.
-223.171 -414.539 0.
-308.065 -609.886 0.
-198.914 -566.986 0.
-94.4523 -325.95 0.
10.0098 -84.9131 0.
32.7671 -66.4705 0.
-16.8252 -181.41 0.
-66.4176 -296.348 0.
-471.114 -652.217 0.
-571.639 -888.043 0.
-261.624 -909.884 0.
-177.53 -712.19 0.
-93.4357 -514.496 0.
-45.3939 -441.983 0.
-129.759 -639.698 0.
-214.124 -837.412 0.
-282.583 -882.597 0.
-231.53 -763.127 0.
-180.477 -643.658 0.
29.319 -604.65 0.
-16.8384 -717.135 0.
-461.984 783.759 0.
244.107 -209.008 0.
280.512 -124.826 0.
-199.295 -422.72 0.
-237.243 -506.13 0.
-26.2954 -11.3478 0.
-97.5889 -401.239 0.
65.7257 -19.532 0.
246.331 401.918 0.
213.561 732.373 0.
90.337 441.371 0.
-209.11 -260.346 0.
272.412 338.393 0.
481.25 825.931 0.
39.0923 490.717 0.
252.794 993.268 0.
222.095 926.136 0.
-320.479 -345.637 0.
-113.228 135.104 0.
-193.981 -55.2397 0.
-29.3381 -317.359 0.
-157.403 -616.47 0.
-275.481 -893.392 0.
-332.68 -400.653 0.
57.1463 511.7 0.
67.7191 -475.068 0.
-81.6809 8.6169 0.
-133.679 -113.607 0.
-294.469 -886.52 0.
53.985 -67.1726 0.
105.569 59.6821 0.
-316.825 -499.612 0.
234.363 785.386 0.
-114.488 -29.9313 0.
-282.572 -256.665 0.
-363.922 -445.998 0.
-288.093 -268.427 0.
115.895 329.582 0.
273.476 696.048 0.
464.468 219.9 0.
437.903 159.056 0.
464.977 223.401 0.
318.614 187.793 0.
128.553 -254.051 0.
-61.7424 -696.458 0.
-502.278 -343.468 0.
-304.517 117.42 0.
-162.777 447.719 0.
99.4067 125.077 0.
238.795 449.49 0.
-1043.47 -382.219 0.
277.172 19.4223 0.
305.621 85.0011 0.
303.307 113.041 0.
-184.825 -1022.87 0.
321.477 161.399 0.
345.419 1051.22 0.
132.326 555.211 0.
-209.186 -240.519 0.
298.866 -12.9517 0.
403.782 232.067 0.
361.431 133.41 0.
-332.409 248.146 0.
-316.489 285.639 0.
144.669 488.544 0.
292.825 833.928 0.
266.351 772.364 0.
321.348 501.91 0.
43.174 -152.698 0.
344.131 544.182 0.
59.9828 786.472 0.
-226.26 117.27 0.
-470.601 -453.87 0.
-548.332 -824.288 0.
-76.1282 282.039 0.
-233.422 -284.247 0.
2.8681 -182.59 0.
-32.3481 -264.57 0.
-482.686 -676.827 0.
-534.207 -795.777 0.
-531.849 -788.552 0.
407.846 682.676 0.
-55.1059 -393.424 0.
220.28 252.694 0.
240.591 540.09 0.
200.496 446.595 0.
82.4429 171.199 0.
-262.16 52.2321 0.
-277.074 18.3285 0.
210.228 86.1577 0.
164.908 -17.6264 0.
244.666 168.702 0.
101.772 194.35 0.
1.9629 -35.4153 0.
-640.457 -1531.36 0.
-42.5362 -376.322 0.
49.5907 -159.676 0.
106.96 -26.4375 0.
284.595 -473.362 0.
249.02 -558.002 0.
253.755 241.802 0.
197.025 5.64713 0.
97.5301 -225.668 0.
-134.032 -446.128 0.
-92.8554 -348.292 0.
-51.6798 -250.456 0.
-167.104 -292.077 0.
-204.994 -384.381 0.
-242.885 -476.686 0.
-359.551 -488.44 0.
-310.442 -376.421 0.
-261.332 -264.401 0.
96.3481 -56.4158 0.
125.019 10.7418 0.
-248.105 -109.838 0.
-325.331 -289.369 0.
-402.557 -468.901 0.
-192.701 -423.311 0.
-102.404 -213.335 0.
-12.1072 -3.35995 0.
-95.9747 -8.01717 0.
-141.334 -111.729 0.
-186.692 -215.441 0.
-213.28 -202.853 0.
-181.231 -133.095 0.
-48.6292 -20.1239 0.
-407.085 -285.632 0.
-464.307 -423.164 0.
160.39 -231.453 0.
187.504 -168.655 0.
214.62 -105.857 0.
-150.827 -224.066 0.
-129.929 -178.085 0.
-109.031 -132.105 0.
-206.713 -99.6277 0.
-158.89 9.55824 0.
-111.066 118.744 0.
-25.1376 7.98032 0.
-115.144 -200.76 0.
87.3275 -255.981 0.
130.17 -153.028 0.
173.013 -50.0756 0.
92.4291 -104.033 0.
-22.0061 -371.114 0.
-136.441 -638.196 0.
-403.013 -688.292 0.
-255.756 -345.329 0.
-108.499 -2.36493 0.
292.76 253.491 0.
307.497 288.563 0.
-523.267 -39.2257 0.
191.665 214.87 0.
162.012 148.896 0.
270.412 128.977 0.
200.275 -28.5988 0.
130.139 -186.174 0.
-222.196 -400.249 0.
-213.257 -380.605 0.
-204.318 -360.962 0.
84.6612 -277.145 0.
50.1564 -357.285 0.
15.6515 -437.425 0.
-495.444 -522.452 0.
-413.446 -331.918 0.
-93.2286 -68.1027 0.
-151.756 -204.758 0.
-210.283 -341.412 0.
-62.6169 -273.58 0.
54.7171 -1.87138 0.
172.051 269.837 0.
-104.338 121.378 0.
-225.597 -159.044 0.
-346.856 -439.466 0.
-204.125 -297.98 0.
-117.931 -98.4745 0.
-362.021 -39.3825 0.
-112.242 78.7568 0.
-103.74 94.8443 0.
-77.553 86.3325 0.
-162.796 -112.728 0.
-248.037 -311.789 0.
-17.5033 -325.915 0.
-41.5324 -382.153 0.
-65.5611 -438.393 0.
-109.489 -446.51 0.
-83.7725 -385.162 0.
-58.0559 -323.815 0.
-431.645 -376.113 0.
-373.972 -240.093 0.
31.9757 14.5158 0.
-50.7254 -181.099 0.
-133.427 -376.714 0.
-237.52 -492.949 0.
-185.705 -371.367 0.
-133.889 -249.784 0.
-255.925 -341.235 0.
-334.643 -528.044 0.
-413.361 -714.853 0.
272.307 -359.837 0.
337.004 -212.357 0.
355.303 320.906 0.
41.0258 -29.8268 0.
-58.3041 -260.801 0.
-28.6987 -369.711 0.
13.3322 -272.257 0.
55.3622 -174.802 0.
-289.815 -311.825 0.
-326.735 -404.609 0.
-363.656 -497.393 0.
-403.369 -476.996 0.
-354.729 -365.026 0.
-306.089 -253.054 0.
105.066 -20.7773 0.
133.613 45.5964 0.
-262.894 -83.6283 0.
-339.663 -263.761 0.
-416.433 -443.894 0.
23.0932 -300.023 0.
113.241 -89.7672 0.
203.388 120.489 0.
-327.634 -76.5111 0.
-372.966 -179.82 0.
-418.297 -283.128 0.
-152.687 -146.603 0.
-120.968 -76.3865 0.
25.3111 42.2665 0.
-631.305 -350.962 0.
-688.582 -488.222 0.
391.807 -100.997 0.
418.987 -38.4751 0.
446.169 24.0465 0.
-76.984 -160.152 0.
-55.812 -114.922 0.
-34.6398 -69.6905 0.
-174.386 -54.238 0.
-125.672 54.0086 0.
-76.9575 162.255 0.
-12.5237 45.8458 0.
-101.339 -163.91 0.
-111.049 -307.911 0.
-67.7361 -205.304 0.
-24.4222 -102.698 0.
-12.3347 -116.332 0.
-126.371 -383.72 0.
-240.408 -651.107 0.
-84.9445 -521.04 0.
62.657 -178.199 0.
210.259 164.642 0.
487.946 369.921 0.
502.96 404.742 0.
-1077.17 -245.134 0.
-10.2693 159.975 0.
-39.9591 94.3648 0.
235.646 146 0.
165.797 -11.7467 0.
95.9484 -169.493 0.
-134.329 -331.025 0.
-125.494 -311.233 0.
-116.66 -291.441 0.
-20.752 -289.324 0.
-55.7002 -369.116 0.
-90.6483 -448.909 0.
-272.817 -395.635 0.
-191.645 -203.783 0.
-74.5106 -30.8398 0.
-134.004 -166.543 0.
-193.498 -302.246 0.
-110.801 -264.537 0.
5.73437 7.65949 0.
122.27 279.855 0.
56.7055 219.839 0.
-64.7852 -60.1906 0.
-186.276 -340.22 0.
-44.0078 -197.832 0.
42.3374 1.93601 0.
-349.358 -4.44535 0.
-371.206 -1.1178 0.
-362.349 14.9796 0.
33.9791 164.858 0.
-50.409 -34.6557 0.
-134.796 -234.17 0.
8.21938 -282.55 0.
-15.0143 -339.232 0.
-38.2477 -395.916 0.
-4.86322 -369.887 0.
21.1672 -308.913 0.
47.198 -247.94 0.
-397.252 -328.793 0.
-339.436 -193.145 0.
-131.601 -24.8482 0.
-215.116 -219.815 0.
-298.631 -414.781 0.
-274.137 -478.116 0.
-222.311 -356.281 0.
-170.486 -234.445 0.
-519.22 -421.754 0.
-598.267 -608.575 0.
-677.314 -795.397 0.
216.891 -353.99 0.
281.043 -206.309 0.
-232.901 -516.422 0.
-173.137 -266.118 0.
-50.6594 19.9174 0.
250.128 270.766 0.
120.41 -26.3834 0.
-9.30811 -323.531 0.
-441.592 -603.075 0.
-394.101 -487.841 0.
-346.61 -372.608 0.
-327.951 -336.145 0.
-333.336 -347.052 0.
-338.722 -357.959 0.
-38.8232 -124.34 0.
25.7433 28.81 0.
-173.393 47.1502 0.
-215.905 -48.7425 0.
-258.416 -144.635 0.
227.925 11.8554 0.
227.186 11.9014 0.
226.446 11.9474 0.
-494.672 -179.081 0.
-379.386 89.9359 0.
-264.101 358.953 0.
152.397 530.546 0.
111.257 436.678 0.
858.118 679.615 0.
-484.874 -43.1357 0.
-562.263 -222.036 0.
462.994 78.226 0.
403.17 -60.7918 0.
343.345 -199.811 0.
-186.618 -441.241 0.
-130.864 -313.664 0.
-75.1086 -186.086 0.
-251.986 -212.599 0.
-241.697 -188.117 0.
-231.409 -163.635 0.
-63.0405 -142.831 0.
-93.1964 -212.646 0.
-105.928 -269.533 0.
-109.938 -276.186 0.
-113.947 -282.839 0.
-144.183 -237.266 0.
-55.8323 -25.5806 0.
32.5171 186.104 0.
355.232 268.071 0.
227.061 -28.099 0.
98.8899 -324.269 0.
333.408 -146.884 0.
423.196 63.1781 0.
-1270.15 -489.568 0.
-36.434 -4.50918 0.
-57.8499 -56.4377 0.
61.6199 -38.0933 0.
62.293 -36.5653 0.
62.9661 -35.0374 0.
-11.599 -61.8041 0.
-7.33733 -48.5999 0.
-3.07572 -35.3956 0.
24.7834 -22.65 0.
22.3377 -27.0146 0.
19.8921 -31.3791 0.
-40.2482 -95.1075 0.
-62.6539 -148.406 0.
-80.1685 -183 0.
-23.2912 -50.2965 0.
33.5861 82.4066 0.
-25.9886 49.9388 0.
-146.721 -231.346 0.
-267.454 -512.631 0.
-207.192 -497.899 0.
-120.217 -294.236 0.
-33.2425 -90.5733 0.
-69.5591 -169.624 0.
-139.684 -327.434 0.
-354.397 -546.52 0.
-569.974 -485.704 0.
-490.818 -297.712 0.
10.3098 27.6391 0.
-14.4341 -25.2647 0.
-39.1777 -78.1686 0.
77.7176 -77.4971 0.
44.4839 -152.983 0.
11.2505 -228.469 0.
-12.6046 -254.565 0.
-12.0179 -251.579 0.
-11.4313 -248.594 0.
-445.218 -377.19 0.
-410.826 -296.615 0.
-235.07 -166.718 0.
-261.703 -228.182 0.
-288.335 -289.647 0.
-136.242 -231.425 0.
-94.4666 -131.019 0.
-52.6908 -30.6128 0.
-490.084 -234.9 0.
-539.973 -350.347 0.
-589.862 -465.794 0.
123.063 -347.345 0.
14.1124 -600.591 0.
194.046 -303.881 0.
-242.616 -264.583 0.
-119.286 21.1728 0.
183.72 274.262 0.
54.9579 -22.7849 0.
-73.8041 -319.83 0.
-361.62 -537.066 0.
-313.456 -422.009 0.
-265.292 -306.951 0.
-221.425 -260.648 0.
-226.715 -271.919 0.
-232.005 -283.19 0.
-258.318 -183.976 0.
-192.967 -31.896 0.
-56.3714 128.325 0.
-98.7273 32.1767 0.
-141.083 -63.9716 0.
217.538 40.4676 0.
217.423 39.8175 0.
217.306 39.1674 0.
-526.477 -161.574 0.
-411.412 107.768 0.
-296.347 377.111 0.
145.506 555.51 0.
104.393 461.474 0.
-300.342 212.736 0.
-198.131 114.07 0.
-275.605 -65.0147 0.
258.428 21.2259 0.
198.215 -117.692 0.
138.002 -256.61 0.
-202.219 -415.979 0.
-146.525 -288.587 0.
-90.8306 -161.195 0.
-266.266 -187.61 0.
-255.798 -163.497 0.
-245.33 -139.384 0.
21.652 -75.7547 0.
-8.32154 -145.619 0.
90.2109 -153.579 0.
86.013 -160.031 0.
81.8158 -166.482 0.
-215.297 -237.19 0.
-127.302 -25.1966 0.
-39.3077 186.796 0.
325.277 283.673 0.
197.109 -12.4593 0.
68.9406 -308.591 0.
331.636 -113.906 0.
421.938 95.8748 0.
-1202.85 -429.323 0.
302.825 172.676 0.
281.187 121.288 0.
-80.9923 -67.3303 0.
-79.9777 -66.0228 0.
-78.9631 -64.7152 0.
-48.3514 -44.8834 0.
-43.186 -32.1805 0.
-38.0207 -19.4774 0.
-1.85286 -2.47141 0.
-3.83363 -6.62767 0.
-5.81429 -10.7839 0.
27.2139 -34.0004 0.
4.93263 -87.2814 0.
82.2144 -81.8482 0.
139.487 50.5556 0.
196.76 182.96 0.
-59.7384 69.2476 0.
-179.774 -212.674 0.
-299.81 -494.595 0.
-227.107 -474.894 0.
-140.192 -271.537 0.
-53.2759 -68.1794 0.
-285.522 -229.957 0.
-355.219 -388.163 0.
572.349 -117.862 0.
-254.706 -318.599 0.
-175.749 -130.178 0.
2.04302 54.973 0.
-22.792 2.0677 0.
-47.6267 -50.8375 0.
27.6225 -68.1864 0.
-5.37253 -143.759 0.
-38.3673 -219.331 0.
-222.576 -312.582 0.
-221.643 -309.684 0.
-220.711 -306.785 0.
-519.127 -377.92 0.
-484.773 -297.354 0.
-140.966 -93.9386 0.
-167.161 -155.94 0.
-193.355 -217.942 0.
13.7821 -136.658 0.
55.861 -36.2098 0.
97.9401 64.2385 0.
-319.055 -128.933 0.
-368.704 -244.478 0.
-418.352 -360.024 0.
-38.0903 -383.769 0.
-147.131 -636.885 0.
360.666 163.886 0.
-402.831 -476.923 0.
-280.015 -189.211 0.
378.613 877.019 0.
99.8668 232.328 0.
278.377 654.345 0.
-80.4517 -22.0805 0.
-487.372 -969.167 0.
141.269 499.114 0.
-185.116 -339.735 0.
-334.053 -687.533 0.
-242.68 -474.329 0.
-176.409 440.511 0.
-215.544 355.526 0.
-307.375 -641.036 0.
32.0837 150.234 0.
-267.855 -549.711 0.
124.212 -136.579 0.
-48.8644 -537.874 0.
261.362 187.369 0.
-371.889 278.404 0.
-596.519 -247.709 0.
-813.126 -755.557 0.
-128.243 -34.7072 0.
-34.8333 181.304 0.
-665.941 136.493 0.
-187.786 -374.665 0.
121.072 352.499 0.
523.753 1058.51 0.
361.397 684.65 0.
-191.501 -600.24 0.
-394.08 -796.504 0.
86.1619 326.783 0.
17.6902 169.417 0.
-297.705 -229.805 0.
-491.656 -682.466 0.
-69.9366 301.432 0.
14.921 -211.686 0.
-161.049 -625.554 0.
294.941 -11.4952 0.
566.411 621.713 0.
404.328 243.291 0.
-297.357 -250.154 0.
-137.658 121.952 0.
-409.059 -511.901 0.
121.856 -116.672 0.
343.384 405.114 0.
88.1399 -185.389 0.
234.67 -297.151 0.
391.075 62.6082 0.
-1430.49 414.289 0.
476.554 -29.7522 0.
167.284 -755.413 0.
-333.92 -356.015 0.
-155.08 61.4541 0.
-163.108 42.5837 0.
-147.125 -185.048 0.
142.676 493.988 0.
103.64 406.05 0.
-198.514 -379.032 0.
-476.622 -1025.02 0.
166.955 479.178 0.
59.1929 -52.7624 0.
-123.63 -477.373 0.
266.371 71.9596 0.
289.483 123.686 0.
113.792 -288.058 0.
-381.194 -583.867 0.
-233.21 -241.965 0.
-415.975 -672.192 0.
2.80405 125.23 0.
-94.1421 -106.649 0.
3.86052 116.662 0.
-257.651 295.508 0.
-180.001 477.669 0.
-410.973 225.271 0.
308.338 412.733 0.
-212.949 -793.557 0.
-87.2432 -110.97 0.
250.686 683.463 0.
-793.245 -1745.76 0.
-318.516 -750.169 0.
483.578 1121.42 0.
471.992 1095.15 0.
-389.081 -266.08 0.
-758.963 -1131.48 0.
-642.369 -861.778 0.
-573.986 -329.847 0.
-207.128 525.684 0.
139.053 410.428 0.
-50.731 -30.1307 0.
-187.59 -348.028 0.
48.0857 -314.016 0.
645.965 1081.15 0.
294.621 261.168 0.
-390.448 -585.761 0.
-97.738 95.1992 0.
-198.446 -140.506 0.
190.066 494.935 0.
-30.9461 -21.4043 0.
957.842 609.044 0.
94.3099 130.342 0.
16.3566 -50.0232 0.
-388.539 -332.556 0.
-396.107 -350.595 0.
-403.675 -368.633 0.
-134.899 -191.264 0.
-48.951 7.77145 0.
36.9964 206.808 0.
-112.625 261.825 0.
-65.3591 375.169 0.
-18.0928 488.512 0.
-124.745 293.858 0.
-226.623 64.9929 0.
-169.332 -71.6964 0.
-150.536 -27.3647 0.
-131.74 16.9664 0.
77.9525 100.748 0.
25.8966 -17.3291 0.
-26.1594 -135.406 0.
-253.089 -222.8 0.
-201.29 -107.632 0.
-149.492 7.53559 0.
-49.4278 -6.10396 0.
-101.007 -128.106 0.
-44.4583 -203.846 0.
-248.323 -289.138 0.
-248.699 -287.169 0.
-264.12 -261.51 0.
-203.606 -115.879 0.
-143.091 29.7535 0.
-86.4604 53.0773 0.
-168.576 -130.849 0.
-250.692 -314.774 0.
122.064 -8.81573 0.
278.572 355.178 0.
435.081 719.172 0.
313.906 550.305 0.
222.836 336.669 0.
425.501 264.671 0.
404.932 213.71 0.
384.363 162.748 0.
-247.521 -160.107 0.
-273.265 -226.962 0.
-299.01 -293.816 0.
-90.5421 -203.653 0.
-69.2751 -153.539 0.
-48.0089 -103.426 0.
767.541 194.78 0.
728.197 103.082 0.
-2163.27 -1210.1 0.
336.949 7.38338 0.
414.007 186.301 0.
15.6132 105.585 0.
-44.6397 -37.4404 0.
-104.893 -180.466 0.
-209.244 -232.843 0.
-135.2 -59.061 0.
-61.1561 114.722 0.
122.669 228.966 0.
110.932 203.116 0.
99.1943 177.266 0.
33.6446 133.112 0.
25.674 115.387 0.
463.264 284.094 0.
431.44 210.183 0.
399.615 136.272 0.
-80.7262 -124.917 0.
-102.214 -176.077 0.
-123.702 -227.237 0.
-100.072 -167.849 0.
-34.6676 -18.9868 0.
30.7374 129.875 0.
-502.373 -243.825 0.
-617.757 -513.614 0.
-531.761 -691.21 0.
-30.3038 -292.352 0.
69.2295 -62.9301 0.
-259.873 -59.1475 0.
-264.219 -70.5286 0.
-268.564 -81.9093 0.
25.773 17.829 0.
4.73953 -29.3334 0.
-16.294 -76.4956 0.
-278.016 -144.94 0.
-232.153 -37.9357 0.
-186.291 69.0686 0.
-482.969 23.5033 0.
-441.089 121.898 0.
8.16819 372.488 0.
-40.5961 261.675 0.
-89.36 150.863 0.
249.575 229.607 0.
243.188 211.569 0.
236.801 193.531 0.
-110.693 13.8164 0.
-134.648 -41.2213 0.
-158.603 -96.2591 0.
-21.957 79.673 0.
62.1398 276.405 0.
-44.7126 208.066 0.
404.048 294.959 0.
326.279 114.408 0.
-676.167 -425.198 0.
-683.037 -442.978 0.
-689.908 -460.757 0.
-85.4805 -136.995 0.
1.81034 61.5964 0.
89.1006 260.189 0.
-328.292 201.065 0.
-281.186 314.688 0.
-234.079 428.309 0.
35.825 392.349 0.
-66.0075 163.628 0.
-286.49 -89.6333 0.
-267.221 -45.4598 0.
-247.951 -1.28711 0.
-89.3607 58.4696 0.
-141.413 -59.4657 0.
-193.465 -177.401 0.
170.037 -7.30125 0.
222.924 107.595 0.
275.81 222.491 0.
49.8603 66.9833 0.
-1.46524 -54.9667 0.
-1430.94 -768.645 0.
-350.435 -300.604 0.
-351.579 -298.541 0.
-516.713 -341.297 0.
-457.566 -194.987 0.
-398.419 -48.677 0.
-150.602 54.959 0.
-233.091 -128.687 0.
-315.579 -312.332 0.
537.518 201.038 0.
694.518 564.302 0.
851.519 927.568 0.
291.825 575.006 0.
201.931 360.664 0.
457.257 308.225 0.
436.516 257.765 0.
415.775 207.304 0.
-214.292 -114.825 0.
-240.496 -181.23 0.
-266.7 -247.634 0.
-283.961 -255.22 0.
-263.295 -203.922 0.
-242.63 -152.624 0.
1183.96 404.423 0.
1144.86 312.897 0.
-2826.92 -1462.54 0.
160.119 -36.0546 0.
237.363 143.129 0.
216.292 222.989 0.
156.535 79.735 0.
96.7778 -63.5195 0.
-236.181 -212.073 0.
-161.525 -38.3286 0.
-86.8674 135.416 0.
214.844 300.707 0.
202.355 275.421 0.
189.865 250.134 0.
-75.9037 116.268 0.
-84.6206 99.3867 0.
613.665 380.386 0.
581.34 306.838 0.
549.016 233.289 0.
59.4745 -33.1926 0.
38.1493 -84.4894 0.
16.8244 -135.787 0.
-46.5637 -112.758 0.
18.5321 36.1747 0.
83.6284 185.107 0.
-504.784 -213.065 0.
-620.823 -482.677 0.
-457.597 -627.669 0.
-57.5076 -273.07 0.
41.524 -43.5891 0.
-474.529 -120.156 0.
-478.655 -131.878 0.
-482.781 -143.599 0.
57.8613 63.0336 0.
37.0567 15.9212 0.
16.252 -31.1908 0.
-190.53 -75.8093 0.
-144.95 31.7396 0.
-99.3698 139.289 0.
-539.179 29.9005 0.
-497.573 128.248 0.
-120.522 348.884 0.
-168.884 238.153 0.
-217.246 127.423 0.
228.141 251.143 0.
222.283 233.096 0.
216.426 215.049 0.
-70.1093 63.8258 0.
-93.811 9.10593 0.
-117.512 -45.6141 0.
-44.3953 98.9933 0.
39.8366 297.018 0.
