# vtk DataFile Version 2.0
test grain
ASCII
DATASET UNSTRUCTURED_GRID
POINTS 5000 float
0.499866 0.00100128 0.
0.501866 0.0010013 0.
0.503867 0.00100135 0.
0.505868 0.00100135 0.
0.507868 0.00100115 0.
0.509869 0.00100095 0.
0.51187 0.0010007 0.
0.513871 0.00100039 0.
0.515873 0.00100008 0.
0.517874 0.00100001 0.
0.519874 0.00100007 0.
0.521875 0.00100012 0.
0.523876 0.00100018 0.
0.525876 0.00100026 0.
0.527876 0.00100036 0.
0.529876 0.00100069 0.
0.531876 0.00100102 0.
0.533876 0.00100109 0.
0.535878 0.00100061 0.
0.53788 0.00100012 0.
0.539882 0.00100001 0.
0.541883 0.00100021 0.
0.543884 0.00100041 0.
0.545885 0.00100052 0.
0.547886 0.00100061 0.
0.549887 0.00100069 0.
0.551884 0.00100091 0.
0.553882 0.00100113 0.
0.55588 0.00100124 0.
0.557879 0.00100095 0.
0.559879 0.00100066 0.
0.561878 0.00100066 0.
0.563876 0.00100105 0.
0.565873 0.00100143 0.
0.567871 0.00100119 0.
0.569869 0.0010006 0.
0.571867 0.001 0.
0.573861 0.0010006 0.
0.575855 0.0010014 0.
0.577848 0.00100219 0.
0.57984 0.0010029 0.
0.581831 0.0010036 0.
0.583821 0.00100414 0.
0.585807 0.00100425 0.
0.587793 0.00100435 0.
0.589777 0.0010035 0.
0.591758 0.00100176 0.
0.593738 0.00100002 0.
0.595803 0.00100157 0.
0.597901 0.00100433 0.
0.6 0.00100709 0.
0.602098 0.00100438 0.
0.604196 0.00100167 0.
0.606261 0.00100003 0.
0.608242 0.00100133 0.
0.610224 0.00100263 0.
0.612209 0.00100334 0.
0.614196 0.00100339 0.
0.616184 0.00100344 0.
0.618174 0.00100343 0.
0.620164 0.00100343 0.
0.622155 0.00100343 0.
0.624147 0.00100285 0.
0.626139 0.00100223 0.
0.628132 0.00100161 0.
0.63013 0.00100095 0.
0.632128 0.00100029 0.
0.634127 0.000999987 0.
0.636126 0.00100036 0.
0.638125 0.00100073 0.
0.640124 0.00100095 0.
0.642123 0.00100105 0.
0.644122 0.00100115 0.
0.64612 0.0010014 0.
0.648117 0.0010017 0.
0.650113 0.00100199 0.
0.652113 0.00100139 0.
0.654113 0.0010008 0.
0.656113 0.00100031 0.
0.658114 0.00100017 0.
0.660115 0.00100002 0.
0.662117 0.00100008 0.
0.664119 0.00100039 0.
0.666122 0.0010007 0.
0.668122 0.0010009 0.
0.670123 0.00100106 0.
0.672123 0.00100122 0.
0.674123 0.00100096 0.
0.676123 0.00100066 0.
0.678124 0.00100043 0.
0.680125 0.00100064 0.
0.682125 0.00100085 0.
0.684126 0.00100094 0.
0.686127 0.00100086 0.
0.688127 0.00100077 0.
0.690128 0.00100083 0.
0.692129 0.001001 0.
0.69413 0.00100117 0.
0.69613 0.00100138 0.
0.69813 0.0010016 0.
0.499867 0.00300384 0.
0.501867 0.00300388 0.
0.503867 0.00300403 0.
0.505868 0.00300406 0.
0.507868 0.00300345 0.
0.509869 0.00300284 0.
0.51187 0.00300209 0.
0.513871 0.00300117 0.
0.515872 0.00300024 0.
0.517874 0.00300003 0.
0.519875 0.0030002 0.
0.521877 0.00300037 0.
0.523877 0.00300055 0.
0.525877 0.00300077 0.
0.527877 0.00300108 0.
0.529878 0.00300207 0.
0.531878 0.00300305 0.
0.533878 0.00300327 0.
0.535878 0.00300182 0.
0.537878 0.00300036 0.
0.53988 0.00300002 0.
0.541883 0.00300062 0.
0.543887 0.00300123 0.
0.545887 0.00300157 0.
0.547887 0.00300182 0.
0.549887 0.00300207 0.
0.551885 0.00300271 0.
0.553883 0.00300338 0.
0.555881 0.00300371 0.
0.55788 0.00300285 0.
0.559879 0.00300198 0.
0.561877 0.00300197 0.
0.563876 0.00300314 0.
0.565874 0.0030043 0.
0.567873 0.00300357 0.
0.569871 0.00300179 0.
0.57187 0.00300001 0.
0.573865 0.00300181 0.
0.575859 0.0030042 0.
0.577853 0.00300659 0.
0.579846 0.0030087 0.
0.581838 0.00301082 0.
0.583829 0.00301241 0.
0.585816 0.00301274 0.
0.587803 0.00301306 0.
0.58979 0.00301047 0.
0.591776 0.00300524 0.
0.593763 0.00300003 0.
0.595823 0.00300476 0.
0.597911 0.003013 0.
0.6 0.00302126 0.
0.602089 0.00301314 0.
0.604177 0.00300504 0.
0.606237 0.00300008 0.
0.608224 0.00300397 0.
0.610212 0.00300787 0.
0.6122 0.00301 0.
0.614188 0.00301016 0.
0.616177 0.00301031 0.
0.618168 0.00301031 0.
0.62016 0.0030103 0.
0.622152 0.0030103 0.
0.624145 0.00300856 0.
0.626137 0.00300669 0.
0.62813 0.00300483 0.
0.630128 0.00300284 0.
0.632125 0.00300085 0.
0.634124 0.00299996 0.
0.636124 0.00300108 0.
0.638125 0.00300219 0.
0.640124 0.00300285 0.
0.642123 0.00300315 0.
0.644122 0.00300345 0.
0.646119 0.00300421 0.
0.648116 0.00300511 0.
0.650113 0.00300596 0.
0.652111 0.00300418 0.
0.654109 0.0030024 0.
0.656109 0.00300094 0.
0.658113 0.0030005 0.
0.660118 0.00300005 0.
0.662121 0.00300025 0.
0.664122 0.00300117 0.
0.666123 0.0030021 0.
0.668124 0.00300271 0.
0.670123 0.00300318 0.
0.672123 0.00300366 0.
0.674123 0.00300289 0.
0.676123 0.00300199 0.
0.678124 0.0030013 0.
0.680124 0.00300192 0.
0.682125 0.00300253 0.
0.684126 0.00300283 0.
0.686127 0.00300257 0.
0.688128 0.00300231 0.
0.690129 0.0030025 0.
0.692129 0.003003 0.
0.69413 0.00300351 0.
0.696131 0.00300415 0.
0.698132 0.0030048 0.
0.499867 0.00500639 0.
0.501867 0.00500646 0.
0.503868 0.00500671 0.
0.505868 0.00500677 0.
0.507868 0.00500575 0.
0.509869 0.00500473 0.
0.51187 0.00500349 0.
0.513871 0.00500195 0.
0.515872 0.00500041 0.
0.517874 0.00500004 0.
0.519876 0.00500033 0.
0.521878 0.00500062 0.
0.523879 0.00500093 0.
0.525879 0.00500128 0.
0.527879 0.00500179 0.
0.52988 0.00500344 0.
0.53188 0.00500508 0.
0.53388 0.00500545 0.
0.535878 0.00500303 0.
0.537876 0.00500062 0.
0.539878 0.00500003 0.
0.541883 0.00500104 0.
0.543889 0.00500205 0.
0.54589 0.00500263 0.
0.547889 0.00500303 0.
0.549888 0.00500344 0.
0.551886 0.00500451 0.
0.553884 0.00500562 0.
0.555883 0.00500619 0.
0.557881 0.00500474 0.
0.559879 0.0050033 0.
0.561877 0.00500329 0.
0.563876 0.00500524 0.
0.565875 0.00500719 0.
0.567874 0.00500596 0.
0.569873 0.00500298 0.
0.571873 0.00500001 0.
0.573868 0.00500302 0.
0.575863 0.00500699 0.
0.577857 0.00501098 0.
0.579851 0.0050145 0.
0.581845 0.00501802 0.
0.583838 0.00502064 0.
0.585826 0.00502119 0.
0.587814 0.00502175 0.
0.589804 0.00501738 0.
0.591795 0.00500867 0.
0.593787 0.00499999 0.
0.595842 0.00500797 0.
0.597921 0.00502175 0.
0.6 0.00503568 0.
0.602079 0.00502199 0.
0.604158 0.00500844 0.
0.606214 0.00500009 0.
0.608206 0.00500657 0.
0.610199 0.00501307 0.
0.61219 0.00501665 0.
0.61418 0.0050169 0.
0.616169 0.00501715 0.
0.618162 0.00501717 0.
0.620156 0.00501717 0.
0.62215 0.00501718 0.
0.624142 0.00501426 0.
0.626135 0.00501115 0.
0.628128 0.00500805 0.
0.630125 0.00500473 0.
0.632122 0.00500142 0.
0.634121 0.00499994 0.
0.636122 0.0050018 0.
0.638124 0.00500366 0.
0.640124 0.00500474 0.
0.642123 0.00500524 0.
0.644122 0.00500574 0.
0.646119 0.00500702 0.
0.648115 0.00500852 0.
0.650112 0.00500993 0.
0.652109 0.00500696 0.
0.654105 0.005004 0.
0.656105 0.00500157 0.
0.658112 0.00500083 0.
0.66012 0.00500009 0.
0.662124 0.00500043 0.
0.664125 0.00500196 0.
0.666125 0.0050035 0.
0.668125 0.00500449 0.
0.670124 0.0050053 0.
0.672123 0.0050061 0.
0.674123 0.00500481 0.
0.676123 0.00500331 0.
0.678124 0.00500217 0.
0.680124 0.00500319 0.
0.682125 0.00500422 0.
0.684126 0.00500472 0.
0.686127 0.00500428 0.
0.688129 0.00500383 0.
0.690129 0.00500417 0.
0.69213 0.00500501 0.
0.69413 0.00500586 0.
0.696131 0.00500692 0.
0.698133 0.005008 0.
0.499868 0.00700953 0.
0.501869 0.00700934 0.
0.503869 0.00700918 0.
0.50587 0.00700897 0.
0.50787 0.0070084 0.
0.509871 0.00700784 0.
0.511872 0.00700733 0.
0.513873 0.00700686 0.
0.515874 0.00700639 0.
0.517875 0.00700617 0.
0.519877 0.00700611 0.
0.521878 0.00700606 0.
0.523879 0.00700663 0.
0.525879 0.00700732 0.
0.527879 0.00700801 0.
0.52988 0.00700868 0.
0.531881 0.00700935 0.
0.533881 0.00700996 0.
0.535881 0.00701044 0.
0.53788 0.00701092 0.
0.539881 0.00701068 0.
0.541884 0.00700975 0.
0.543887 0.00700884 0.
0.545888 0.00700873 0.
0.547888 0.00700889 0.
0.549888 0.00700905 0.
0.551887 0.00700979 0.
0.553886 0.00701056 0.
0.555884 0.00701111 0.
0.557883 0.00701083 0.
0.559882 0.00701056 0.
0.561881 0.00701093 0.
0.56388 0.00701225 0.
0.565879 0.00701357 0.
0.567878 0.00701429 0.
0.569877 0.00701467 0.
0.571876 0.00701506 0.
0.573872 0.00701767 0.
0.575868 0.00702066 0.
0.577863 0.00702356 0.
0.579859 0.00702488 0.
0.581854 0.00702621 0.
0.583849 0.00702712 0.
0.585843 0.00702712 0.
0.587837 0.00702713 0.
0.589832 0.00702083 0.
0.591829 0.00700867 0.
0.593826 0.00699656 0.
0.595872 0.0070121 0.
0.597936 0.0070376 0.
0.6 0.0070633 0.
0.602065 0.00703801 0.
0.604129 0.00701292 0.
0.606176 0.00699738 0.
0.608174 0.00700806 0.
0.610172 0.00701878 0.
0.612168 0.00702446 0.
0.614162 0.00702471 0.
0.616156 0.00702495 0.
0.618151 0.00702476 0.
0.620146 0.00702445 0.
0.622141 0.00702415 0.
0.624136 0.00702094 0.
0.626131 0.00701754 0.
0.628126 0.00701465 0.
0.630123 0.00701458 0.
0.632121 0.00701453 0.
0.634119 0.00701414 0.
0.63612 0.00701316 0.
0.63812 0.00701219 0.
0.64012 0.00701223 0.
0.642119 0.00701296 0.
0.644118 0.00701369 0.
0.646116 0.00701394 0.
0.648114 0.00701412 0.
0.650112 0.0070143 0.
0.652111 0.0070139 0.
0.65411 0.0070135 0.
0.65611 0.00701351 0.
0.658114 0.00701468 0.
0.660118 0.00701586 0.
0.66212 0.0070155 0.
0.66412 0.00701344 0.
0.66612 0.00701138 0.
0.668121 0.00701074 0.
0.670121 0.00701072 0.
0.672121 0.0070107 0.
0.674122 0.00700937 0.
0.676123 0.00700795 0.
0.678124 0.00700678 0.
0.680124 0.00700715 0.
0.682125 0.00700753 0.
0.684126 0.00700776 0.
0.686127 0.00700769 0.
0.688128 0.00700762 0.
0.690128 0.00700795 0.
0.692128 0.00700854 0.
0.694129 0.00700912 0.
0.69613 0.00701038 0.
0.698131 0.00701178 0.
0.499869 0.00901256 0.
0.50187 0.00901223 0.
0.503871 0.00901166 0.
0.505872 0.00901116 0.
0.507873 0.00901106 0.
0.509873 0.00901095 0.
0.511874 0.00901117 0.
0.513875 0.00901177 0.
0.515876 0.00901237 0.
0.517877 0.0090123 0.
0.519877 0.0090119 0.
0.521878 0.0090115 0.
0.523878 0.00901234 0.
0.525879 0.00901335 0.
0.52788 0.00901423 0.
0.529881 0.00901392 0.
0.531882 0.00901361 0.
0.533882 0.00901448 0.
0.535883 0.00901785 0.
0.537884 0.00902124 0.
0.539885 0.00902132 0.
0.541885 0.00901847 0.
0.543886 0.00901563 0.
0.545887 0.00901483 0.
0.547887 0.00901475 0.
0.549888 0.00901466 0.
0.551887 0.00901507 0.
0.553887 0.00901549 0.
0.555886 0.00901603 0.
0.557885 0.00901692 0.
0.559885 0.00901781 0.
0.561884 0.00901855 0.
0.563883 0.00901925 0.
0.565883 0.00901996 0.
0.567882 0.00902262 0.
0.569881 0.00902635 0.
0.57188 0.00903009 0.
0.573876 0.00903233 0.
0.575872 0.00903434 0.
0.577869 0.00903613 0.
0.579866 0.00903526 0.
0.581863 0.00903439 0.
0.583861 0.00903359 0.
0.585861 0.00903304 0.
0.58786 0.00903251 0.
0.589861 0.00902418 0.
0.591863 0.00900857 0.
0.593864 0.00899301 0.
0.595902 0.00901647 0.
0.597951 0.00905356 0.
0.6 0.00909092 0.
0.602051 0.00905413 0.
0.604101 0.00901762 0.
0.606139 0.00899455 0.
0.608142 0.00900946 0.
0.610145 0.00902441 0.
0.612145 0.00903228 0.
0.614143 0.00903252 0.
0.616142 0.00903275 0.
0.618139 0.00903234 0.
0.620136 0.00903172 0.
0.622133 0.0090311 0.
0.62413 0.00902763 0.
0.626127 0.00902394 0.
0.628124 0.00902125 0.
0.630122 0.00902443 0.
0.632119 0.00902763 0.
0.634118 0.00902833 0.
0.636117 0.00902452 0.
0.638116 0.00902072 0.
0.640115 0.00901972 0.
0.642114 0.00902068 0.
0.644114 0.00902163 0.
0.646113 0.00902087 0.
0.648112 0.00901974 0.
0.650112 0.00901866 0.
0.652113 0.00902083 0.
0.654114 0.009023 0.
0.656115 0.00902545 0.
0.658115 0.00902854 0.
0.660115 0.00903163 0.
0.662115 0.0090306 0.
0.664116 0.00902493 0.
0.666116 0.00901928 0.
0.668117 0.00901699 0.
0.670118 0.00901614 0.
0.672119 0.00901528 0.
0.67412 0.00901394 0.
0.676122 0.00901259 0.
0.678123 0.00901138 0.
0.680124 0.0090111 0.
0.682125 0.00901084 0.
0.684126 0.0090108 0.
0.686126 0.00901111 0.
0.688127 0.00901141 0.
0.690127 0.00901173 0.
0.692127 0.00901206 0.
0.694127 0.00901239 0.
0.696128 0.00901385 0.
0.698129 0.00901558 0.
0.49987 0.0110154 0.
0.501871 0.0110148 0.
0.503872 0.0110139 0.
0.505873 0.0110131 0.
0.507874 0.0110131 0.
0.509875 0.0110132 0.
0.511876 0.0110136 0.
0.513877 0.0110147 0.
0.515878 0.0110157 0.
0.517878 0.0110157 0.
0.519878 0.0110152 0.
0.521878 0.0110146 0.
0.523879 0.0110155 0.
0.52588 0.0110165 0.
0.527881 0.0110174 0.
0.529882 0.0110168 0.
0.531883 0.0110161 0.
0.533884 0.0110169 0.
0.535885 0.0110212 0.
0.537887 0.0110255 0.
0.539887 0.0110257 0.
0.541887 0.0110224 0.
0.543887 0.0110191 0.
0.545888 0.011018 0.
0.547889 0.0110177 0.
0.549889 0.0110174 0.
0.551889 0.0110178 0.
0.553889 0.0110182 0.
0.555889 0.0110188 0.
0.557889 0.0110201 0.
0.559889 0.0110214 0.
0.561888 0.0110223 0.
0.563888 0.011023 0.
0.565888 0.0110237 0.
0.567887 0.0110269 0.
0.569886 0.0110315 0.
0.571886 0.0110361 0.
0.573884 0.0110383 0.
0.575881 0.0110402 0.
0.577879 0.0110417 0.
0.579878 0.0110395 0.
0.581878 0.0110373 0.
0.583878 0.0110353 0.
0.585881 0.0110337 0.
0.587884 0.0110321 0.
0.589889 0.0110234 0.
0.591894 0.0110083 0.
0.593899 0.0109932 0.
0.595928 0.0110158 0.
0.597965 0.0110508 0.
0.600002 0.0110854 0.
0.602039 0.0110513 0.
0.604077 0.0110169 0.
0.606106 0.0109947 0.
0.608112 0.0110095 0.
0.610118 0.0110242 0.
0.612122 0.0110325 0.
0.614123 0.0110338 0.
0.616125 0.0110351 0.
0.618124 0.0110352 0.
0.620123 0.0110348 0.
0.622122 0.0110345 0.
0.62412 0.0110309 0.
0.626119 0.0110271 0.
0.628117 0.0110244 0.
0.630116 0.0110289 0.
0.632115 0.0110333 0.
0.634114 0.0110345 0.
0.636113 0.01103 0.
0.638112 0.0110254 0.
0.640111 0.0110241 0.
0.642111 0.0110249 0.
0.64411 0.0110258 0.
0.64611 0.0110246 0.
0.64811 0.0110229 0.
0.65011 0.0110212 0.
0.652112 0.0110244 0.
0.654114 0.0110275 0.
0.656115 0.0110308 0.
0.658114 0.0110343 0.
0.660114 0.0110378 0.
0.662113 0.0110365 0.
0.664114 0.0110299 0.
0.666114 0.0110233 0.
0.668115 0.0110204 0.
0.670116 0.0110191 0.
0.672117 0.0110178 0.
0.674119 0.0110165 0.
0.676121 0.0110153 0.
0.678123 0.0110141 0.
0.680123 0.0110136 0.
0.682124 0.0110131 0.
0.684125 0.011013 0.
0.686125 0.0110135 0.
0.688125 0.011014 0.
0.690126 0.0110144 0.
0.692126 0.0110148 0.
0.694126 0.0110151 0.
0.696126 0.0110165 0.
0.698127 0.0110182 0.
0.499872 0.0130182 0.
0.501873 0.0130171 0.
0.503873 0.0130159 0.
0.505873 0.0130148 0.
0.507875 0.0130146 0.
0.509876 0.0130144 0.
0.511877 0.0130147 0.
0.513877 0.0130156 0.
0.515878 0.0130165 0.
0.517879 0.0130164 0.
0.51988 0.0130159 0.
0.52188 0.0130154 0.
0.523881 0.0130161 0.
0.525882 0.0130169 0.
0.527883 0.0130177 0.
0.529884 0.0130172 0.
0.531884 0.0130167 0.
0.533885 0.0130173 0.
0.535887 0.0130206 0.
0.537888 0.0130238 0.
0.539889 0.0130241 0.
0.54189 0.0130217 0.
0.543891 0.0130192 0.
0.545891 0.0130182 0.
0.547892 0.0130176 0.
0.549892 0.0130171 0.
0.551892 0.0130179 0.
0.553892 0.0130187 0.
0.555893 0.0130195 0.
0.557893 0.0130204 0.
0.559893 0.0130213 0.
0.561894 0.0130223 0.
0.563894 0.0130235 0.
0.565894 0.0130247 0.
0.567893 0.0130271 0.
0.569893 0.0130303 0.
0.571893 0.0130334 0.
0.573894 0.0130359 0.
0.575894 0.0130384 0.
0.577894 0.0130404 0.
0.579896 0.0130378 0.
0.581897 0.0130351 0.
0.5839 0.0130323 0.
0.585904 0.0130291 0.
0.587909 0.0130259 0.
0.589915 0.0130187 0.
0.591922 0.0130079 0.
0.593929 0.0129971 0.
0.595951 0.01301 0.
0.597978 0.0130304 0.
0.600005 0.0130505 0.
0.602031 0.0130307 0.
0.604056 0.0130107 0.
0.606078 0.0129979 0.
0.608085 0.0130081 0.
0.610092 0.0130183 0.
0.612097 0.0130253 0.
0.614101 0.0130287 0.
0.616105 0.0130322 0.
0.618107 0.0130335 0.
0.620107 0.0130339 0.
0.622108 0.0130343 0.
0.624108 0.0130308 0.
0.626108 0.013027 0.
0.628108 0.0130242 0.
0.630108 0.013028 0.
0.632108 0.0130318 0.
0.634108 0.013033 0.
0.636108 0.0130297 0.
0.638108 0.0130264 0.
0.640107 0.0130253 0.
0.642107 0.0130257 0.
0.644107 0.0130262 0.
0.646107 0.013025 0.
0.648107 0.0130235 0.
0.650107 0.0130221 0.
0.652109 0.0130246 0.
0.65411 0.0130272 0.
0.656111 0.0130298 0.
0.658112 0.0130322 0.
0.660113 0.0130346 0.
0.662113 0.0130335 0.
0.664114 0.0130285 0.
0.666115 0.0130234 0.
0.668115 0.013021 0.
0.670116 0.0130195 0.
0.672117 0.0130181 0.
0.674118 0.013017 0.
0.67612 0.0130159 0.
0.678121 0.013015 0.
0.680122 0.0130146 0.
0.682122 0.0130142 0.
0.684123 0.0130142 0.
0.686124 0.0130148 0.
0.688124 0.0130154 0.
0.690124 0.013016 0.
0.692124 0.0130166 0.
0.694124 0.0130172 0.
0.696125 0.0130183 0.
0.698125 0.0130195 0.
0.499874 0.0150211 0.
0.501874 0.0150194 0.
0.503874 0.0150179 0.
0.505874 0.0150165 0.
0.507875 0.0150161 0.
0.509876 0.0150157 0.
0.511877 0.0150157 0.
0.513878 0.0150165 0.
0.515879 0.0150172 0.
0.51788 0.0150171 0.
0.519881 0.0150167 0.
0.521882 0.0150162 0.
0.523883 0.0150167 0.
0.525884 0.0150173 0.
0.527885 0.0150179 0.
0.529885 0.0150176 0.
0.531886 0.0150173 0.
0.533887 0.0150177 0.
0.535889 0.0150199 0.
0.53789 0.0150222 0.
0.539891 0.0150225 0.
0.541893 0.0150209 0.
0.543895 0.0150193 0.
0.545895 0.0150184 0.
0.547895 0.0150176 0.
0.549895 0.0150169 0.
0.551896 0.015018 0.
0.553896 0.0150192 0.
0.555896 0.0150202 0.
0.557897 0.0150207 0.
0.559898 0.0150212 0.
0.561899 0.0150222 0.
0.563899 0.0150239 0.
0.565899 0.0150257 0.
0.5679 0.0150274 0.
0.569901 0.015029 0.
0.571901 0.0150307 0.
0.573903 0.0150335 0.
0.575906 0.0150365 0.
0.577908 0.015039 0.
0.579913 0.015036 0.
0.581917 0.0150329 0.
0.583922 0.0150294 0.
0.585927 0.0150246 0.
0.587933 0.0150198 0.
0.589941 0.0150141 0.
0.59195 0.0150075 0.
0.593958 0.015001 0.
0.595974 0.015004 0.
0.597991 0.01501 0.
0.600008 0.015016 0.
0.602022 0.0150102 0.
0.604036 0.0150044 0.
0.606049 0.0150012 0.
0.608057 0.0150069 0.
0.610066 0.0150126 0.
0.612073 0.0150181 0.
0.614079 0.0150236 0.
0.616085 0.0150292 0.
0.618089 0.0150317 0.
0.620091 0.0150329 0.
0.622094 0.0150341 0.
0.624095 0.0150307 0.
0.626096 0.0150268 0.
0.628098 0.015024 0.
0.630099 0.0150271 0.
0.6321 0.0150303 0.
0.634102 0.0150315 0.
0.636103 0.0150294 0.
0.638104 0.0150272 0.
0.640104 0.0150264 0.
0.642104 0.0150265 0.
0.644103 0.0150266 0.
0.646103 0.0150255 0.
0.648104 0.0150242 0.
0.650104 0.0150229 0.
0.652105 0.0150249 0.
0.654106 0.0150269 0.
0.656107 0.0150287 0.
0.658109 0.0150301 0.
0.660111 0.0150315 0.
0.662113 0.0150306 0.
0.664114 0.0150271 0.
0.666115 0.0150236 0.
0.668116 0.0150215 0.
0.670116 0.01502 0.
0.672116 0.0150185 0.
0.674117 0.0150175 0.
0.676118 0.0150166 0.
0.678119 0.0150158 0.
0.68012 0.0150156 0.
0.682121 0.0150154 0.
0.684121 0.0150155 0.
0.686122 0.0150161 0.
0.688123 0.0150168 0.
0.690123 0.0150176 0.
0.692123 0.0150185 0.
0.694123 0.0150194 0.
0.696123 0.0150201 0.
0.698123 0.0150209 0.
0.499875 0.0170233 0.
0.501875 0.0170214 0.
0.503875 0.0170197 0.
0.505876 0.0170182 0.
0.507877 0.0170176 0.
0.509878 0.017017 0.
0.511879 0.0170168 0.
0.513879 0.0170172 0.
0.51588 0.0170176 0.
0.517882 0.0170174 0.
0.519883 0.017017 0.
0.521884 0.0170166 0.
0.523885 0.0170172 0.
0.525886 0.017018 0.
0.527887 0.0170187 0.
0.529888 0.0170185 0.
0.531888 0.0170184 0.
0.533889 0.0170186 0.
0.53589 0.01702 0.
0.537892 0.0170214 0.
0.539893 0.0170214 0.
0.541895 0.0170203 0.
0.543896 0.0170192 0.
0.545897 0.0170185 0.
0.547898 0.0170178 0.
0.549898 0.0170172 0.
0.551898 0.0170184 0.
0.553899 0.0170197 0.
0.555899 0.0170208 0.
0.5579 0.0170214 0.
0.559901 0.017022 0.
0.561902 0.0170229 0.
0.563903 0.017024 0.
0.565903 0.0170251 0.
0.567904 0.0170267 0.
0.569906 0.0170287 0.
0.571907 0.0170306 0.
0.57391 0.0170326 0.
0.575913 0.0170345 0.
0.577916 0.017036 0.
0.579921 0.0170331 0.
0.581926 0.0170301 0.
0.583931 0.0170265 0.
0.585937 0.0170213 0.
0.587943 0.0170162 0.
0.58995 0.0170107 0.
0.591958 0.0170051 0.
0.593965 0.0169994 0.
0.595978 0.0170012 0.
0.597992 0.0170053 0.
0.600006 0.0170093 0.
0.602019 0.0170056 0.
0.604031 0.0170018 0.
0.606042 0.0170001 0.
0.60805 0.0170052 0.
0.610057 0.0170104 0.
0.612063 0.0170155 0.
0.61407 0.0170207 0.
0.616076 0.0170259 0.
0.61808 0.0170286 0.
0.620083 0.0170303 0.
0.622086 0.0170319 0.
0.624089 0.0170292 0.
0.62609 0.017026 0.
0.628092 0.0170237 0.
0.630094 0.0170262 0.
0.632095 0.0170286 0.
0.634097 0.0170297 0.
0.636098 0.0170284 0.
0.638099 0.0170271 0.
0.6401 0.0170266 0.
0.6421 0.0170267 0.
0.6441 0.0170268 0.
0.646101 0.0170259 0.
0.648101 0.0170247 0.
0.650102 0.0170237 0.
0.652103 0.0170251 0.
0.654104 0.0170266 0.
0.656105 0.0170279 0.
0.658107 0.0170288 0.
0.660109 0.0170298 0.
0.662111 0.0170291 0.
0.664112 0.0170266 0.
0.666113 0.0170242 0.
0.668114 0.0170227 0.
0.670114 0.0170217 0.
0.672115 0.0170206 0.
0.674116 0.0170191 0.
0.676117 0.0170175 0.
0.678117 0.0170162 0.
0.680118 0.0170163 0.
0.682119 0.0170164 0.
0.684119 0.0170166 0.
0.68612 0.0170172 0.
0.688121 0.0170177 0.
0.690121 0.0170185 0.
0.692122 0.0170195 0.
0.694122 0.0170206 0.
0.696122 0.0170214 0.
0.698122 0.0170223 0.
0.499876 0.0190256 0.
0.501876 0.0190233 0.
0.503877 0.0190215 0.
0.505878 0.0190198 0.
0.507878 0.0190191 0.
0.509879 0.0190184 0.
0.51188 0.0190179 0.
0.513881 0.019018 0.
0.515882 0.019018 0.
0.517883 0.0190177 0.
0.519885 0.0190174 0.
0.521886 0.019017 0.
0.523887 0.0190177 0.
0.525888 0.0190187 0.
0.527889 0.0190195 0.
0.52989 0.0190195 0.
0.531891 0.0190194 0.
0.533891 0.0190195 0.
0.535892 0.01902 0.
0.537893 0.0190205 0.
0.539895 0.0190204 0.
0.541896 0.0190197 0.
0.543898 0.0190191 0.
0.545899 0.0190185 0.
0.5479 0.019018 0.
0.549901 0.0190175 0.
0.551901 0.0190188 0.
0.553902 0.0190201 0.
0.555902 0.0190213 0.
0.557903 0.0190221 0.
0.559904 0.0190229 0.
0.561905 0.0190236 0.
0.563906 0.0190241 0.
0.565907 0.0190246 0.
0.567909 0.0190261 0.
0.569911 0.0190283 0.
0.571913 0.0190305 0.
0.573916 0.0190316 0.
0.57592 0.0190325 0.
0.577924 0.019033 0.
0.579929 0.0190302 0.
0.581934 0.0190273 0.
0.58394 0.0190236 0.
0.585946 0.0190181 0.
0.587953 0.0190125 0.
0.589959 0.0190074 0.
0.591966 0.0190026 0.
0.593973 0.0189978 0.
0.595982 0.0189984 0.
0.597993 0.0190005 0.
0.600004 0.0190027 0.
0.602015 0.019001 0.
0.604026 0.0189992 0.
0.606036 0.0189989 0.
0.608042 0.0190036 0.
0.610048 0.0190082 0.
0.612054 0.0190129 0.
0.61406 0.0190177 0.
0.616066 0.0190225 0.
0.618071 0.0190255 0.
0.620075 0.0190276 0.
0.622079 0.0190298 0.
0.624082 0.0190277 0.
0.626084 0.0190252 0.
0.628087 0.0190234 0.
0.630088 0.0190252 0.
0.63209 0.019027 0.
0.634091 0.019028 0.
0.636093 0.0190274 0.
0.638094 0.0190269 0.
0.640096 0.0190267 0.
0.642097 0.0190268 0.
0.644098 0.0190269 0.
0.646098 0.0190262 0.
0.648099 0.0190253 0.
0.6501 0.0190245 0.
0.652101 0.0190254 0.
0.654102 0.0190263 0.
0.656103 0.0190271 0.
0.658105 0.0190276 0.
0.660107 0.0190281 0.
0.662108 0.0190277 0.
0.66411 0.0190262 0.
0.666111 0.0190248 0.
0.668112 0.0190239 0.
0.670113 0.0190233 0.
0.672113 0.0190228 0.
0.674114 0.0190206 0.
0.676115 0.0190184 0.
0.678115 0.0190165 0.
0.680116 0.0190169 0.
0.682117 0.0190174 0.
0.684117 0.0190177 0.
0.686118 0.0190182 0.
0.688119 0.0190186 0.
0.69012 0.0190194 0.
0.69212 0.0190206 0.
0.694121 0.0190218 0.
0.696121 0.0190228 0.
0.698121 0.0190237 0.
0.499878 0.0210275 0.
0.501879 0.021025 0.
0.503879 0.021023 0.
0.50588 0.0210212 0.
0.507881 0.0210203 0.
0.509881 0.0210195 0.
0.511882 0.0210189 0.
0.513883 0.0210186 0.
0.515884 0.0210183 0.
0.517885 0.0210179 0.
0.519887 0.0210175 0.
0.521888 0.0210172 0.
0.523889 0.0210179 0.
0.52589 0.0210188 0.
0.527891 0.0210197 0.
0.529892 0.0210197 0.
0.531893 0.0210196 0.
0.533894 0.0210196 0.
0.535895 0.0210196 0.
0.537896 0.0210197 0.
0.539897 0.0210195 0.
0.541899 0.0210189 0.
0.543901 0.0210184 0.
0.545902 0.0210181 0.
0.547903 0.0210179 0.
0.549904 0.0210176 0.
0.551905 0.0210189 0.
0.553906 0.0210201 0.
0.555907 0.0210213 0.
0.557908 0.0210221 0.
0.559908 0.0210229 0.
0.56191 0.0210234 0.
0.563911 0.0210233 0.
0.565913 0.0210233 0.
0.567915 0.0210246 0.
0.569917 0.0210266 0.
0.571919 0.0210287 0.
0.573923 0.0210291 0.
0.575927 0.0210294 0.
0.577932 0.0210293 0.
0.579937 0.0210264 0.
0.581942 0.0210235 0.
0.583947 0.0210198 0.
0.585954 0.0210145 0.
0.58796 0.0210093 0.
0.589966 0.0210046 0.
0.591972 0.0210005 0.
0.593977 0.0209963 0.
0.595986 0.0209961 0.
0.597995 0.020997 0.
0.600004 0.020998 0.
0.602013 0.0209975 0.
0.604022 0.020997 0.
0.60603 0.0209976 0.
0.608036 0.0210017 0.
0.610041 0.0210058 0.
0.612047 0.02101 0.
0.614052 0.0210143 0.
0.616058 0.0210187 0.
0.618063 0.0210218 0.
0.620067 0.0210244 0.
0.622072 0.0210269 0.
0.624075 0.0210255 0.
0.626078 0.0210236 0.
0.628081 0.0210223 0.
0.630082 0.0210238 0.
0.632084 0.0210254 0.
0.634086 0.0210263 0.
0.636088 0.0210262 0.
0.63809 0.0210261 0.
0.640091 0.0210261 0.
0.642093 0.0210263 0.
0.644094 0.0210264 0.
0.646095 0.0210259 0.
0.648096 0.0210252 0.
0.650097 0.0210245 0.
0.652098 0.021025 0.
0.654099 0.0210255 0.
0.6561 0.021026 0.
0.658102 0.0210261 0.
0.660104 0.0210262 0.
0.662105 0.021026 0.
0.664107 0.0210254 0.
0.666108 0.0210248 0.
0.668109 0.0210244 0.
0.67011 0.0210241 0.
0.672111 0.0210239 0.
0.674112 0.0210216 0.
0.676113 0.0210192 0.
0.678114 0.0210172 0.
0.680114 0.0210177 0.
0.682115 0.0210182 0.
0.684115 0.0210187 0.
0.686116 0.0210193 0.
0.688117 0.0210199 0.
0.690118 0.0210208 0.
0.692118 0.0210219 0.
0.694119 0.021023 0.
0.696119 0.0210242 0.
0.698119 0.0210255 0.
0.499881 0.0230288 0.
0.501882 0.0230264 0.
0.503882 0.0230242 0.
0.505883 0.0230222 0.
0.507884 0.0230213 0.
0.509884 0.0230204 0.
0.511885 0.0230196 0.
0.513886 0.023019 0.
0.515887 0.0230185 0.
0.517888 0.023018 0.
0.519889 0.0230176 0.
0.52189 0.0230171 0.
0.523892 0.0230177 0.
0.525893 0.0230185 0.
0.527894 0.0230192 0.
0.529895 0.0230191 0.
0.531896 0.023019 0.
0.533897 0.0230189 0.
0.535898 0.0230189 0.
0.537899 0.0230188 0.
0.5399 0.0230185 0.
0.541902 0.0230179 0.
0.543903 0.0230173 0.
0.545905 0.0230173 0.
0.547906 0.0230174 0.
0.549907 0.0230174 0.
0.551908 0.0230186 0.
0.55391 0.0230197 0.
0.555912 0.0230208 0.
0.557913 0.0230214 0.
0.559914 0.0230221 0.
0.561915 0.0230223 0.
0.563917 0.0230219 0.
0.565919 0.0230214 0.
0.567921 0.0230221 0.
0.569924 0.0230236 0.
0.571926 0.023025 0.
0.57393 0.0230252 0.
0.575935 0.0230252 0.
0.577939 0.023025 0.
0.579944 0.0230218 0.
0.581948 0.0230186 0.
0.583953 0.023015 0.
0.585959 0.0230107 0.
0.587964 0.0230064 0.
0.58997 0.0230024 0.
0.591975 0.0229986 0.
0.59398 0.0229949 0.
0.595988 0.0229943 0.
0.597996 0.0229947 0.
0.600004 0.0229951 0.
0.602011 0.0229951 0.
0.604019 0.0229952 0.
0.606026 0.0229961 0.
0.608031 0.0229996 0.
0.610036 0.0230031 0.
0.612041 0.0230068 0.
0.614046 0.0230105 0.
0.616051 0.0230143 0.
0.618055 0.0230175 0.
0.62006 0.0230205 0.
0.622064 0.0230234 0.
0.624068 0.0230225 0.
0.626071 0.0230213 0.
0.628075 0.0230204 0.
0.630076 0.0230221 0.
0.632078 0.0230238 0.
0.63408 0.0230248 0.
0.636082 0.0230248 0.
0.638085 0.0230247 0.
0.640087 0.0230248 0.
0.642088 0.023025 0.
0.64409 0.0230252 0.
0.646091 0.0230248 0.
0.648092 0.0230242 0.
0.650093 0.0230237 0.
0.652094 0.023024 0.
0.654096 0.0230244 0.
0.656097 0.0230246 0.
0.658099 0.0230244 0.
0.6601 0.0230242 0.
0.662101 0.0230241 0.
0.664103 0.0230241 0.
0.666104 0.0230242 0.
0.668106 0.0230242 0.
0.670107 0.0230241 0.
0.672109 0.023024 0.
0.67411 0.023022 0.
0.676111 0.0230198 0.
0.678112 0.023018 0.
0.680112 0.0230184 0.
0.682113 0.0230188 0.
0.684113 0.0230195 0.
0.686114 0.0230205 0.
0.688115 0.0230216 0.
0.690115 0.0230226 0.
0.692116 0.0230234 0.
0.694116 0.0230243 0.
0.696117 0.0230259 0.
0.698117 0.0230276 0.
0.499884 0.0250301 0.
0.501885 0.0250278 0.
0.503886 0.0250254 0.
0.505886 0.0250233 0.
0.507887 0.0250223 0.
0.509887 0.0250212 0.
0.511887 0.0250203 0.
0.513888 0.0250195 0.
0.515889 0.0250187 0.
0.51789 0.0250181 0.
0.519891 0.0250176 0.
0.521893 0.0250171 0.
0.523894 0.0250175 0.
0.525895 0.0250182 0.
0.527896 0.0250187 0.
0.529898 0.0250186 0.
0.531899 0.0250184 0.
0.5339 0.0250183 0.
0.535901 0.0250181 0.
0.537902 0.025018 0.
0.539904 0.0250176 0.
0.541905 0.0250169 0.
0.543906 0.0250163 0.
0.545907 0.0250164 0.
0.547909 0.0250168 0.
0.54991 0.0250173 0.
0.551912 0.0250183 0.
0.553915 0.0250193 0.
0.555917 0.0250202 0.
0.557918 0.0250208 0.
0.55992 0.0250213 0.
0.561921 0.0250212 0.
0.563923 0.0250204 0.
0.565925 0.0250195 0.
0.567928 0.0250197 0.
0.569931 0.0250206 0.
0.571934 0.0250214 0.
0.573938 0.0250213 0.
0.575942 0.0250211 0.
0.577947 0.0250206 0.
0.579951 0.0250172 0.
0.581954 0.0250137 0.
0.583959 0.0250102 0.
0.585964 0.0250069 0.
0.587969 0.0250035 0.
0.589973 0.0250002 0.
0.591978 0.0249968 0.
0.593983 0.0249935 0.
0.59599 0.0249926 0.
0.597997 0.0249923 0.
0.600004 0.0249921 0.
0.60201 0.0249928 0.
0.604015 0.0249934 0.
0.606021 0.0249946 0.
0.608026 0.0249975 0.
0.610031 0.0250005 0.
0.612036 0.0250035 0.
0.61404 0.0250068 0.
0.616044 0.02501 0.
0.618048 0.0250133 0.
0.620052 0.0250166 0.
0.622056 0.0250199 0.
0.62406 0.0250196 0.
0.626064 0.0250189 0.
0.628068 0.0250186 0.
0.63007 0.0250204 0.
0.632072 0.0250222 0.
0.634074 0.0250233 0.
0.636077 0.0250233 0.
0.63808 0.0250233 0.
0.640082 0.0250235 0.
0.642084 0.0250237 0.
0.644085 0.025024 0.
0.646087 0.0250238 0.
0.648088 0.0250233 0.
0.650089 0.0250229 0.
0.652091 0.0250231 0.
0.654093 0.0250233 0.
0.656094 0.0250232 0.
0.658095 0.0250227 0.
0.660096 0.0250221 0.
0.662098 0.0250222 0.
0.664099 0.0250229 0.
0.666101 0.0250236 0.
0.668102 0.0250239 0.
0.670104 0.025024 0.
0.672106 0.0250241 0.
0.674107 0.0250224 0.
0.676109 0.0250205 0.
0.67811 0.0250189 0.
0.680111 0.0250192 0.
0.682111 0.0250194 0.
0.684111 0.0250202 0.
0.686112 0.0250218 0.
0.688112 0.0250234 0.
0.690113 0.0250243 0.
0.692114 0.0250249 0.
0.694114 0.0250256 0.
0.696114 0.0250275 0.
0.698114 0.0250297 0.
0.499887 0.027031 0.
0.501887 0.027029 0.
0.503888 0.027027 0.
0.505888 0.027025 0.
0.507889 0.0270233 0.
0.50989 0.0270217 0.
0.51189 0.0270204 0.
0.513891 0.0270195 0.
0.515892 0.0270186 0.
0.517893 0.0270179 0.
0.519894 0.0270173 0.
0.521895 0.0270168 0.
0.523896 0.0270172 0.
0.525898 0.0270177 0.
0.527899 0.0270182 0.
0.5299 0.0270181 0.
0.531902 0.0270179 0.
0.533903 0.0270177 0.
0.535904 0.0270174 0.
0.537905 0.027017 0.
0.539907 0.0270166 0.
0.541908 0.0270161 0.
0.543909 0.0270155 0.
0.545911 0.0270155 0.
0.547912 0.0270156 0.
0.549913 0.0270158 0.
0.551915 0.0270169 0.
0.553918 0.0270181 0.
0.55592 0.0270191 0.
0.557921 0.0270194 0.
0.559923 0.0270197 0.
0.561925 0.0270197 0.
0.563927 0.0270191 0.
0.565929 0.0270185 0.
0.567931 0.0270182 0.
0.569934 0.0270182 0.
0.571937 0.0270182 0.
0.573942 0.0270182 0.
0.575947 0.0270181 0.
0.577951 0.0270177 0.
0.579955 0.0270144 0.
0.581959 0.0270112 0.
0.583963 0.0270078 0.
0.585968 0.0270044 0.
0.587972 0.027001 0.
0.589977 0.0269981 0.
0.591981 0.0269955 0.
0.593985 0.0269929 0.
0.595991 0.0269917 0.
0.597997 0.0269909 0.
0.600003 0.0269901 0.
0.602008 0.0269909 0.
0.604014 0.0269917 0.
0.606019 0.026993 0.
0.608024 0.0269957 0.
0.610028 0.0269985 0.
0.612032 0.0270014 0.
0.614036 0.0270045 0.
0.61604 0.0270076 0.
0.618044 0.0270107 0.
0.620048 0.0270136 0.
0.622052 0.0270166 0.
0.624056 0.0270169 0.
0.62606 0.0270168 0.
0.628064 0.027017 0.
0.630066 0.0270185 0.
0.632069 0.02702 0.
0.634071 0.0270212 0.
0.636074 0.0270217 0.
0.638076 0.0270223 0.
0.640078 0.0270225 0.
0.64208 0.0270225 0.
0.644082 0.0270225 0.
0.646083 0.0270224 0.
0.648085 0.0270222 0.
0.650086 0.027022 0.
0.652088 0.0270219 0.
0.65409 0.0270218 0.
0.656091 0.0270218 0.
0.658093 0.0270219 0.
0.660094 0.027022 0.
0.662096 0.0270222 0.
0.664097 0.0270226 0.
0.666099 0.027023 0.
0.6681 0.0270232 0.
0.670102 0.0270232 0.
0.672104 0.0270232 0.
0.674105 0.027022 0.
0.676107 0.0270207 0.
0.678108 0.0270196 0.
0.680109 0.02702 0.
0.682109 0.0270205 0.
0.684109 0.0270213 0.
0.68611 0.0270226 0.
0.68811 0.0270239 0.
0.690111 0.0270252 0.
0.692111 0.0270264 0.
0.694112 0.0270277 0.
0.696112 0.0270297 0.
0.698112 0.0270319 0.
0.499889 0.029032 0.
0.501889 0.0290303 0.
0.50389 0.0290285 0.
0.50589 0.0290267 0.
0.507891 0.0290244 0.
0.509892 0.0290221 0.
0.511893 0.0290204 0.
0.513894 0.0290194 0.
0.515895 0.0290185 0.
0.517896 0.0290177 0.
0.519896 0.0290171 0.
0.521897 0.0290164 0.
0.523899 0.0290168 0.
0.5259 0.0290173 0.
0.527902 0.0290177 0.
0.529903 0.0290176 0.
0.531904 0.0290174 0.
0.533906 0.0290171 0.
0.535907 0.0290166 0.
0.537908 0.0290161 0.
0.539909 0.0290156 0.
0.541911 0.0290152 0.
0.543913 0.0290148 0.
0.545914 0.0290146 0.
0.547915 0.0290144 0.
0.549916 0.0290143 0.
0.551918 0.0290155 0.
0.553921 0.0290168 0.
0.555923 0.0290179 0.
0.557925 0.0290181 0.
0.559927 0.0290182 0.
0.561929 0.0290182 0.
0.56393 0.0290178 0.
0.565932 0.0290174 0.
0.567935 0.0290168 0.
0.569938 0.0290159 0.
0.571941 0.0290151 0.
0.573946 0.029015 0.
0.575951 0.029015 0.
0.577955 0.0290148 0.
0.579959 0.0290117 0.
0.581963 0.0290086 0.
0.583968 0.0290054 0.
0.585972 0.029002 0.
0.587976 0.0289985 0.
0.58998 0.028996 0.
0.591983 0.0289941 0.
0.593987 0.0289923 0.
0.595991 0.0289908 0.
0.597996 0.0289895 0.
0.600001 0.0289881 0.
0.602007 0.0289891 0.
0.604013 0.0289901 0.
0.606018 0.0289914 0.
0.608022 0.028994 0.
0.610025 0.0289966 0.
0.612029 0.0289993 0.
0.614032 0.0290023 0.
0.616036 0.0290052 0.
0.61804 0.029008 0.
0.620044 0.0290107 0.
0.622048 0.0290134 0.
0.624052 0.0290142 0.
0.626056 0.0290147 0.
0.62806 0.0290154 0.
0.630063 0.0290166 0.
0.632066 0.0290178 0.
0.634068 0.029019 0.
0.63607 0.0290201 0.
0.638072 0.0290212 0.
0.640074 0.0290215 0.
0.642076 0.0290213 0.
0.644079 0.029021 0.
0.64608 0.029021 0.
0.648082 0.0290211 0.
0.650084 0.0290211 0.
0.652085 0.0290208 0.
0.654087 0.0290204 0.
0.656089 0.0290204 0.
0.65809 0.0290211 0.
0.660092 0.0290218 0.
0.662094 0.0290222 0.
0.664095 0.0290223 0.
0.666097 0.0290224 0.
0.668098 0.0290224 0.
0.6701 0.0290223 0.
0.672101 0.0290223 0.
0.674103 0.0290216 0.
0.676104 0.0290209 0.
0.678106 0.0290203 0.
0.680106 0.0290209 0.
0.682107 0.0290215 0.
0.684108 0.0290223 0.
0.686108 0.0290234 0.
0.688108 0.0290245 0.
0.690109 0.029026 0.
0.692109 0.029028 0.
0.69411 0.0290299 0.
0.69611 0.0290319 0.
0.698111 0.029034 0.
0.499892 0.0310333 0.
0.501892 0.0310315 0.
0.503893 0.0310297 0.
0.505893 0.0310278 0.
0.507894 0.0310253 0.
0.509895 0.0310229 0.
0.511896 0.0310209 0.
0.513897 0.0310196 0.
0.515898 0.0310184 0.
0.517899 0.0310176 0.
0.519899 0.031017 0.
0.5219 0.0310165 0.
0.523902 0.0310166 0.
0.525903 0.0310169 0.
0.527904 0.0310171 0.
0.529906 0.0310167 0.
0.531907 0.0310164 0.
0.533909 0.031016 0.
0.53591 0.0310156 0.
0.537911 0.0310152 0.
0.539913 0.0310148 0.
0.541914 0.0310144 0.
0.543916 0.0310139 0.
0.545917 0.0310135 0.
0.547918 0.0310132 0.
0.54992 0.0310129 0.
0.551922 0.0310141 0.
0.553924 0.0310154 0.
0.555926 0.0310164 0.
0.557928 0.0310163 0.
0.55993 0.0310162 0.
0.561932 0.0310162 0.
0.563934 0.0310159 0.
0.565936 0.0310157 0.
0.567939 0.0310148 0.
0.569942 0.0310135 0.
0.571946 0.0310122 0.
0.57395 0.0310121 0.
0.575955 0.0310121 0.
0.577959 0.0310118 0.
0.579963 0.0310089 0.
0.581967 0.031006 0.
0.583971 0.0310031 0.
0.585975 0.0309998 0.
0.587979 0.0309966 0.
0.589982 0.0309944 0.
0.591985 0.0309929 0.
0.593988 0.0309915 0.
0.595992 0.03099 0.
0.597996 0.0309885 0.
0.6 0.030987 0.
0.602006 0.0309879 0.
0.604011 0.0309888 0.
0.606016 0.03099 0.
0.608019 0.0309924 0.
0.610022 0.0309949 0.
0.612026 0.0309975 0.
0.614029 0.0310003 0.
0.616032 0.0310031 0.
0.618036 0.0310056 0.
0.62004 0.0310079 0.
0.622044 0.0310102 0.
0.624048 0.0310114 0.
0.626052 0.0310125 0.
0.628055 0.0310135 0.
0.630058 0.0310145 0.
0.632061 0.0310154 0.
0.634064 0.0310165 0.
0.636066 0.031018 0.
0.638068 0.0310195 0.
0.640071 0.03102 0.
0.642073 0.0310198 0.
0.644075 0.0310197 0.
0.646077 0.0310197 0.
0.648078 0.0310197 0.
0.65008 0.0310197 0.
0.652082 0.0310193 0.
0.654083 0.031019 0.
0.656085 0.0310191 0.
0.658087 0.03102 0.
0.660089 0.031021 0.
0.662091 0.0310215 0.
0.664092 0.0310214 0.
0.666094 0.0310213 0.
0.668096 0.0310214 0.
0.670097 0.0310216 0.
0.672098 0.0310218 0.
0.6741 0.0310214 0.
0.676101 0.0310209 0.
0.678102 0.0310206 0.
0.680103 0.0310213 0.
0.682104 0.031022 0.
0.684105 0.0310229 0.
0.686105 0.0310241 0.
0.688105 0.0310253 0.
0.690106 0.0310271 0.
0.692107 0.0310294 0.
0.694108 0.0310316 0.
0.696108 0.0310337 0.
0.698108 0.0310358 0.
0.499895 0.0330349 0.
0.501895 0.0330326 0.
0.503896 0.0330305 0.
0.505897 0.0330284 0.
0.507897 0.0330261 0.
0.509898 0.0330239 0.
0.511899 0.0330218 0.
0.5139 0.0330201 0.
0.515901 0.0330185 0.
0.517902 0.0330176 0.
0.519903 0.0330172 0.
0.521904 0.0330169 0.
0.523905 0.0330167 0.
0.525906 0.0330165 0.
0.527907 0.0330162 0.
0.529909 0.0330156 0.
0.531911 0.033015 0.
0.533912 0.0330145 0.
0.535913 0.0330145 0.
0.537915 0.0330145 0.
0.539916 0.0330141 0.
0.541917 0.0330135 0.
0.543919 0.0330128 0.
0.54592 0.0330124 0.
0.547922 0.033012 0.
0.549923 0.0330116 0.
0.551925 0.0330126 0.
0.553926 0.0330136 0.
0.555928 0.0330144 0.
0.55793 0.0330141 0.
0.559933 0.0330138 0.
0.561935 0.0330136 0.
0.563938 0.0330135 0.
0.565941 0.0330133 0.
0.567944 0.0330124 0.
0.569947 0.033011 0.
0.57195 0.0330097 0.
0.573954 0.0330094 0.
0.575959 0.0330093 0.
0.577963 0.0330089 0.
0.579967 0.0330062 0.
0.58197 0.0330034 0.
0.583974 0.0330007 0.
0.585977 0.032998 0.
0.587981 0.0329953 0.
0.589984 0.0329933 0.
0.591987 0.0329919 0.
0.59399 0.0329905 0.
0.595993 0.0329892 0.
0.597997 0.032988 0.
0.600001 0.0329868 0.
0.602005 0.0329873 0.
0.604009 0.0329878 0.
0.606014 0.0329888 0.
0.608017 0.0329911 0.
0.61002 0.0329935 0.
0.612023 0.032996 0.
0.614026 0.0329987 0.
0.616029 0.0330014 0.
0.618033 0.0330035 0.
0.620036 0.0330053 0.
0.62204 0.0330071 0.
0.624044 0.0330087 0.
0.626047 0.0330101 0.
0.628051 0.0330115 0.
0.630053 0.0330122 0.
0.632056 0.0330128 0.
0.634059 0.0330138 0.
0.636062 0.0330155 0.
0.638065 0.0330171 0.
0.640067 0.033018 0.
0.642069 0.0330182 0.
0.644071 0.0330185 0.
0.646072 0.0330184 0.
0.648074 0.0330181 0.
0.650076 0.0330178 0.
0.652078 0.0330177 0.
0.654079 0.0330176 0.
0.656081 0.0330178 0.
0.658083 0.0330187 0.
0.660085 0.0330195 0.
0.662087 0.03302 0.
0.664089 0.0330199 0.
0.666091 0.0330198 0.
0.668092 0.0330202 0.
0.670093 0.0330209 0.
0.672094 0.0330216 0.
0.674095 0.0330212 0.
0.676097 0.0330207 0.
0.678098 0.0330203 0.
0.680099 0.0330212 0.
0.682101 0.033022 0.
0.684102 0.0330231 0.
0.686102 0.0330247 0.
0.688102 0.0330263 0.
0.690103 0.0330283 0.
0.692104 0.0330306 0.
0.694104 0.0330329 0.
0.696105 0.0330351 0.
0.698105 0.0330372 0.
0.499898 0.0350365 0.
0.501899 0.0350337 0.
0.503899 0.0350313 0.
0.5059 0.035029 0.
0.507901 0.0350269 0.
0.509901 0.0350249 0.
0.511902 0.0350228 0.
0.513903 0.0350206 0.
0.515904 0.0350185 0.
0.517905 0.0350176 0.
0.519906 0.0350174 0.
0.521907 0.0350172 0.
0.523908 0.0350167 0.
0.525909 0.0350161 0.
0.52791 0.0350154 0.
0.529912 0.0350145 0.
0.531914 0.0350136 0.
0.533915 0.035013 0.
0.535917 0.0350134 0.
0.537918 0.0350137 0.
0.53992 0.0350134 0.
0.541921 0.0350126 0.
0.543922 0.0350118 0.
0.545923 0.0350112 0.
0.547925 0.0350107 0.
0.549926 0.0350103 0.
0.551928 0.0350111 0.
0.553929 0.0350119 0.
0.555931 0.0350125 0.
0.557933 0.0350119 0.
0.559936 0.0350114 0.
0.561939 0.035011 0.
0.563942 0.035011 0.
0.565946 0.0350109 0.
0.567949 0.03501 0.
0.569952 0.0350086 0.
0.571954 0.0350072 0.
0.573959 0.0350067 0.
0.575963 0.0350065 0.
0.577967 0.035006 0.
0.57997 0.0350034 0.
0.581974 0.0350008 0.
0.583977 0.0349984 0.
0.58598 0.0349962 0.
0.587983 0.0349939 0.
0.589986 0.0349922 0.
0.591988 0.0349908 0.
0.593991 0.0349894 0.
0.595994 0.0349884 0.
0.597998 0.0349875 0.
0.600001 0.0349865 0.
0.602004 0.0349867 0.
0.604008 0.0349869 0.
0.606011 0.0349876 0.
0.608014 0.0349899 0.
0.610017 0.0349921 0.
0.61202 0.0349945 0.
0.614023 0.0349971 0.
0.616026 0.0349996 0.
0.61803 0.0350013 0.
0.620033 0.0350027 0.
0.622037 0.035004 0.
0.62404 0.0350059 0.
0.626043 0.0350078 0.
0.628046 0.0350095 0.
0.630049 0.0350099 0.
0.632051 0.0350103 0.
0.634054 0.0350112 0.
0.636057 0.035013 0.
0.638061 0.0350148 0.
0.640063 0.0350159 0.
0.642065 0.0350167 0.
0.644066 0.0350174 0.
0.646068 0.0350171 0.
0.64807 0.0350165 0.
0.650072 0.035016 0.
0.652074 0.0350161 0.
0.654075 0.0350162 0.
0.656076 0.0350165 0.
0.658078 0.0350173 0.
0.66008 0.0350181 0.
0.662083 0.0350185 0.
0.664085 0.0350183 0.
0.666087 0.0350182 0.
0.668088 0.035019 0.
0.670089 0.0350202 0.
0.67209 0.0350214 0.
0.674091 0.035021 0.
0.676092 0.0350205 0.
0.678094 0.0350202 0.
0.680095 0.0350211 0.
0.682097 0.035022 0.
0.684098 0.0350233 0.
0.686099 0.0350254 0.
0.688099 0.0350274 0.
0.6901 0.0350295 0.
0.6921 0.0350319 0.
0.694101 0.0350342 0.
0.696102 0.0350364 0.
0.698102 0.0350386 0.
0.499903 0.0370371 0.
0.501903 0.0370344 0.
0.503903 0.0370318 0.
0.505904 0.0370294 0.
0.507904 0.0370272 0.
0.509905 0.0370251 0.
0.511905 0.0370232 0.
0.513906 0.0370214 0.
0.515907 0.0370197 0.
0.517908 0.0370185 0.
0.519909 0.0370174 0.
0.52191 0.0370163 0.
0.523911 0.0370158 0.
0.525913 0.0370153 0.
0.527914 0.0370148 0.
0.529915 0.037014 0.
0.531917 0.0370133 0.
0.533918 0.0370128 0.
0.535919 0.0370127 0.
0.537921 0.0370127 0.
0.539922 0.0370122 0.
0.541923 0.0370113 0.
0.543924 0.0370104 0.
0.545926 0.0370099 0.
0.547928 0.0370096 0.
0.549929 0.0370093 0.
0.551931 0.03701 0.
0.553933 0.0370108 0.
0.555935 0.0370112 0.
0.557937 0.0370104 0.
0.55994 0.0370096 0.
0.561942 0.0370089 0.
0.563945 0.0370084 0.
0.565948 0.0370079 0.
0.567951 0.0370069 0.
0.569953 0.0370057 0.
0.571956 0.0370044 0.
0.57396 0.037004 0.
0.575965 0.0370036 0.
0.577969 0.037003 0.
0.579972 0.0370009 0.
0.581975 0.0369987 0.
0.583978 0.0369966 0.
0.585981 0.0369944 0.
0.587984 0.0369922 0.
0.589987 0.0369906 0.
0.591989 0.0369894 0.
0.593992 0.0369882 0.
0.595995 0.0369874 0.
0.597998 0.0369867 0.
0.600001 0.0369861 0.
0.602004 0.0369866 0.
0.604007 0.0369871 0.
0.60601 0.0369878 0.
0.608013 0.0369893 0.
0.610016 0.0369908 0.
0.612018 0.0369925 0.
0.614021 0.0369946 0.
0.616024 0.0369966 0.
0.618028 0.0369987 0.
0.620031 0.0370007 0.
0.622034 0.0370027 0.
0.624037 0.0370044 0.
0.62604 0.0370061 0.
0.628044 0.0370076 0.
0.630046 0.037008 0.
0.632048 0.0370084 0.
0.634051 0.0370093 0.
0.636054 0.0370111 0.
0.638057 0.037013 0.
0.64006 0.0370142 0.
0.642062 0.0370151 0.
0.644064 0.0370159 0.
0.646066 0.037016 0.
0.648068 0.0370158 0.
0.650069 0.0370155 0.
0.652071 0.0370152 0.
0.654073 0.0370148 0.
0.656075 0.0370148 0.
0.658077 0.0370158 0.
0.660078 0.0370168 0.
0.66208 0.0370173 0.
0.664082 0.0370174 0.
0.666084 0.0370174 0.
0.668085 0.0370184 0.
0.670086 0.0370198 0.
0.672087 0.0370212 0.
0.674088 0.0370208 0.
0.676089 0.0370204 0.
0.678091 0.0370201 0.
0.680092 0.037021 0.
0.682093 0.0370218 0.
0.684094 0.0370232 0.
0.686095 0.0370254 0.
0.688096 0.0370277 0.
0.690096 0.0370299 0.
0.692097 0.0370322 0.
0.694098 0.0370345 0.
0.696098 0.0370367 0.
0.698098 0.037039 0.
0.499907 0.0390379 0.
0.501907 0.0390351 0.
0.503907 0.0390324 0.
0.505907 0.0390297 0.
0.507908 0.0390275 0.
0.509908 0.0390253 0.
0.511909 0.0390235 0.
0.51391 0.0390222 0.
0.515911 0.039021 0.
0.517912 0.0390193 0.
0.519912 0.0390173 0.
0.521913 0.0390154 0.
0.523915 0.0390148 0.
0.525916 0.0390145 0.
0.527918 0.0390141 0.
0.529919 0.0390136 0.
0.53192 0.039013 0.
0.533921 0.0390125 0.
0.535922 0.0390121 0.
0.537923 0.0390116 0.
0.539924 0.0390109 0.
0.541926 0.03901 0.
0.543927 0.0390091 0.
0.545929 0.0390087 0.
0.547931 0.0390085 0.
0.549933 0.0390082 0.
0.551935 0.0390089 0.
0.553937 0.0390096 0.
0.555939 0.03901 0.
0.557941 0.0390088 0.
0.559944 0.0390077 0.
0.561946 0.0390067 0.
0.563948 0.0390058 0.
0.56595 0.0390048 0.
0.567952 0.0390038 0.
0.569955 0.0390028 0.
0.571958 0.0390017 0.
0.573962 0.0390012 0.
0.575966 0.0390007 0.
0.57797 0.0390001 0.
0.579974 0.0389984 0.
0.581977 0.0389966 0.
0.58398 0.0389948 0.
0.585983 0.0389927 0.
0.587986 0.0389905 0.
0.589988 0.038989 0.
0.59199 0.0389879 0.
0.593992 0.0389869 0.
0.595995 0.0389863 0.
0.597998 0.038986 0.
0.600001 0.0389856 0.
0.602004 0.0389864 0.
0.604007 0.0389872 0.
0.60601 0.038988 0.
0.608012 0.0389888 0.
0.610014 0.0389895 0.
0.612017 0.0389906 0.
0.614019 0.0389921 0.
0.616022 0.0389937 0.
0.618025 0.038996 0.
0.620028 0.0389987 0.
0.622031 0.0390014 0.
0.624034 0.039003 0.
0.626038 0.0390044 0.
0.628041 0.0390057 0.
0.630043 0.0390061 0.
0.632045 0.0390066 0.
0.634048 0.0390075 0.
0.636051 0.0390093 0.
0.638054 0.0390111 0.
0.640056 0.0390125 0.
0.642059 0.0390135 0.
0.644061 0.0390145 0.
0.646063 0.0390148 0.
0.648065 0.039015 0.
0.650067 0.0390151 0.
0.652069 0.0390143 0.
0.654071 0.0390134 0.
0.656073 0.0390131 0.
0.658075 0.0390143 0.
0.660077 0.0390155 0.
0.662078 0.0390162 0.
0.664079 0.0390164 0.
0.66608 0.0390166 0.
0.668081 0.0390178 0.
0.670082 0.0390193 0.
0.672083 0.0390209 0.
0.674085 0.0390206 0.
0.676087 0.0390203 0.
0.678088 0.03902 0.
0.680089 0.0390208 0.
0.68209 0.0390217 0.
0.684091 0.0390231 0.
0.686091 0.0390255 0.
0.688092 0.039028 0.
0.690093 0.0390303 0.
0.692094 0.0390325 0.
0.694095 0.0390347 0.
0.696094 0.0390371 0.
0.698094 0.0390395 0.
0.499911 0.0410382 0.
0.501911 0.0410355 0.
0.503911 0.0410327 0.
0.505911 0.0410301 0.
0.507911 0.0410279 0.
0.509912 0.0410257 0.
0.511913 0.0410238 0.
0.513913 0.0410225 0.
0.515914 0.0410211 0.
0.517915 0.0410192 0.
0.519916 0.041017 0.
0.521917 0.0410148 0.
0.523918 0.0410143 0.
0.52592 0.041014 0.
0.527921 0.0410137 0.
0.529922 0.0410131 0.
0.531923 0.0410125 0.
0.533924 0.0410118 0.
0.535925 0.0410111 0.
0.537926 0.0410104 0.
0.539927 0.0410097 0.
0.541929 0.0410089 0.
0.54393 0.041008 0.
0.545932 0.0410077 0.
0.547934 0.0410074 0.
0.549936 0.0410071 0.
0.551938 0.0410076 0.
0.553941 0.0410081 0.
0.555943 0.0410082 0.
0.557945 0.041007 0.
0.559947 0.0410058 0.
0.561949 0.0410046 0.
0.563951 0.0410035 0.
0.565952 0.0410024 0.
0.567955 0.0410014 0.
0.569958 0.0410006 0.
0.571961 0.0409997 0.
0.573964 0.040999 0.
0.575968 0.0409984 0.
0.577972 0.0409976 0.
0.579975 0.0409961 0.
0.581978 0.0409945 0.
0.583981 0.0409929 0.
0.585984 0.0409911 0.
0.587986 0.0409892 0.
0.589989 0.0409879 0.
0.59199 0.0409869 0.
0.593992 0.0409859 0.
0.595995 0.0409854 0.
0.597998 0.0409852 0.
0.600001 0.0409849 0.
0.602004 0.0409859 0.
0.604007 0.040987 0.
0.606009 0.0409879 0.
0.608011 0.0409883 0.
0.610013 0.0409887 0.
0.612015 0.0409894 0.
0.614018 0.0409905 0.
0.616021 0.0409916 0.
0.618023 0.0409939 0.
0.620026 0.0409968 0.
0.622028 0.0409997 0.
0.624032 0.0410012 0.
0.626035 0.0410025 0.
0.628038 0.0410037 0.
0.630041 0.0410042 0.
0.632043 0.0410048 0.
0.634045 0.0410058 0.
0.636048 0.0410076 0.
0.638051 0.0410094 0.
0.640053 0.0410109 0.
0.642056 0.041012 0.
0.644058 0.0410132 0.
0.64606 0.0410136 0.
0.648062 0.0410138 0.
0.650064 0.0410139 0.
0.652066 0.041013 0.
0.654068 0.0410122 0.
0.65607 0.0410118 0.
0.658072 0.0410132 0.
0.660074 0.0410145 0.
0.662075 0.0410153 0.
0.664076 0.0410157 0.
0.666077 0.0410161 0.
0.668078 0.0410172 0.
0.670079 0.0410186 0.
0.67208 0.0410201 0.
0.674081 0.0410202 0.
0.676083 0.0410201 0.
0.678085 0.0410202 0.
0.680085 0.041021 0.
0.682086 0.0410219 0.
0.684087 0.0410234 0.
0.686088 0.0410258 0.
0.688088 0.0410282 0.
0.690089 0.0410306 0.
0.69209 0.0410329 0.
0.694091 0.0410353 0.
0.696091 0.0410378 0.
0.69809 0.0410404 0.
0.499913 0.0430383 0.
0.501913 0.0430355 0.
0.503914 0.0430329 0.
0.505915 0.0430304 0.
0.507916 0.0430283 0.
0.509916 0.0430262 0.
0.511917 0.0430242 0.
0.513918 0.0430222 0.
0.515918 0.0430202 0.
0.517919 0.0430183 0.
0.519919 0.0430165 0.
0.52192 0.0430146 0.
0.523921 0.0430141 0.
0.525923 0.0430138 0.
0.527924 0.0430134 0.
0.529925 0.0430125 0.
0.531926 0.0430115 0.
0.533927 0.0430106 0.
0.535928 0.0430099 0.
0.537929 0.0430091 0.
0.53993 0.0430085 0.
0.541932 0.0430079 0.
0.543934 0.0430073 0.
0.545935 0.0430068 0.
0.547937 0.0430064 0.
0.549939 0.043006 0.
0.551941 0.043006 0.
0.553944 0.0430061 0.
0.555946 0.0430059 0.
0.557948 0.0430048 0.
0.55995 0.0430037 0.
0.561952 0.0430026 0.
0.563954 0.0430016 0.
0.565955 0.0430005 0.
0.567957 0.0429997 0.
0.56996 0.042999 0.
0.571963 0.0429983 0.
0.573966 0.0429975 0.
0.57597 0.0429966 0.
0.577973 0.0429957 0.
0.579976 0.042994 0.
0.581979 0.0429924 0.
0.583982 0.0429909 0.
0.585984 0.0429896 0.
0.587987 0.0429882 0.
0.589989 0.0429871 0.
0.59199 0.0429861 0.
0.593992 0.0429852 0.
0.595994 0.0429847 0.
0.597997 0.0429843 0.
0.6 0.0429839 0.
0.602003 0.0429851 0.
0.604006 0.0429863 0.
0.606009 0.0429874 0.
0.608011 0.0429879 0.
0.610013 0.0429885 0.
0.612015 0.0429891 0.
0.614017 0.0429898 0.
0.616019 0.0429905 0.
0.618021 0.0429924 0.
0.620023 0.042995 0.
0.622026 0.0429976 0.
0.624029 0.042999 0.
0.626032 0.0430003 0.
0.628035 0.0430016 0.
0.630038 0.0430023 0.
0.632041 0.043003 0.
0.634043 0.0430042 0.
0.636046 0.043006 0.
0.638048 0.0430078 0.
0.64005 0.0430094 0.
0.642053 0.0430107 0.
0.644055 0.043012 0.
0.646057 0.0430122 0.
0.648059 0.0430121 0.
0.650062 0.043012 0.
0.652063 0.0430115 0.
0.654065 0.043011 0.
0.656067 0.0430109 0.
0.658068 0.0430124 0.
0.66007 0.0430138 0.
0.662072 0.0430148 0.
0.664073 0.0430153 0.
0.666073 0.0430159 0.
0.668074 0.0430168 0.
0.670075 0.0430178 0.
0.672076 0.0430188 0.
0.674078 0.0430194 0.
0.676079 0.0430199 0.
0.678081 0.0430205 0.
0.680082 0.0430215 0.
0.682083 0.0430226 0.
0.684084 0.0430241 0.
0.686084 0.0430263 0.
0.688085 0.0430285 0.
0.690086 0.0430309 0.
0.692087 0.0430335 0.
0.694087 0.0430361 0.
0.696087 0.0430388 0.
0.698088 0.0430416 0.
0.499915 0.0450385 0.
0.501916 0.0450356 0.
0.503917 0.045033 0.
0.505919 0.0450306 0.
0.50792 0.0450287 0.
0.509921 0.0450267 0.
0.511922 0.0450245 0.
0.513922 0.0450218 0.
0.515922 0.0450192 0.
0.517922 0.0450173 0.
0.519923 0.0450159 0.
0.521924 0.0450145 0.
0.523925 0.045014 0.
0.525926 0.0450136 0.
0.527927 0.0450131 0.
0.529928 0.0450119 0.
0.531929 0.0450106 0.
0.53393 0.0450095 0.
0.535931 0.0450087 0.
0.537932 0.0450079 0.
0.539933 0.0450073 0.
0.541935 0.0450069 0.
0.543937 0.0450065 0.
0.545939 0.045006 0.
0.54794 0.0450054 0.
0.549941 0.0450048 0.
0.551944 0.0450045 0.
0.553947 0.0450041 0.
0.55595 0.0450037 0.
0.557952 0.0450026 0.
0.559954 0.0450016 0.
0.561955 0.0450006 0.
0.563956 0.0449996 0.
0.565958 0.0449987 0.
0.56796 0.044998 0.
0.569963 0.0449975 0.
0.571965 0.0449969 0.
0.573968 0.0449959 0.
0.575972 0.0449949 0.
0.577975 0.0449938 0.
0.579977 0.044992 0.
0.58198 0.0449903 0.
0.583982 0.0449888 0.
0.585984 0.044988 0.
0.587987 0.0449873 0.
0.589989 0.0449864 0.
0.59199 0.0449854 0.
0.593991 0.0449845 0.
0.595993 0.0449839 0.
0.597996 0.0449834 0.
0.599999 0.0449829 0.
0.602002 0.0449843 0.
0.604005 0.0449856 0.
0.606008 0.0449869 0.
0.60801 0.0449875 0.
0.610012 0.0449882 0.
0.612014 0.0449887 0.
0.614015 0.044989 0.
0.616017 0.0449893 0.
0.618019 0.044991 0.
0.620021 0.0449933 0.
0.622023 0.0449955 0.
0.624026 0.0449969 0.
0.626029 0.0449982 0.
0.628033 0.0449994 0.
0.630036 0.0450004 0.
0.632038 0.0450013 0.
0.634041 0.0450025 0.
0.636043 0.0450044 0.
0.638045 0.0450062 0.
0.640047 0.0450079 0.
0.64205 0.0450093 0.
0.644052 0.0450108 0.
0.646054 0.0450108 0.
0.648057 0.0450105 0.
0.650059 0.0450102 0.
0.65206 0.04501 0.
0.654061 0.0450098 0.
0.656063 0.04501 0.
0.658065 0.0450116 0.
0.660067 0.0450131 0.
0.662068 0.0450142 0.
0.664069 0.0450149 0.
0.66607 0.0450156 0.
0.668071 0.0450163 0.
0.670071 0.0450169 0.
0.672072 0.0450175 0.
0.674074 0.0450186 0.
0.676075 0.0450197 0.
0.678077 0.0450208 0.
0.680078 0.045022 0.
0.682079 0.0450232 0.
0.68408 0.0450247 0.
0.686081 0.0450267 0.
0.688082 0.0450288 0.
0.690082 0.0450313 0.
0.692083 0.0450341 0.
0.694083 0.0450369 0.
0.696084 0.0450398 0.
0.698085 0.0450428 0.
0.499919 0.0470385 0.
0.50192 0.0470356 0.
0.503921 0.0470328 0.
0.505922 0.0470302 0.
0.507923 0.0470282 0.
0.509924 0.0470263 0.
0.511924 0.0470241 0.
0.513925 0.0470216 0.
0.515926 0.047019 0.
0.517926 0.0470171 0.
0.519927 0.0470156 0.
0.521927 0.0470142 0.
0.523928 0.0470136 0.
0.525929 0.0470132 0.
0.52793 0.0470127 0.
0.529931 0.0470114 0.
0.531932 0.0470102 0.
0.533933 0.047009 0.
0.535935 0.0470079 0.
0.537936 0.0470069 0.
0.539937 0.0470061 0.
0.541939 0.0470055 0.
0.543941 0.0470049 0.
0.545942 0.0470044 0.
0.547944 0.047004 0.
0.549945 0.0470036 0.
0.551947 0.0470031 0.
0.55395 0.0470025 0.
0.555952 0.0470018 0.
0.557954 0.047001 0.
0.559956 0.0470002 0.
0.561957 0.0469993 0.
0.563959 0.0469984 0.
0.56596 0.0469975 0.
0.567962 0.0469966 0.
0.569965 0.0469959 0.
0.571967 0.0469951 0.
0.57397 0.0469943 0.
0.575973 0.0469936 0.
0.577976 0.0469927 0.
0.579978 0.0469911 0.
0.581981 0.0469894 0.
0.583983 0.046988 0.
0.585985 0.0469871 0.
0.587987 0.0469862 0.
0.589989 0.0469853 0.
0.591991 0.0469845 0.
0.593992 0.0469836 0.
0.595994 0.0469831 0.
0.597997 0.0469826 0.
0.599999 0.0469821 0.
0.602002 0.0469833 0.
0.604005 0.0469845 0.
0.606008 0.0469856 0.
0.60801 0.0469864 0.
0.610012 0.0469872 0.
0.612013 0.046988 0.
0.614015 0.0469887 0.
0.616016 0.0469895 0.
0.618018 0.0469908 0.
0.62002 0.0469924 0.
0.622022 0.046994 0.
0.624025 0.0469955 0.
0.626029 0.046997 0.
0.628032 0.0469984 0.
0.630034 0.0469991 0.
0.632036 0.0469998 0.
0.634039 0.0470008 0.
0.636041 0.0470024 0.
0.638043 0.0470039 0.
0.640046 0.0470056 0.
0.642048 0.0470074 0.
0.64405 0.0470092 0.
0.646052 0.0470092 0.
0.648055 0.0470089 0.
0.650057 0.0470085 0.
0.652058 0.0470086 0.
0.654059 0.0470088 0.
0.65606 0.0470092 0.
0.658062 0.0470106 0.
0.660064 0.047012 0.
0.662066 0.0470131 0.
0.664067 0.0470138 0.
0.666067 0.0470145 0.
0.668068 0.0470153 0.
0.670069 0.0470162 0.
0.67207 0.0470172 0.
0.674071 0.0470182 0.
0.676073 0.0470193 0.
0.678074 0.0470204 0.
0.680075 0.0470217 0.
0.682076 0.047023 0.
0.684077 0.0470246 0.
0.686078 0.0470268 0.
0.688078 0.0470289 0.
0.690079 0.0470315 0.
0.69208 0.0470343 0.
0.694081 0.0470372 0.
0.696081 0.0470401 0.
0.698082 0.0470429 0.
0.499922 0.0490387 0.
0.501923 0.0490356 0.
0.503924 0.0490325 0.
0.505924 0.0490297 0.
0.507925 0.0490278 0.
0.509926 0.049026 0.
0.511927 0.0490238 0.
0.513929 0.0490213 0.
0.51593 0.0490187 0.
0.51793 0.0490168 0.
0.519931 0.0490153 0.
0.521931 0.0490138 0.
0.523932 0.0490132 0.
0.525933 0.0490128 0.
0.527933 0.0490123 0.
0.529934 0.049011 0.
0.531935 0.0490097 0.
0.533936 0.0490085 0.
0.535938 0.0490072 0.
0.53794 0.049006 0.
0.539941 0.0490049 0.
0.541943 0.0490041 0.
0.543944 0.0490032 0.
0.545946 0.0490028 0.
0.547947 0.0490027 0.
0.549949 0.0490025 0.
0.55195 0.0490017 0.
0.553952 0.0490008 0.
0.555954 0.049 0.
0.557956 0.0489994 0.
0.559957 0.0489988 0.
0.561959 0.0489981 0.
0.563961 0.0489972 0.
0.565963 0.0489962 0.
0.567965 0.0489953 0.
0.569967 0.0489942 0.
0.571969 0.0489932 0.
0.573972 0.0489927 0.
0.575974 0.0489923 0.
0.577977 0.0489917 0.
0.579979 0.0489901 0.
0.581982 0.0489885 0.
0.583984 0.0489871 0.
0.585986 0.0489861 0.
0.587988 0.0489851 0.
0.589989 0.0489843 0.
0.591992 0.0489835 0.
0.593994 0.0489827 0.
0.595995 0.0489822 0.
0.597997 0.0489818 0.
0.599999 0.0489814 0.
0.602002 0.0489823 0.
0.604004 0.0489833 0.
0.606007 0.0489843 0.
0.608009 0.0489852 0.
0.610011 0.0489862 0.
0.612012 0.0489872 0.
0.614014 0.0489884 0.
0.616015 0.0489896 0.
0.618017 0.0489906 0.
0.62002 0.0489915 0.
0.622022 0.0489924 0.
0.624025 0.0489941 0.
0.626028 0.0489958 0.
0.62803 0.0489974 0.
0.630032 0.0489979 0.
0.632034 0.0489983 0.
0.634036 0.048999 0.
0.636039 0.0490003 0.
0.638041 0.0490017 0.
0.640044 0.0490034 0.
0.642046 0.0490055 0.
0.644049 0.0490075 0.
0.646051 0.0490076 0.
0.648053 0.0490072 0.
0.650055 0.0490068 0.
0.652055 0.0490073 0.
0.654056 0.0490077 0.
0.656057 0.0490084 0.
0.658059 0.0490097 0.
0.660062 0.049011 0.
0.662063 0.049012 0.
0.664064 0.0490126 0.
0.666065 0.0490133 0.
0.668066 0.0490143 0.
0.670067 0.0490155 0.
0.672068 0.0490168 0.
0.674069 0.0490179 0.
0.67607 0.0490189 0.
0.678071 0.04902 0.
0.680072 0.0490214 0.
0.682073 0.0490228 0.
0.684074 0.0490245 0.
0.686074 0.0490268 0.
0.688075 0.049029 0.
0.690076 0.0490317 0.
0.692077 0.0490346 0.
0.694078 0.0490375 0.
0.696079 0.0490403 0.
0.69808 0.0490431 0.
0.499926 0.0510386 0.
0.501927 0.0510356 0.
0.503927 0.0510326 0.
0.505928 0.0510299 0.
0.507929 0.0510279 0.
0.50993 0.0510258 0.
0.511931 0.0510236 0.
0.513932 0.0510211 0.
0.515933 0.0510186 0.
0.517934 0.0510167 0.
0.519934 0.0510151 0.
0.521935 0.0510136 0.
0.523935 0.0510129 0.
0.525936 0.0510124 0.
0.527937 0.0510118 0.
0.529938 0.0510105 0.
0.531939 0.0510092 0.
0.53394 0.0510079 0.
0.535942 0.0510066 0.
0.537943 0.0510052 0.
0.539945 0.051004 0.
0.541946 0.051003 0.
0.543947 0.0510019 0.
0.545949 0.0510015 0.
0.54795 0.0510013 0.
0.549952 0.0510012 0.
0.551953 0.0510002 0.
0.553954 0.0509992 0.
0.555956 0.0509983 0.
0.557958 0.050998 0.
0.559959 0.0509976 0.
0.561961 0.050997 0.
0.563963 0.0509961 0.
0.565965 0.0509951 0.
0.567967 0.050994 0.
0.569969 0.0509929 0.
0.571971 0.0509918 0.
0.573973 0.0509915 0.
0.575976 0.0509912 0.
0.577978 0.0509907 0.
0.579981 0.0509891 0.
0.581983 0.0509875 0.
0.583985 0.0509861 0.
0.585986 0.0509852 0.
0.587988 0.0509842 0.
0.58999 0.0509834 0.
0.591992 0.0509827 0.
0.593994 0.050982 0.
0.595996 0.0509816 0.
0.597998 0.0509812 0.
0.599999 0.0509808 0.
0.602002 0.0509816 0.
0.604004 0.0509823 0.
0.606007 0.0509831 0.
0.608008 0.0509842 0.
0.61001 0.0509853 0.
0.612012 0.0509865 0.
0.614013 0.0509877 0.
0.616015 0.0509889 0.
0.618017 0.0509897 0.
0.620019 0.0509902 0.
0.622021 0.0509907 0.
0.624024 0.0509925 0.
0.626027 0.0509945 0.
0.628029 0.0509962 0.
0.630031 0.0509966 0.
0.632032 0.0509969 0.
0.634034 0.0509976 0.
0.636037 0.0509989 0.
0.638039 0.0510002 0.
0.640041 0.0510019 0.
0.642044 0.0510039 0.
0.644047 0.0510059 0.
0.646048 0.0510062 0.
0.64805 0.0510059 0.
0.650052 0.0510057 0.
0.652053 0.0510063 0.
0.654054 0.0510069 0.
0.656055 0.0510077 0.
0.658057 0.0510088 0.
0.660059 0.0510099 0.
0.66206 0.0510109 0.
0.664061 0.0510116 0.
0.666062 0.0510124 0.
0.668063 0.0510136 0.
0.670064 0.0510149 0.
0.672065 0.0510163 0.
0.674066 0.0510174 0.
0.676067 0.0510185 0.
0.678068 0.0510196 0.
0.680069 0.0510213 0.
0.68207 0.0510229 0.
0.68407 0.0510248 0.
0.686071 0.051027 0.
0.688072 0.0510293 0.
0.690072 0.0510319 0.
0.692073 0.0510348 0.
0.694074 0.0510377 0.
0.696075 0.0510404 0.
0.698076 0.0510432 0.
0.499931 0.0530384 0.
0.501931 0.0530356 0.
0.503931 0.0530331 0.
0.505932 0.0530307 0.
0.507933 0.0530283 0.
0.509934 0.0530259 0.
0.511935 0.0530235 0.
0.513935 0.053021 0.
0.515936 0.0530185 0.
0.517937 0.0530167 0.
0.519937 0.0530151 0.
0.521938 0.0530135 0.
0.523939 0.0530127 0.
0.52594 0.053012 0.
0.527941 0.0530113 0.
0.529942 0.05301 0.
0.531943 0.0530087 0.
0.533944 0.0530074 0.
0.535945 0.053006 0.
0.537947 0.0530047 0.
0.539948 0.0530034 0.
0.541949 0.0530022 0.
0.54395 0.0530009 0.
0.545951 0.0530004 0.
0.547952 0.053 0.
0.549954 0.0529996 0.
0.551955 0.0529987 0.
0.553957 0.0529977 0.
0.555958 0.0529969 0.
0.55796 0.0529967 0.
0.559961 0.0529966 0.
0.561963 0.0529961 0.
0.563965 0.0529951 0.
0.565967 0.0529941 0.
0.567969 0.052993 0.
0.56997 0.0529919 0.
0.571972 0.0529909 0.
0.573974 0.0529905 0.
0.575977 0.0529902 0.
0.57798 0.0529897 0.
0.579982 0.0529881 0.
0.581984 0.0529864 0.
0.583986 0.052985 0.
0.585987 0.0529843 0.
0.587989 0.0529835 0.
0.58999 0.0529828 0.
0.591992 0.0529821 0.
0.593994 0.0529815 0.
0.595996 0.0529811 0.
0.597998 0.0529808 0.
0.6 0.0529806 0.
0.602003 0.052981 0.
0.604005 0.0529815 0.
0.606007 0.0529822 0.
0.608008 0.0529833 0.
0.61001 0.0529845 0.
0.612011 0.0529856 0.
0.614013 0.0529866 0.
0.616014 0.0529875 0.
0.618016 0.0529881 0.
0.620018 0.0529884 0.
0.62202 0.0529888 0.
0.624023 0.0529908 0.
0.626025 0.0529929 0.
0.628027 0.0529948 0.
0.630029 0.0529952 0.
0.632031 0.0529956 0.
0.634033 0.0529964 0.
0.636035 0.0529979 0.
0.638037 0.0529994 0.
0.640039 0.053001 0.
0.642041 0.0530027 0.
0.644043 0.0530044 0.
0.646045 0.0530049 0.
0.648047 0.053005 0.
0.650049 0.0530052 0.
0.65205 0.0530058 0.
0.654051 0.0530064 0.
0.656052 0.0530071 0.
0.658054 0.053008 0.
0.660055 0.0530089 0.
0.662056 0.0530098 0.
0.664058 0.0530108 0.
0.666059 0.0530118 0.
0.66806 0.053013 0.
0.670061 0.0530144 0.
0.672061 0.0530157 0.
0.674062 0.0530169 0.
0.676063 0.0530181 0.
0.678064 0.0530193 0.
0.680066 0.0530214 0.
0.682067 0.0530234 0.
0.684068 0.0530255 0.
0.686068 0.0530276 0.
0.688068 0.0530297 0.
0.690069 0.0530321 0.
0.692069 0.0530349 0.
0.69407 0.0530376 0.
0.696071 0.0530404 0.
0.698072 0.0530431 0.
0.499935 0.0550381 0.
0.501935 0.0550356 0.
0.503935 0.0550336 0.
0.505935 0.0550315 0.
0.507937 0.0550288 0.
0.509938 0.055026 0.
0.511938 0.0550233 0.
0.513939 0.0550209 0.
0.515939 0.0550185 0.
0.51794 0.0550166 0.
0.519941 0.055015 0.
0.521941 0.0550135 0.
0.523942 0.0550125 0.
0.525943 0.0550117 0.
0.527944 0.0550108 0.
0.529945 0.0550095 0.
0.531946 0.0550081 0.
0.533948 0.0550068 0.
0.535949 0.0550055 0.
0.53795 0.0550041 0.
0.539951 0.0550028 0.
0.541952 0.0550014 0.
0.543953 0.055 0.
0.545954 0.0549993 0.
0.547955 0.0549987 0.
0.549956 0.0549981 0.
0.551957 0.0549971 0.
0.553959 0.0549962 0.
0.555961 0.0549954 0.
0.557962 0.0549955 0.
0.559963 0.0549956 0.
0.561965 0.0549952 0.
0.563967 0.0549941 0.
0.565969 0.054993 0.
0.56797 0.054992 0.
0.569972 0.054991 0.
0.571973 0.05499 0.
0.573976 0.0549896 0.
0.575978 0.0549892 0.
0.577981 0.0549888 0.
0.579983 0.0549871 0.
0.581985 0.0549853 0.
0.583987 0.0549839 0.
0.585988 0.0549833 0.
0.587989 0.0549827 0.
0.589991 0.0549822 0.
0.591992 0.0549816 0.
0.593994 0.054981 0.
0.595996 0.0549807 0.
0.597999 0.0549805 0.
0.600001 0.0549803 0.
0.602003 0.0549805 0.
0.604005 0.0549807 0.
0.606007 0.0549812 0.
0.608008 0.0549825 0.
0.61001 0.0549838 0.
0.612011 0.0549848 0.
0.614012 0.0549855 0.
0.616014 0.0549861 0.
0.618016 0.0549865 0.
0.620017 0.0549867 0.
0.622019 0.0549869 0.
0.624021 0.054989 0.
0.626023 0.0549914 0.
0.628025 0.0549935 0.
0.630027 0.0549939 0.
0.63203 0.0549943 0.
0.634032 0.0549952 0.
0.636033 0.0549969 0.
0.638035 0.0549987 0.
0.640037 0.0550002 0.
0.642039 0.0550015 0.
0.64404 0.0550028 0.
0.646042 0.0550035 0.
0.648044 0.0550041 0.
0.650045 0.0550046 0.
0.652047 0.0550052 0.
0.654048 0.0550058 0.
0.65605 0.0550064 0.
0.658051 0.0550072 0.
0.660052 0.0550079 0.
0.662053 0.0550088 0.
0.664054 0.05501 0.
0.666055 0.0550111 0.
0.668056 0.0550125 0.
0.670057 0.0550138 0.
0.672058 0.0550152 0.
0.674059 0.0550164 0.
0.67606 0.0550176 0.
0.678061 0.055019 0.
0.680062 0.0550215 0.
0.682064 0.0550239 0.
0.684065 0.0550262 0.
0.686065 0.0550281 0.
0.688065 0.05503 0.
0.690065 0.0550324 0.
0.692065 0.055035 0.
0.694065 0.0550376 0.
0.696066 0.0550403 0.
0.698067 0.055043 0.
0.499938 0.0570381 0.
0.501938 0.0570356 0.
0.503939 0.0570335 0.
0.505939 0.0570313 0.
0.50794 0.0570285 0.
0.50994 0.0570258 0.
0.511941 0.0570232 0.
0.513941 0.0570209 0.
0.515942 0.0570187 0.
0.517943 0.0570166 0.
0.519944 0.0570146 0.
0.521944 0.0570126 0.
0.523945 0.0570117 0.
0.525946 0.0570109 0.
0.527947 0.0570101 0.
0.529948 0.0570088 0.
0.531949 0.0570076 0.
0.53395 0.0570062 0.
0.535951 0.0570048 0.
0.537952 0.0570034 0.
0.539953 0.0570021 0.
0.541954 0.0570008 0.
0.543955 0.0569996 0.
0.545956 0.0569987 0.
0.547957 0.056998 0.
0.549958 0.0569972 0.
0.55196 0.0569964 0.
0.553962 0.0569957 0.
0.555963 0.056995 0.
0.557964 0.0569946 0.
0.559966 0.0569942 0.
0.561967 0.0569935 0.
0.563969 0.0569925 0.
0.565971 0.0569915 0.
0.567973 0.0569906 0.
0.569974 0.0569898 0.
0.571976 0.056989 0.
0.573978 0.0569886 0.
0.57598 0.0569881 0.
0.577983 0.0569876 0.
0.579984 0.056986 0.
0.581986 0.0569845 0.
0.583988 0.0569832 0.
0.585989 0.0569824 0.
0.58799 0.0569816 0.
0.589991 0.0569813 0.
0.591993 0.0569812 0.
0.593994 0.0569811 0.
0.595996 0.0569807 0.
0.597999 0.0569801 0.
0.600001 0.0569796 0.
0.602003 0.0569799 0.
0.604005 0.0569802 0.
0.606007 0.0569808 0.
0.608008 0.0569819 0.
0.610009 0.0569831 0.
0.61201 0.0569841 0.
0.614012 0.0569848 0.
0.616013 0.0569856 0.
0.618015 0.056986 0.
0.620016 0.0569861 0.
0.622018 0.0569863 0.
0.62402 0.0569882 0.
0.626022 0.0569904 0.
0.628024 0.0569924 0.
0.630025 0.0569928 0.
0.632027 0.0569932 0.
0.634029 0.056994 0.
0.63603 0.0569957 0.
0.638032 0.0569973 0.
0.640034 0.0569989 0.
0.642035 0.0570005 0.
0.644037 0.0570021 0.
0.646039 0.0570026 0.
0.648041 0.0570028 0.
0.650043 0.0570031 0.
0.652044 0.0570038 0.
0.654045 0.0570045 0.
0.656046 0.0570053 0.
0.658048 0.0570063 0.
0.660049 0.0570073 0.
0.66205 0.0570085 0.
0.664051 0.0570098 0.
0.666053 0.0570112 0.
0.668054 0.0570126 0.
0.670055 0.0570139 0.
0.672056 0.0570153 0.
0.674056 0.0570163 0.
0.676057 0.0570173 0.
0.678058 0.0570184 0.
0.680059 0.0570207 0.
0.68206 0.057023 0.
0.684061 0.0570253 0.
0.686061 0.0570277 0.
0.688061 0.0570302 0.
0.690062 0.0570327 0.
0.692062 0.0570353 0.
0.694063 0.0570379 0.
0.696064 0.0570406 0.
0.698064 0.0570433 0.
0.499941 0.0590381 0.
0.501942 0.0590357 0.
0.503942 0.0590334 0.
0.505943 0.059031 0.
0.507943 0.0590283 0.
0.509942 0.0590256 0.
0.511943 0.0590231 0.
0.513944 0.059021 0.
0.515945 0.0590189 0.
0.517946 0.0590166 0.
0.519947 0.0590142 0.
0.521948 0.0590118 0.
0.523948 0.0590109 0.
0.525949 0.0590101 0.
0.52795 0.0590093 0.
0.529951 0.0590082 0.
0.531952 0.059007 0.
0.533953 0.0590057 0.
0.535953 0.0590042 0.
0.537954 0.0590027 0.
0.539955 0.0590014 0.
0.541956 0.0590003 0.
0.543957 0.0589992 0.
0.545959 0.0589982 0.
0.54796 0.0589972 0.
0.549961 0.0589962 0.
0.551963 0.0589957 0.
0.553964 0.0589952 0.
0.555966 0.0589947 0.
0.557967 0.0589938 0.
0.559968 0.0589929 0.
0.56197 0.0589919 0.
0.563972 0.0589909 0.
0.565974 0.05899 0.
0.567976 0.0589892 0.
0.569977 0.0589887 0.
0.571979 0.0589881 0.
0.57398 0.0589876 0.
0.575982 0.058987 0.
0.577984 0.0589864 0.
0.579986 0.058985 0.
0.581987 0.0589837 0.
0.583988 0.0589824 0.
0.58599 0.0589815 0.
0.587991 0.0589805 0.
0.589992 0.0589804 0.
0.591993 0.0589808 0.
0.593995 0.0589812 0.
0.595997 0.0589806 0.
0.597998 0.0589798 0.
0.6 0.058979 0.
0.602002 0.0589794 0.
0.604004 0.0589798 0.
0.606006 0.0589803 0.
0.608007 0.0589814 0.
0.610008 0.0589825 0.
0.61201 0.0589834 0.
0.614011 0.0589842 0.
0.616013 0.0589851 0.
0.618014 0.0589854 0.
0.620015 0.0589855 0.
0.622016 0.0589857 0.
0.624018 0.0589875 0.
0.62602 0.0589895 0.
0.628022 0.0589913 0.
0.630023 0.0589917 0.
0.632024 0.0589921 0.
0.634026 0.0589929 0.
0.636027 0.0589944 0.
0.638029 0.0589959 0.
0.64003 0.0589976 0.
0.642032 0.0589994 0.
0.644034 0.0590013 0.
0.646036 0.0590016 0.
0.648038 0.0590016 0.
0.65004 0.0590016 0.
0.652041 0.0590024 0.
0.654042 0.0590032 0.
0.656043 0.0590041 0.
0.658044 0.0590054 0.
0.660046 0.0590067 0.
0.662047 0.0590081 0.
0.664049 0.0590096 0.
0.66605 0.0590112 0.
0.668051 0.0590127 0.
0.670052 0.0590141 0.
0.672053 0.0590155 0.
0.674054 0.0590162 0.
0.676054 0.0590169 0.
0.678055 0.0590177 0.
0.680056 0.0590199 0.
0.682057 0.059022 0.
0.684057 0.0590245 0.
0.686057 0.0590274 0.
0.688058 0.0590303 0.
0.690058 0.059033 0.
0.692059 0.0590356 0.
0.69406 0.0590381 0.
0.696061 0.0590409 0.
0.698062 0.0590436 0.
0.499944 0.0610385 0.
0.501945 0.061036 0.
0.503946 0.0610335 0.
0.505946 0.0610309 0.
0.507946 0.0610281 0.
0.509945 0.0610254 0.
0.511946 0.0610229 0.
0.513947 0.0610209 0.
0.515948 0.0610189 0.
0.517949 0.0610166 0.
0.51995 0.061014 0.
0.521951 0.0610114 0.
0.523951 0.0610104 0.
0.525952 0.0610096 0.
0.527952 0.0610087 0.
0.529953 0.0610077 0.
0.531954 0.0610066 0.
0.533955 0.0610054 0.
0.535956 0.0610036 0.
0.537957 0.0610018 0.
0.539958 0.0610006 0.
0.541959 0.0609997 0.
0.54396 0.0609988 0.
0.545961 0.0609977 0.
0.547962 0.0609965 0.
0.549964 0.0609954 0.
0.551965 0.060995 0.
0.553967 0.0609946 0.
0.555968 0.0609941 0.
0.557969 0.0609931 0.
0.55997 0.060992 0.
0.561972 0.060991 0.
0.563974 0.0609899 0.
0.565976 0.0609888 0.
0.567977 0.0609881 0.
0.569979 0.0609877 0.
0.57198 0.0609873 0.
0.573982 0.0609867 0.
0.575984 0.0609861 0.
0.577985 0.0609854 0.
0.579987 0.0609841 0.
0.581988 0.0609829 0.
0.583989 0.0609817 0.
0.58599 0.0609808 0.
0.587991 0.0609798 0.
0.589992 0.0609797 0.
0.591994 0.0609803 0.
0.593995 0.0609809 0.
0.595997 0.0609804 0.
0.597998 0.0609795 0.
0.6 0.0609787 0.
0.602002 0.0609792 0.
0.604003 0.0609796 0.
0.606005 0.0609801 0.
0.608006 0.0609811 0.
0.610008 0.0609821 0.
0.612009 0.0609829 0.
0.61401 0.0609836 0.
0.616012 0.0609843 0.
0.618013 0.0609847 0.
0.620014 0.0609849 0.
0.622015 0.0609851 0.
0.624017 0.0609866 0.
0.626019 0.0609884 0.
0.62802 0.06099 0.
0.630021 0.0609906 0.
0.632023 0.0609913 0.
0.634024 0.0609922 0.
0.636025 0.0609935 0.
0.638027 0.0609949 0.
0.640028 0.0609965 0.
0.64203 0.0609984 0.
0.644031 0.0610003 0.
0.646033 0.0610007 0.
0.648035 0.0610007 0.
0.650037 0.0610008 0.
0.652038 0.0610015 0.
0.654039 0.0610021 0.
0.65604 0.0610029 0.
0.658042 0.0610043 0.
0.660043 0.0610057 0.
0.662044 0.0610073 0.
0.664046 0.0610089 0.
0.666047 0.0610105 0.
0.668048 0.0610121 0.
0.670049 0.0610137 0.
0.67205 0.0610152 0.
0.674051 0.0610159 0.
0.676051 0.0610165 0.
0.678052 0.0610173 0.
0.680052 0.0610196 0.
0.682053 0.0610218 0.
0.684054 0.0610243 0.
0.686054 0.0610273 0.
0.688054 0.0610303 0.
0.690055 0.061033 0.
0.692056 0.0610355 0.
0.694057 0.061038 0.
0.696057 0.061041 0.
0.698058 0.0610441 0.
0.499947 0.0630395 0.
0.501948 0.0630365 0.
0.503949 0.0630337 0.
0.50595 0.0630309 0.
0.507949 0.0630281 0.
0.509949 0.0630252 0.
0.511949 0.0630227 0.
0.51395 0.0630207 0.
0.515951 0.0630188 0.
0.517952 0.0630165 0.
0.519953 0.063014 0.
0.521954 0.0630115 0.
0.523954 0.0630102 0.
0.525955 0.0630092 0.
0.527955 0.0630082 0.
0.529956 0.0630074 0.
0.531957 0.0630065 0.
0.533958 0.0630053 0.
0.535959 0.0630031 0.
0.53796 0.0630009 0.
0.539961 0.0629996 0.
0.541962 0.0629989 0.
0.543962 0.0629983 0.
0.545963 0.0629972 0.
0.547965 0.0629959 0.
0.549966 0.0629946 0.
0.551967 0.0629942 0.
0.553969 0.0629939 0.
0.55597 0.0629934 0.
0.557971 0.0629925 0.
0.559973 0.0629917 0.
0.561974 0.0629906 0.
0.563975 0.0629893 0.
0.565977 0.0629879 0.
0.567978 0.0629872 0.
0.569979 0.0629869 0.
0.57198 0.0629865 0.
0.573982 0.0629859 0.
0.575984 0.0629853 0.
0.577986 0.0629846 0.
0.579987 0.0629833 0.
0.581989 0.0629821 0.
0.58399 0.062981 0.
0.585991 0.0629803 0.
0.587992 0.0629795 0.
0.589993 0.0629794 0.
0.591994 0.0629797 0.
0.593995 0.0629801 0.
0.595997 0.0629798 0.
0.597998 0.0629793 0.
0.6 0.0629789 0.
0.602002 0.0629793 0.
0.604003 0.0629797 0.
0.606005 0.0629803 0.
0.608006 0.0629811 0.
0.610007 0.062982 0.
0.612008 0.0629826 0.
0.614009 0.0629831 0.
0.616011 0.0629835 0.
0.618012 0.0629838 0.
0.620013 0.0629841 0.
0.622015 0.0629845 0.
0.624016 0.0629857 0.
0.626018 0.0629871 0.
0.628019 0.0629884 0.
0.63002 0.0629896 0.
0.632021 0.0629907 0.
0.634023 0.0629919 0.
0.636024 0.062993 0.
0.638026 0.0629941 0.
0.640027 0.0629956 0.
0.642028 0.0629973 0.
0.644029 0.062999 0.
0.64603 0.0629998 0.
0.648032 0.0630003 0.
0.650033 0.0630008 0.
0.652035 0.063001 0.
0.654036 0.0630012 0.
0.656038 0.0630017 0.
0.65804 0.063003 0.
0.660041 0.0630044 0.
0.662042 0.0630059 0.
0.664043 0.0630076 0.
0.666044 0.0630093 0.
0.668045 0.0630109 0.
0.670046 0.0630126 0.
0.672047 0.0630143 0.
0.674047 0.0630152 0.
0.676048 0.063016 0.
0.678048 0.063017 0.
0.680049 0.0630196 0.
0.682049 0.0630223 0.
0.68405 0.0630249 0.
0.686051 0.0630275 0.
0.688051 0.0630301 0.
0.690051 0.0630326 0.
0.692052 0.0630351 0.
0.694052 0.0630376 0.
0.696052 0.0630411 0.
0.698053 0.0630448 0.
0.49995 0.0650402 0.
0.501951 0.065037 0.
0.503952 0.0650339 0.
0.505953 0.0650309 0.
0.507953 0.065028 0.
0.509953 0.065025 0.
0.511953 0.0650225 0.
0.513954 0.0650205 0.
0.515954 0.0650186 0.
0.517955 0.0650164 0.
0.519956 0.0650139 0.
0.521957 0.0650115 0.
0.523957 0.0650101 0.
0.525958 0.0650089 0.
0.527958 0.0650076 0.
0.529959 0.0650071 0.
0.531959 0.0650065 0.
0.53396 0.0650052 0.
0.535962 0.0650026 0.
0.537963 0.065 0.
0.539964 0.0649986 0.
0.541964 0.0649982 0.
0.543965 0.0649978 0.
0.545966 0.0649967 0.
0.547967 0.0649953 0.
0.549968 0.0649939 0.
0.55197 0.0649935 0.
0.553971 0.0649931 0.
0.555972 0.0649926 0.
0.557973 0.064992 0.
0.559975 0.0649913 0.
0.561976 0.0649903 0.
0.563977 0.0649887 0.
0.565978 0.0649871 0.
0.567979 0.0649864 0.
0.56998 0.064986 0.
0.571981 0.0649857 0.
0.573983 0.0649851 0.
0.575985 0.0649845 0.
0.577987 0.0649838 0.
0.579988 0.0649826 0.
0.58199 0.0649813 0.
0.583991 0.0649803 0.
0.585992 0.0649798 0.
0.587993 0.0649792 0.
0.589993 0.064979 0.
0.591994 0.0649791 0.
0.593995 0.0649792 0.
0.595997 0.0649792 0.
0.597999 0.0649791 0.
0.6 0.064979 0.
0.602002 0.0649794 0.
0.604003 0.0649799 0.
0.606004 0.0649804 0.
0.608005 0.0649811 0.
0.610006 0.0649819 0.
0.612007 0.0649823 0.
0.614008 0.0649825 0.
0.616009 0.0649826 0.
0.618011 0.0649829 0.
0.620012 0.0649834 0.
0.622014 0.0649839 0.
0.624015 0.0649848 0.
0.626016 0.0649857 0.
0.628018 0.0649868 0.
0.630019 0.0649885 0.
0.63202 0.0649902 0.
0.634022 0.0649916 0.
0.636023 0.0649925 0.
0.638024 0.0649934 0.
0.640025 0.0649947 0.
0.642026 0.0649962 0.
0.644026 0.0649978 0.
0.646027 0.0649988 0.
0.648028 0.0649998 0.
0.650029 0.0650008 0.
0.652032 0.0650005 0.
0.654034 0.0650003 0.
0.656036 0.0650004 0.
0.658037 0.0650017 0.
0.660039 0.0650031 0.
0.66204 0.0650046 0.
0.66404 0.0650063 0.
0.66604 0.065008 0.
0.668041 0.0650098 0.
0.670042 0.0650116 0.
0.672044 0.0650135 0.
0.674044 0.0650145 0.
0.676044 0.0650155 0.
0.678044 0.0650167 0.
0.680045 0.0650197 0.
0.682046 0.0650227 0.
0.684047 0.0650254 0.
0.686047 0.0650277 0.
0.688048 0.0650299 0.
0.690048 0.0650323 0.
0.692048 0.0650347 0.
0.694048 0.0650372 0.
0.696048 0.0650412 0.
0.698047 0.0650455 0.
0.499954 0.0670404 0.
0.501954 0.0670371 0.
0.503955 0.0670341 0.
0.505955 0.0670312 0.
0.507956 0.0670283 0.
0.509956 0.0670253 0.
0.511957 0.0670227 0.
0.513957 0.0670205 0.
0.515957 0.0670183 0.
0.517958 0.067016 0.
0.519959 0.0670138 0.
0.52196 0.0670116 0.
0.52396 0.0670103 0.
0.525961 0.0670091 0.
0.527961 0.067008 0.
0.529962 0.0670067 0.
0.531962 0.0670055 0.
0.533963 0.0670039 0.
0.535964 0.0670018 0.
0.537965 0.0669996 0.
0.539966 0.0669982 0.
0.541966 0.0669975 0.
0.543967 0.0669967 0.
0.545968 0.0669956 0.
0.547969 0.0669944 0.
0.54997 0.0669932 0.
0.551972 0.0669928 0.
0.553973 0.0669924 0.
0.555974 0.0669919 0.
0.557975 0.0669912 0.
0.559976 0.0669906 0.
0.561977 0.0669896 0.
0.563978 0.0669881 0.
0.565979 0.0669865 0.
0.56798 0.0669855 0.
0.569981 0.0669848 0.
0.571982 0.0669841 0.
0.573984 0.0669837 0.
0.575986 0.0669833 0.
0.577988 0.0669829 0.
0.57999 0.0669819 0.
0.581991 0.0669809 0.
0.583992 0.06698 0.
0.585992 0.0669795 0.
0.587993 0.0669789 0.
0.589994 0.0669787 0.
0.591995 0.0669787 0.
0.593995 0.0669788 0.
0.595997 0.0669791 0.
0.597999 0.0669795 0.
0.600001 0.0669798 0.
0.602002 0.0669797 0.
0.604003 0.0669795 0.
0.606004 0.0669796 0.
0.608004 0.0669805 0.
0.610005 0.0669815 0.
0.612006 0.066982 0.
0.614008 0.066982 0.
0.616009 0.066982 0.
0.61801 0.0669824 0.
0.620011 0.066983 0.
0.622012 0.0669836 0.
0.624013 0.0669846 0.
0.626014 0.0669857 0.
0.628016 0.0669867 0.
0.630017 0.0669879 0.
0.632018 0.066989 0.
0.63402 0.0669901 0.
0.636021 0.0669913 0.
0.638022 0.0669925 0.
0.640023 0.0669938 0.
0.642024 0.0669954 0.
0.644025 0.066997 0.
0.646026 0.0669979 0.
0.648027 0.0669987 0.
0.650029 0.0669994 0.
0.65203 0.0669994 0.
0.654032 0.0669994 0.
0.656034 0.0669997 0.
0.658035 0.0670012 0.
0.660036 0.0670027 0.
0.662037 0.0670042 0.
0.664037 0.0670059 0.
0.666038 0.0670075 0.
0.668039 0.0670094 0.
0.67004 0.0670114 0.
0.672041 0.0670135 0.
0.674041 0.0670145 0.
0.676041 0.0670155 0.
0.678042 0.0670168 0.
0.680042 0.0670198 0.
0.682042 0.0670227 0.
0.684043 0.0670254 0.
0.686043 0.0670277 0.
0.688044 0.0670299 0.
0.690044 0.0670324 0.
0.692044 0.067035 0.
0.694045 0.0670377 0.
0.696045 0.0670414 0.
0.698045 0.0670453 0.
0.499957 0.0690402 0.
0.501957 0.0690373 0.
0.503957 0.0690344 0.
0.505957 0.0690316 0.
0.507958 0.0690286 0.
0.509959 0.0690256 0.
0.51196 0.0690229 0.
0.51396 0.0690204 0.
0.515961 0.0690179 0.
0.517961 0.0690157 0.
0.519962 0.0690137 0.
0.521963 0.0690117 0.
0.523963 0.0690105 0.
0.525964 0.0690094 0.
0.527964 0.0690082 0.
0.529965 0.0690064 0.
0.531965 0.0690045 0.
0.533966 0.0690027 0.
0.535966 0.0690009 0.
0.537966 0.0689992 0.
0.539967 0.0689979 0.
0.541969 0.0689967 0.
0.54397 0.0689956 0.
0.545971 0.0689945 0.
0.547972 0.0689935 0.
0.549973 0.0689925 0.
0.551974 0.068992 0.
0.553975 0.0689916 0.
0.555977 0.0689911 0.
0.557977 0.0689905 0.
0.559978 0.0689899 0.
0.561979 0.068989 0.
0.56398 0.0689875 0.
0.565981 0.068986 0.
0.567982 0.0689847 0.
0.569983 0.0689836 0.
0.571984 0.0689824 0.
0.573986 0.0689822 0.
0.575988 0.0689822 0.
0.57799 0.0689821 0.
0.579991 0.0689813 0.
0.581992 0.0689805 0.
0.583992 0.0689798 0.
0.585993 0.0689792 0.
0.587994 0.0689785 0.
0.589994 0.0689783 0.
0.591995 0.0689783 0.
0.593996 0.0689784 0.
0.595997 0.0689791 0.
0.597999 0.0689798 0.
0.600001 0.0689806 0.
0.602001 0.0689799 0.
0.604002 0.0689791 0.
0.606003 0.0689788 0.
0.608004 0.06898 0.
0.610005 0.0689811 0.
0.612006 0.0689816 0.
0.614008 0.0689815 0.
0.616009 0.0689813 0.
0.61801 0.0689818 0.
0.62001 0.0689826 0.
0.62201 0.0689834 0.
0.624012 0.0689845 0.
0.626013 0.0689856 0.
0.628014 0.0689866 0.
0.630015 0.0689872 0.
0.632016 0.0689878 0.
0.634017 0.0689887 0.
0.636019 0.0689901 0.
0.63802 0.0689915 0.
0.640021 0.068993 0.
0.642022 0.0689946 0.
0.644023 0.0689961 0.
0.646025 0.0689969 0.
0.648026 0.0689975 0.
0.650028 0.0689981 0.
0.652029 0.0689983 0.
0.65403 0.0689985 0.
0.656032 0.068999 0.
0.658032 0.0690006 0.
0.660033 0.0690022 0.
0.662033 0.0690038 0.
0.664034 0.0690054 0.
0.666035 0.069007 0.
0.668036 0.069009 0.
0.670037 0.0690112 0.
0.672037 0.0690134 0.
0.674038 0.0690146 0.
0.676038 0.0690156 0.
0.678039 0.0690169 0.
0.680039 0.0690199 0.
0.682038 0.0690228 0.
0.684039 0.0690254 0.
0.686039 0.0690276 0.
0.68804 0.0690298 0.
0.690041 0.0690324 0.
0.692041 0.0690353 0.
0.694042 0.0690382 0.
0.696042 0.0690416 0.
0.698042 0.0690451 0.
0.499961 0.0710402 0.
0.501961 0.0710374 0.
0.503961 0.0710346 0.
0.505961 0.0710318 0.
0.507962 0.0710287 0.
0.509963 0.0710257 0.
0.511963 0.0710228 0.
0.513964 0.0710201 0.
0.515964 0.0710175 0.
0.517965 0.0710153 0.
0.519965 0.0710133 0.
0.521966 0.0710113 0.
0.523966 0.0710102 0.
0.525967 0.0710092 0.
0.527967 0.0710081 0.
0.529968 0.071006 0.
0.531968 0.0710039 0.
0.533969 0.071002 0.
0.535969 0.0710005 0.
0.537969 0.070999 0.
0.53997 0.0709976 0.
0.541971 0.0709963 0.
0.543972 0.0709949 0.
0.545973 0.0709938 0.
0.547974 0.0709928 0.
0.549975 0.0709918 0.
0.551976 0.0709913 0.
0.553977 0.0709909 0.
0.555978 0.0709904 0.
0.557979 0.0709899 0.
0.55998 0.0709893 0.
0.561981 0.0709885 0.
0.563981 0.0709872 0.
0.565982 0.0709859 0.
0.567983 0.0709846 0.
0.569984 0.0709831 0.
0.571985 0.0709816 0.
0.573987 0.0709813 0.
0.575989 0.0709812 0.
0.577991 0.070981 0.
0.579992 0.0709805 0.
0.581992 0.07098 0.
0.583993 0.0709795 0.
0.585993 0.0709789 0.
0.587994 0.0709783 0.
0.589995 0.0709781 0.
0.591995 0.0709781 0.
0.593996 0.0709781 0.
0.595997 0.0709787 0.
0.597999 0.0709796 0.
0.6 0.0709804 0.
0.602001 0.0709796 0.
0.604002 0.0709789 0.
0.606003 0.0709785 0.
0.608004 0.0709794 0.
0.610005 0.0709803 0.
0.612006 0.0709809 0.
0.614007 0.070981 0.
0.616008 0.0709811 0.
0.618009 0.0709816 0.
0.620009 0.0709824 0.
0.622009 0.0709831 0.
0.62401 0.0709841 0.
0.626011 0.070985 0.
0.628012 0.0709859 0.
0.630013 0.0709863 0.
0.632014 0.0709868 0.
0.634015 0.0709876 0.
0.636017 0.0709891 0.
0.638018 0.0709907 0.
0.640019 0.0709922 0.
0.64202 0.0709936 0.
0.644021 0.070995 0.
0.646022 0.0709958 0.
0.648024 0.0709964 0.
0.650026 0.070997 0.
0.652027 0.0709976 0.
0.654028 0.0709982 0.
0.656029 0.070999 0.
0.658029 0.0710005 0.
0.66003 0.0710019 0.
0.66203 0.0710034 0.
0.664031 0.0710051 0.
0.666032 0.0710067 0.
0.668033 0.0710087 0.
0.670033 0.0710109 0.
0.672034 0.0710131 0.
0.674035 0.0710144 0.
0.676035 0.0710157 0.
0.678036 0.0710172 0.
0.680036 0.07102 0.
0.682035 0.0710227 0.
0.684036 0.0710253 0.
0.686036 0.0710276 0.
0.688037 0.0710298 0.
0.690038 0.0710324 0.
0.692038 0.0710353 0.
0.694038 0.0710382 0.
0.696039 0.0710415 0.
0.698039 0.0710448 0.
0.499964 0.0730406 0.
0.501965 0.0730375 0.
0.503965 0.0730347 0.
0.505965 0.0730318 0.
0.507966 0.0730286 0.
0.509966 0.0730255 0.
0.511966 0.0730225 0.
0.513967 0.0730197 0.
0.515967 0.0730169 0.
0.517968 0.0730146 0.
0.519968 0.0730125 0.
0.521968 0.0730105 0.
0.523969 0.0730094 0.
0.52597 0.0730085 0.
0.52797 0.0730074 0.
0.529971 0.0730055 0.
0.531972 0.0730036 0.
0.533972 0.0730018 0.
0.535973 0.0730004 0.
0.537973 0.0729989 0.
0.539974 0.0729975 0.
0.541975 0.0729961 0.
0.543975 0.0729947 0.
0.545976 0.0729935 0.
0.547976 0.0729924 0.
0.549977 0.0729912 0.
0.551978 0.0729907 0.
0.553979 0.0729902 0.
0.55598 0.0729897 0.
0.55798 0.0729893 0.
0.559981 0.0729888 0.
0.561982 0.0729882 0.
0.563983 0.0729873 0.
0.565984 0.0729865 0.
0.567985 0.0729851 0.
0.569986 0.0729834 0.
0.571987 0.0729817 0.
0.573988 0.072981 0.
0.57599 0.0729804 0.
0.577992 0.0729798 0.
0.579992 0.0729796 0.
0.581992 0.0729794 0.
0.583992 0.0729792 0.
0.585994 0.0729788 0.
0.587995 0.0729784 0.
0.589995 0.0729781 0.
0.591996 0.0729779 0.
0.593997 0.0729777 0.
0.595998 0.0729781 0.
0.597999 0.0729787 0.
0.6 0.0729792 0.
0.602001 0.0729789 0.
0.604002 0.0729787 0.
0.606003 0.0729785 0.
0.608004 0.0729789 0.
0.610005 0.0729792 0.
0.612006 0.0729797 0.
0.614007 0.0729805 0.
0.616007 0.0729812 0.
0.618007 0.0729818 0.
0.620007 0.0729823 0.
0.622008 0.0729829 0.
0.624009 0.0729834 0.
0.62601 0.0729838 0.
0.628011 0.0729843 0.
0.630012 0.0729851 0.
0.632013 0.072986 0.
0.634013 0.072987 0.
0.636014 0.0729885 0.
0.638015 0.07299 0.
0.640016 0.0729914 0.
0.642017 0.0729925 0.
0.644018 0.0729937 0.
0.646019 0.0729945 0.
0.648021 0.0729953 0.
0.650022 0.072996 0.
0.652023 0.0729973 0.
0.654024 0.0729985 0.
0.656025 0.0729997 0.
0.658026 0.0730007 0.
0.660027 0.0730017 0.
0.662027 0.073003 0.
0.664028 0.0730048 0.
0.666029 0.0730066 0.
0.668029 0.0730085 0.
0.67003 0.0730105 0.
0.672031 0.0730125 0.
0.674031 0.0730142 0.
0.676032 0.0730158 0.
0.678033 0.0730175 0.
0.680033 0.0730201 0.
0.682033 0.0730226 0.
0.684033 0.0730251 0.
0.686034 0.0730275 0.
0.688034 0.0730298 0.
0.690035 0.0730324 0.
0.692035 0.0730351 0.
0.694035 0.0730377 0.
0.696036 0.073041 0.
0.698035 0.0730445 0.
0.499968 0.0750406 0.
0.501969 0.0750377 0.
0.503969 0.0750348 0.
0.50597 0.0750318 0.
0.50797 0.0750285 0.
0.509969 0.0750253 0.
0.511969 0.0750222 0.
0.51397 0.0750193 0.
0.51597 0.0750163 0.
0.51797 0.0750139 0.
0.51997 0.0750118 0.
0.52197 0.0750097 0.
0.523971 0.0750087 0.
0.525972 0.0750078 0.
0.527973 0.0750068 0.
0.529974 0.075005 0.
0.531975 0.0750033 0.
0.533975 0.0750016 0.
0.535976 0.0750003 0.
0.537977 0.0749989 0.
0.539978 0.0749975 0.
0.541978 0.074996 0.
0.543978 0.0749945 0.
0.545978 0.0749932 0.
0.547978 0.0749919 0.
0.549979 0.0749906 0.
0.551979 0.07499 0.
0.55398 0.0749895 0.
0.555981 0.074989 0.
0.557982 0.0749886 0.
0.559983 0.0749883 0.
0.561984 0.0749878 0.
0.563984 0.0749874 0.
0.565985 0.0749871 0.
0.567986 0.0749857 0.
0.569987 0.0749838 0.
0.571988 0.0749818 0.
0.573989 0.0749806 0.
0.575991 0.0749795 0.
0.577992 0.0749785 0.
0.579992 0.0749787 0.
0.581992 0.0749788 0.
0.583992 0.0749788 0.
0.585994 0.0749786 0.
0.587995 0.0749784 0.
0.589996 0.0749781 0.
0.591997 0.0749778 0.
0.593997 0.0749774 0.
0.595998 0.0749775 0.
0.597999 0.0749778 0.
0.6 0.074978 0.
0.602001 0.0749782 0.
0.604003 0.0749785 0.
0.606004 0.0749786 0.
0.608005 0.0749783 0.
0.610006 0.0749781 0.
0.612007 0.0749786 0.
0.614006 0.0749799 0.
0.616006 0.0749813 0.
0.618006 0.074982 0.
0.620006 0.0749823 0.
0.622007 0.0749827 0.
0.624008 0.0749827 0.
0.626009 0.0749827 0.
0.62801 0.0749828 0.
0.63001 0.074984 0.
0.632011 0.0749851 0.
0.634012 0.0749864 0.
0.636012 0.0749879 0.
0.638013 0.0749894 0.
0.640013 0.0749906 0.
0.642014 0.0749915 0.
0.644014 0.0749924 0.
0.646016 0.0749932 0.
0.648018 0.0749942 0.
0.650019 0.0749951 0.
0.65202 0.0749969 0.
0.654021 0.0749988 0.
0.656021 0.0750003 0.
0.658022 0.0750009 0.
0.660024 0.0750014 0.
0.662024 0.0750026 0.
0.664025 0.0750046 0.
0.666025 0.0750065 0.
0.668026 0.0750083 0.
0.670027 0.0750101 0.
0.672027 0.0750119 0.
0.674028 0.0750139 0.
0.676029 0.0750159 0.
0.67803 0.0750179 0.
0.68003 0.0750202 0.
0.682031 0.0750225 0.
0.684031 0.0750248 0.
0.686031 0.0750273 0.
0.688031 0.0750299 0.
0.690032 0.0750324 0.
0.692032 0.0750348 0.
0.694032 0.0750373 0.
0.696032 0.0750406 0.
0.698032 0.0750443 0.
0.499971 0.0770401 0.
0.501971 0.0770373 0.
0.503972 0.0770347 0.
0.505972 0.0770318 0.
0.507972 0.0770283 0.
0.509972 0.0770248 0.
0.511972 0.0770218 0.
0.513972 0.0770193 0.
0.515973 0.0770168 0.
0.517973 0.0770144 0.
0.519973 0.077012 0.
0.521973 0.0770097 0.
0.523974 0.0770084 0.
0.525974 0.0770073 0.
0.527975 0.0770061 0.
0.529976 0.0770045 0.
0.531976 0.0770029 0.
0.533977 0.0770014 0.
0.535978 0.077 0.
0.537978 0.0769987 0.
0.539979 0.0769972 0.
0.541979 0.0769956 0.
0.54398 0.076994 0.
0.54598 0.0769928 0.
0.54798 0.0769917 0.
0.549981 0.0769906 0.
0.551981 0.07699 0.
0.553982 0.0769894 0.
0.555983 0.0769888 0.
0.557984 0.0769883 0.
0.559985 0.0769878 0.
0.561985 0.0769872 0.
0.563986 0.0769865 0.
0.565987 0.0769857 0.
0.567988 0.0769844 0.
0.569989 0.0769828 0.
0.571989 0.0769811 0.
0.57399 0.0769803 0.
0.575992 0.0769795 0.
0.577993 0.0769787 0.
0.579993 0.0769786 0.
0.581993 0.0769784 0.
0.583993 0.0769782 0.
0.585994 0.0769779 0.
0.587996 0.0769777 0.
0.589996 0.0769776 0.
0.591997 0.0769777 0.
0.593998 0.0769778 0.
0.595999 0.0769778 0.
0.597999 0.0769779 0.
0.6 0.076978 0.
0.602001 0.076978 0.
0.604002 0.076978 0.
0.606003 0.076978 0.
0.608004 0.0769778 0.
0.610005 0.0769776 0.
0.612006 0.0769781 0.
0.614006 0.0769794 0.
0.616005 0.0769808 0.
0.618005 0.0769815 0.
0.620006 0.0769819 0.
0.622006 0.0769822 0.
0.624007 0.0769824 0.
0.626007 0.0769825 0.
0.628008 0.0769827 0.
0.630009 0.0769839 0.
0.632009 0.0769851 0.
0.63401 0.0769863 0.
0.63601 0.0769874 0.
0.638011 0.0769886 0.
0.640012 0.0769896 0.
0.642012 0.0769906 0.
0.644013 0.0769916 0.
0.646014 0.0769927 0.
0.648015 0.0769939 0.
0.650017 0.0769951 0.
0.652018 0.0769964 0.
0.654018 0.0769977 0.
0.656019 0.0769989 0.
0.65802 0.0769999 0.
0.660021 0.0770008 0.
0.662022 0.0770023 0.
0.664022 0.0770042 0.
0.666022 0.0770062 0.
0.668023 0.0770081 0.
0.670024 0.0770101 0.
0.672024 0.077012 0.
0.674025 0.077014 0.
0.676025 0.0770159 0.
0.678026 0.0770178 0.
0.680026 0.0770201 0.
0.682027 0.0770224 0.
0.684027 0.0770247 0.
0.686027 0.0770271 0.
0.688028 0.0770295 0.
0.690028 0.077032 0.
0.692028 0.0770345 0.
0.694029 0.077037 0.
0.696029 0.0770403 0.
0.698029 0.0770439 0.
0.499975 0.0790395 0.
0.501974 0.079037 0.
0.503975 0.0790346 0.
0.505975 0.0790319 0.
0.507975 0.0790281 0.
0.509975 0.0790244 0.
0.511975 0.0790214 0.
0.513975 0.0790194 0.
0.515975 0.0790173 0.
0.517975 0.0790149 0.
0.519976 0.0790123 0.
0.521976 0.0790097 0.
0.523976 0.0790081 0.
0.525977 0.0790068 0.
0.527977 0.0790054 0.
0.529977 0.079004 0.
0.531977 0.0790026 0.
0.533978 0.0790012 0.
0.535979 0.0789998 0.
0.53798 0.0789985 0.
0.53998 0.0789969 0.
0.541981 0.0789952 0.
0.543982 0.0789935 0.
0.545982 0.0789924 0.
0.547982 0.0789915 0.
0.549983 0.0789906 0.
0.551984 0.0789899 0.
0.553984 0.0789893 0.
0.555985 0.0789886 0.
0.557986 0.078988 0.
0.559986 0.0789874 0.
0.561987 0.0789866 0.
0.563988 0.0789855 0.
0.565989 0.0789844 0.
0.56799 0.0789831 0.
0.56999 0.0789818 0.
0.571991 0.0789804 0.
0.573991 0.0789799 0.
0.575992 0.0789795 0.
0.577993 0.078979 0.
0.579993 0.0789785 0.
0.581994 0.078978 0.
0.583994 0.0789776 0.
0.585995 0.0789773 0.
0.587996 0.078977 0.
0.589997 0.0789771 0.
0.591997 0.0789776 0.
0.593998 0.0789781 0.
0.595999 0.0789781 0.
0.598 0.078978 0.
0.6 0.078978 0.
0.602001 0.0789778 0.
0.604002 0.0789776 0.
0.606003 0.0789774 0.
0.608004 0.0789772 0.
0.610005 0.078977 0.
0.612005 0.0789775 0.
0.614005 0.0789789 0.
0.616005 0.0789803 0.
0.618005 0.078981 0.
0.620005 0.0789814 0.
0.622005 0.0789818 0.
0.624006 0.0789821 0.
0.626006 0.0789823 0.
0.628006 0.0789827 0.
0.630007 0.0789839 0.
0.632007 0.0789851 0.
0.634008 0.0789862 0.
0.636009 0.078987 0.
0.63801 0.0789878 0.
0.640011 0.0789887 0.
0.642011 0.0789897 0.
0.644012 0.0789908 0.
0.646013 0.0789922 0.
0.648013 0.0789937 0.
0.650014 0.0789952 0.
0.652015 0.0789959 0.
0.654016 0.0789966 0.
0.656017 0.0789974 0.
0.658018 0.0789989 0.
0.660019 0.0790003 0.
0.662019 0.079002 0.
0.664019 0.0790039 0.
0.666019 0.0790059 0.
0.66802 0.0790079 0.
0.670021 0.07901 0.
0.672022 0.0790122 0.
0.674022 0.079014 0.
0.676022 0.0790159 0.
0.678022 0.0790178 0.
0.680022 0.07902 0.
0.682023 0.0790223 0.
0.684024 0.0790246 0.
0.686024 0.0790269 0.
0.688024 0.0790292 0.
0.690024 0.0790316 0.
0.692025 0.0790341 0.
0.694025 0.0790367 0.
0.696025 0.07904 0.
0.698025 0.0790436 0.
0.499977 0.0810394 0.
0.501977 0.0810368 0.
0.503977 0.0810342 0.
0.505977 0.0810314 0.
0.507978 0.0810278 0.
0.509978 0.0810242 0.
0.511978 0.0810213 0.
0.513978 0.0810195 0.
0.515978 0.0810176 0.
0.517978 0.0810152 0.
0.519979 0.0810125 0.
0.521979 0.0810098 0.
0.523979 0.0810081 0.
0.525979 0.0810066 0.
0.527979 0.081005 0.
0.529979 0.0810038 0.
0.531979 0.0810025 0.
0.533979 0.0810012 0.
0.53598 0.0809998 0.
0.537981 0.0809983 0.
0.539982 0.0809967 0.
0.541983 0.080995 0.
0.543983 0.0809933 0.
0.545984 0.0809921 0.
0.547984 0.0809912 0.
0.549985 0.0809903 0.
0.551985 0.0809897 0.
0.553986 0.0809891 0.
0.555987 0.0809885 0.
0.557987 0.0809878 0.
0.559988 0.0809872 0.
0.561988 0.0809862 0.
0.563989 0.0809848 0.
0.56599 0.0809834 0.
0.567991 0.0809823 0.
0.569991 0.0809814 0.
0.571992 0.0809804 0.
0.573993 0.08098 0.
0.575993 0.0809796 0.
0.577994 0.0809792 0.
0.579994 0.0809784 0.
0.581995 0.0809776 0.
0.583995 0.0809771 0.
0.585996 0.0809769 0.
0.587996 0.0809767 0.
0.589997 0.080977 0.
0.591997 0.0809777 0.
0.593998 0.0809784 0.
0.595999 0.0809784 0.
0.597999 0.0809782 0.
0.6 0.080978 0.
0.602001 0.0809776 0.
0.604002 0.0809771 0.
0.606003 0.0809768 0.
0.608004 0.0809769 0.
0.610004 0.0809769 0.
0.612005 0.0809775 0.
0.614004 0.0809786 0.
0.616004 0.0809798 0.
0.618004 0.0809806 0.
0.620004 0.0809811 0.
0.622005 0.0809816 0.
0.624005 0.080982 0.
0.626005 0.0809823 0.
0.628005 0.0809828 0.
0.630006 0.0809839 0.
0.632006 0.080985 0.
0.634007 0.0809858 0.
0.636008 0.0809864 0.
0.638008 0.0809869 0.
0.640009 0.0809879 0.
0.64201 0.0809893 0.
0.64401 0.0809906 0.
0.646011 0.080992 0.
0.648012 0.0809935 0.
0.650012 0.0809949 0.
0.652013 0.0809955 0.
0.654014 0.080996 0.
0.656014 0.0809968 0.
0.658015 0.0809984 0.
0.660016 0.0810001 0.
0.662016 0.0810019 0.
0.664016 0.0810039 0.
0.666017 0.0810059 0.
0.668017 0.081008 0.
0.670018 0.0810101 0.
0.672019 0.0810122 0.
0.674019 0.0810139 0.
0.676018 0.0810157 0.
0.678018 0.0810174 0.
0.680019 0.0810198 0.
0.68202 0.0810222 0.
0.68402 0.0810245 0.
0.686021 0.0810267 0.
0.688021 0.0810289 0.
0.690021 0.0810313 0.
0.692021 0.081034 0.
0.694022 0.0810366 0.
0.696022 0.0810398 0.
0.698022 0.081043 0.
0.499979 0.0830396 0.
0.50198 0.0830366 0.
0.50398 0.0830336 0.
0.50598 0.0830305 0.
0.507981 0.0830274 0.
0.509981 0.0830242 0.
0.511981 0.0830216 0.
0.513981 0.0830196 0.
0.515981 0.0830176 0.
0.517982 0.0830153 0.
0.519981 0.0830127 0.
0.521981 0.0830102 0.
0.523981 0.0830084 0.
0.525981 0.0830067 0.
0.527981 0.083005 0.
0.529981 0.0830039 0.
0.531981 0.0830028 0.
0.533981 0.0830015 0.
0.535982 0.0829998 0.
0.537983 0.0829982 0.
0.539983 0.0829966 0.
0.541984 0.0829949 0.
0.543985 0.0829933 0.
0.545985 0.082992 0.
0.547986 0.0829908 0.
0.549986 0.0829896 0.
0.551986 0.0829892 0.
0.553987 0.0829888 0.
0.555987 0.0829883 0.
0.557988 0.0829877 0.
0.559989 0.0829871 0.
0.561989 0.0829861 0.
0.56399 0.0829844 0.
0.565991 0.0829828 0.
0.567991 0.082982 0.
0.569992 0.0829816 0.
0.571993 0.0829812 0.
0.573994 0.0829805 0.
0.575994 0.0829799 0.
0.577995 0.0829792 0.
0.579995 0.0829782 0.
0.581995 0.0829773 0.
0.583996 0.0829767 0.
0.585996 0.0829767 0.
0.587996 0.0829768 0.
0.589996 0.0829772 0.
0.591997 0.0829778 0.
0.593997 0.0829785 0.
0.595998 0.0829786 0.
0.597999 0.0829784 0.
0.6 0.0829782 0.
0.602001 0.0829774 0.
0.604002 0.0829766 0.
0.606003 0.0829761 0.
0.608004 0.0829766 0.
0.610004 0.0829772 0.
0.612004 0.0829779 0.
0.614004 0.0829786 0.
0.616003 0.0829794 0.
0.618004 0.0829801 0.
0.620004 0.0829808 0.
0.622004 0.0829815 0.
0.624004 0.082982 0.
0.626004 0.0829826 0.
0.628005 0.0829832 0.
0.630005 0.0829839 0.
0.632006 0.0829846 0.
0.634006 0.0829852 0.
0.636007 0.0829856 0.
0.638007 0.082986 0.
0.640008 0.0829873 0.
0.642008 0.0829892 0.
0.644009 0.0829911 0.
0.646009 0.0829923 0.
0.64801 0.0829933 0.
0.650011 0.0829942 0.
0.652011 0.0829951 0.
0.654012 0.0829959 0.
0.656012 0.0829969 0.
0.658012 0.0829986 0.
0.660013 0.0830003 0.
0.662013 0.0830021 0.
0.664013 0.0830043 0.
0.666014 0.0830064 0.
0.668014 0.0830084 0.
0.670015 0.0830103 0.
0.672015 0.0830122 0.
0.674015 0.0830137 0.
0.676016 0.0830152 0.
0.678016 0.0830169 0.
0.680016 0.0830194 0.
0.682017 0.083022 0.
0.684017 0.0830244 0.
0.686018 0.0830265 0.
0.688018 0.0830286 0.
0.690018 0.0830312 0.
0.692018 0.083034 0.
0.694018 0.0830368 0.
0.696019 0.0830395 0.
0.698019 0.0830423 0.
0.499982 0.0850401 0.
0.501982 0.0850365 0.
0.503983 0.085033 0.
0.505983 0.0850297 0.
0.507984 0.0850269 0.
0.509984 0.0850242 0.
0.511984 0.0850218 0.
0.513985 0.0850198 0.
0.515985 0.0850177 0.
0.517985 0.0850154 0.
0.519984 0.085013 0.
0.521984 0.0850105 0.
0.523983 0.0850087 0.
0.525983 0.0850068 0.
0.527983 0.085005 0.
0.529983 0.085004 0.
0.531983 0.085003 0.
0.533983 0.0850017 0.
0.535984 0.0849999 0.
0.537984 0.0849981 0.
0.539985 0.0849964 0.
0.541986 0.0849949 0.
0.543987 0.0849934 0.
0.545987 0.0849919 0.
0.547987 0.0849904 0.
0.549988 0.0849889 0.
0.551988 0.0849886 0.
0.553988 0.0849885 0.
0.555988 0.0849882 0.
0.557989 0.0849876 0.
0.55999 0.084987 0.
0.561991 0.0849859 0.
0.563991 0.0849841 0.
0.565991 0.0849822 0.
0.567992 0.0849817 0.
0.569993 0.0849818 0.
0.571994 0.0849819 0.
0.573995 0.0849811 0.
0.575995 0.0849801 0.
0.577995 0.0849791 0.
0.579996 0.084978 0.
0.581996 0.0849769 0.
0.583996 0.0849763 0.
0.585996 0.0849766 0.
0.587996 0.0849769 0.
0.589996 0.0849773 0.
0.591996 0.084978 0.
0.593996 0.0849787 0.
0.595997 0.0849787 0.
0.597998 0.0849786 0.
0.599999 0.0849784 0.
0.602001 0.0849772 0.
0.604002 0.0849761 0.
0.606004 0.0849754 0.
0.608004 0.0849765 0.
0.610004 0.0849775 0.
0.612004 0.0849783 0.
0.614003 0.0849786 0.
0.616003 0.084979 0.
0.618003 0.0849797 0.
0.620003 0.0849805 0.
0.622004 0.0849814 0.
0.624004 0.0849821 0.
0.626004 0.0849829 0.
0.628004 0.0849836 0.
0.630005 0.084984 0.
0.632005 0.0849843 0.
0.634006 0.0849846 0.
0.636006 0.0849849 0.
0.638006 0.0849851 0.
0.640006 0.0849866 0.
0.642007 0.0849891 0.
0.644007 0.0849916 0.
0.646008 0.0849926 0.
0.648009 0.0849931 0.
0.65001 0.0849935 0.
0.652009 0.0849947 0.
0.654009 0.0849958 0.
0.656009 0.084997 0.
0.658009 0.0849987 0.
0.660009 0.0850004 0.
0.66201 0.0850023 0.
0.66401 0.0850046 0.
0.666011 0.0850068 0.
0.668011 0.0850088 0.
0.670012 0.0850104 0.
0.672012 0.0850121 0.
0.674012 0.0850135 0.
0.676013 0.0850148 0.
0.678013 0.0850163 0.
0.680013 0.085019 0.
0.682014 0.0850218 0.
0.684014 0.0850243 0.
0.686015 0.0850263 0.
0.688015 0.0850284 0.
0.690015 0.085031 0.
0.692015 0.085034 0.
0.694015 0.085037 0.
0.696015 0.0850393 0.
0.698016 0.0850416 0.
0.499986 0.08704 0.
0.501986 0.0870366 0.
0.503986 0.0870331 0.
0.505986 0.0870299 0.
0.507986 0.0870272 0.
0.509986 0.0870246 0.
0.511986 0.087022 0.
0.513986 0.0870195 0.
0.515986 0.087017 0.
0.517986 0.0870147 0.
0.519986 0.0870125 0.
0.521986 0.0870103 0.
0.523985 0.0870087 0.
0.525985 0.0870071 0.
0.527984 0.0870054 0.
0.529985 0.087004 0.
0.531985 0.0870026 0.
0.533985 0.0870011 0.
0.535986 0.0869994 0.
0.537987 0.0869977 0.
0.539987 0.0869963 0.
0.541988 0.086995 0.
0.543988 0.0869937 0.
0.545988 0.0869923 0.
0.547989 0.0869909 0.
0.549989 0.0869895 0.
0.551989 0.0869888 0.
0.553989 0.0869882 0.
0.555989 0.0869875 0.
0.55799 0.0869869 0.
0.559991 0.0869863 0.
0.561992 0.0869853 0.
0.563992 0.0869839 0.
0.565992 0.0869825 0.
0.567993 0.0869819 0.
0.569993 0.0869817 0.
0.571994 0.0869815 0.
0.573994 0.0869806 0.
0.575995 0.0869796 0.
0.577995 0.0869786 0.
0.579996 0.0869778 0.
0.581996 0.086977 0.
0.583996 0.0869766 0.
0.585996 0.0869768 0.
0.587996 0.086977 0.
0.589996 0.0869773 0.
0.591997 0.0869778 0.
0.593997 0.0869783 0.
0.595998 0.0869783 0.
0.597999 0.086978 0.
0.6 0.0869777 0.
0.602001 0.086977 0.
0.604002 0.0869763 0.
0.606003 0.086976 0.
0.608003 0.0869767 0.
0.610003 0.0869774 0.
0.612002 0.0869781 0.
0.614002 0.0869786 0.
0.616002 0.0869791 0.
0.618002 0.0869796 0.
0.620003 0.0869802 0.
0.622003 0.0869808 0.
0.624004 0.0869814 0.
0.626004 0.086982 0.
0.628004 0.0869826 0.
0.630004 0.086983 0.
0.632005 0.0869835 0.
0.634005 0.086984 0.
0.636005 0.0869847 0.
0.638006 0.0869855 0.
0.640006 0.0869869 0.
0.642006 0.0869889 0.
0.644006 0.0869908 0.
0.646006 0.0869921 0.
0.648007 0.0869931 0.
0.650008 0.0869942 0.
0.652008 0.0869949 0.
0.654008 0.0869957 0.
0.656008 0.0869967 0.
0.658008 0.0869984 0.
0.660008 0.0870001 0.
0.662008 0.0870021 0.
0.664009 0.0870043 0.
0.666009 0.0870065 0.
0.66801 0.0870085 0.
0.67001 0.0870103 0.
0.67201 0.0870122 0.
0.67401 0.0870137 0.
0.67601 0.0870152 0.
0.67801 0.0870168 0.
0.68001 0.0870191 0.
0.682011 0.0870213 0.
0.684011 0.0870236 0.
0.686012 0.0870261 0.
0.688012 0.0870287 0.
0.690012 0.0870314 0.
0.692012 0.0870341 0.
0.694012 0.0870369 0.
0.696012 0.0870397 0.
0.698012 0.0870425 0.
0.49999 0.0890405 0.
0.50199 0.0890368 0.
0.50399 0.0890333 0.
0.50599 0.0890301 0.
0.507989 0.0890275 0.
0.509989 0.0890249 0.
0.511989 0.0890221 0.
0.513988 0.0890192 0.
0.515988 0.0890163 0.
0.517988 0.089014 0.
0.519988 0.0890121 0.
0.521988 0.0890102 0.
0.523987 0.0890087 0.
0.525987 0.0890073 0.
0.527986 0.0890058 0.
0.529987 0.089004 0.
0.531987 0.0890022 0.
0.533987 0.0890005 0.
0.535988 0.0889989 0.
0.537989 0.0889974 0.
0.539989 0.0889961 0.
0.54199 0.0889951 0.
0.54399 0.088994 0.
0.54599 0.0889927 0.
0.54799 0.0889914 0.
0.54999 0.0889901 0.
0.55199 0.088989 0.
0.55399 0.0889879 0.
0.555991 0.0889869 0.
0.557991 0.0889862 0.
0.559992 0.0889856 0.
0.561993 0.0889847 0.
0.563993 0.0889837 0.
0.565993 0.0889827 0.
0.567994 0.088982 0.
0.569994 0.0889815 0.
0.571994 0.088981 0.
0.573994 0.08898 0.
0.575995 0.088979 0.
0.577995 0.088978 0.
0.579995 0.0889775 0.
0.581996 0.0889771 0.
0.583996 0.0889768 0.
0.585996 0.088977 0.
0.587996 0.0889771 0.
0.589997 0.0889773 0.
0.591998 0.0889776 0.
0.593998 0.0889779 0.
0.595999 0.0889778 0.
0.598 0.0889774 0.
0.6 0.0889771 0.
0.602001 0.0889769 0.
0.604002 0.0889766 0.
0.606002 0.0889765 0.
0.608002 0.0889769 0.
0.610001 0.0889773 0.
0.612001 0.0889778 0.
0.614001 0.0889785 0.
0.616001 0.0889791 0.
0.618002 0.0889796 0.
0.620002 0.0889799 0.
0.622003 0.0889801 0.
0.624003 0.0889806 0.
0.626003 0.0889811 0.
0.628004 0.0889816 0.
0.630004 0.0889821 0.
0.632004 0.0889826 0.
0.634004 0.0889833 0.
0.636005 0.0889846 0.
0.638005 0.0889858 0.
0.640005 0.0889871 0.
0.642005 0.0889886 0.
0.644005 0.08899 0.
0.646005 0.0889916 0.
0.648006 0.0889932 0.
0.650007 0.0889948 0.
0.652006 0.0889952 0.
0.654006 0.0889956 0.
0.656006 0.0889964 0.
0.658006 0.0889981 0.
0.660007 0.0889999 0.
0.662007 0.0890018 0.
0.664007 0.089004 0.
0.666008 0.0890062 0.
0.668008 0.0890082 0.
0.670008 0.0890102 0.
0.672008 0.0890122 0.
0.674008 0.0890139 0.
0.676007 0.0890156 0.
0.678007 0.0890174 0.
0.680007 0.0890191 0.
0.682008 0.0890208 0.
0.684009 0.0890229 0.
0.686008 0.0890259 0.
0.688008 0.0890289 0.
0.690008 0.0890317 0.
0.692008 0.0890343 0.
0.694008 0.0890368 0.
0.696008 0.08904 0.
0.698008 0.0890434 0.
0.499993 0.0910397 0.
0.501992 0.0910366 0.
0.503992 0.0910333 0.
0.505992 0.0910303 0.
0.507992 0.0910277 0.
0.509992 0.0910251 0.
0.511991 0.0910223 0.
0.513991 0.0910193 0.
0.51599 0.0910163 0.
0.51799 0.091014 0.
0.51999 0.0910121 0.
0.52199 0.0910102 0.
0.523989 0.0910089 0.
0.525989 0.0910075 0.
0.527988 0.0910062 0.
0.529989 0.0910041 0.
0.531989 0.091002 0.
0.53399 0.0910002 0.
0.53599 0.0909988 0.
0.537991 0.0909974 0.
0.539991 0.0909962 0.
0.541991 0.0909952 0.
0.543991 0.0909943 0.
0.545991 0.090993 0.
0.547991 0.0909917 0.
0.549991 0.0909904 0.
0.551992 0.0909891 0.
0.553992 0.0909877 0.
0.555992 0.0909865 0.
0.557993 0.0909858 0.
0.559993 0.0909851 0.
0.561994 0.0909844 0.
0.563994 0.0909836 0.
0.565994 0.0909829 0.
0.567995 0.0909821 0.
0.569995 0.0909813 0.
0.571995 0.0909805 0.
0.573995 0.0909794 0.
0.575995 0.0909783 0.
0.577995 0.0909772 0.
0.579995 0.0909771 0.
0.581995 0.090977 0.
0.583996 0.090977 0.
0.585996 0.0909771 0.
0.587996 0.0909773 0.
0.589997 0.0909774 0.
0.591998 0.0909775 0.
0.593999 0.0909775 0.
0.595999 0.0909773 0.
0.598 0.090977 0.
0.6 0.0909766 0.
0.602001 0.0909767 0.
0.604001 0.0909767 0.
0.606001 0.0909768 0.
0.608 0.090977 0.
0.61 0.0909772 0.
0.612 0.0909776 0.
0.614 0.0909784 0.
0.616001 0.0909791 0.
0.618001 0.0909795 0.
0.620002 0.0909798 0.
0.622002 0.09098 0.
0.624003 0.0909803 0.
0.626003 0.0909806 0.
0.628003 0.0909809 0.
0.630003 0.0909816 0.
0.632003 0.0909822 0.
0.634004 0.090983 0.
0.636004 0.0909844 0.
0.638004 0.0909857 0.
0.640004 0.090987 0.
0.642004 0.0909883 0.
0.644004 0.0909896 0.
0.646004 0.0909912 0.
0.648004 0.090993 0.
0.650005 0.0909947 0.
0.652005 0.0909952 0.
0.654004 0.0909957 0.
0.656004 0.0909964 0.
0.658005 0.0909981 0.
0.660005 0.0909998 0.
0.662006 0.0910017 0.
0.664006 0.0910038 0.
0.666006 0.091006 0.
0.668006 0.0910081 0.
0.670006 0.0910102 0.
0.672006 0.0910123 0.
0.674005 0.0910142 0.
0.676005 0.091016 0.
0.678004 0.0910178 0.
0.680005 0.0910193 0.
0.682006 0.0910208 0.
0.684006 0.0910228 0.
0.686006 0.0910259 0.
0.688005 0.091029 0.
0.690005 0.0910318 0.
0.692005 0.0910342 0.
0.694005 0.0910367 0.
0.696005 0.09104 0.
0.698005 0.0910437 0.
0.499995 0.0930388 0.
0.501994 0.093036 0.
0.503994 0.0930332 0.
0.505994 0.0930304 0.
0.507994 0.0930278 0.
0.509994 0.0930252 0.
0.511994 0.0930225 0.
0.513993 0.0930198 0.
0.515993 0.0930171 0.
0.517993 0.0930147 0.
0.519992 0.0930126 0.
0.521992 0.0930105 0.
0.523992 0.0930091 0.
0.525991 0.0930078 0.
0.527991 0.0930063 0.
0.529991 0.0930042 0.
0.531992 0.093002 0.
0.533992 0.0930002 0.
0.535992 0.0929989 0.
0.537992 0.0929976 0.
0.539992 0.0929965 0.
0.541992 0.0929955 0.
0.543992 0.0929945 0.
0.545993 0.0929932 0.
0.547993 0.0929918 0.
0.549993 0.0929904 0.
0.551994 0.092989 0.
0.553994 0.0929877 0.
0.555994 0.0929864 0.
0.557994 0.0929857 0.
0.559995 0.092985 0.
0.561995 0.0929843 0.
0.563995 0.0929837 0.
0.565996 0.092983 0.
0.567996 0.0929821 0.
0.569996 0.0929809 0.
0.571995 0.0929798 0.
0.573995 0.0929786 0.
0.575996 0.0929774 0.
0.577996 0.0929763 0.
0.579996 0.0929765 0.
0.581996 0.0929767 0.
0.583996 0.0929769 0.
0.585996 0.0929772 0.
0.587997 0.0929775 0.
0.589997 0.0929775 0.
0.591998 0.0929772 0.
0.593998 0.092977 0.
0.595999 0.0929768 0.
0.597999 0.0929766 0.
0.6 0.0929764 0.
0.602 0.0929765 0.
0.604 0.0929765 0.
0.606 0.0929766 0.
0.607999 0.0929768 0.
0.609999 0.092977 0.
0.611999 0.0929774 0.
0.614 0.0929782 0.
0.616 0.0929789 0.
0.618001 0.0929795 0.
0.620001 0.0929799 0.
0.622002 0.0929803 0.
0.624002 0.0929804 0.
0.626002 0.0929804 0.
0.628002 0.0929806 0.
0.630002 0.0929814 0.
0.632002 0.0929822 0.
0.634002 0.0929831 0.
0.636003 0.0929841 0.
0.638003 0.0929851 0.
0.640003 0.0929864 0.
0.642003 0.092988 0.
0.644003 0.0929896 0.
0.646003 0.092991 0.
0.648002 0.0929924 0.
0.650002 0.0929938 0.
0.652003 0.0929948 0.
0.654003 0.0929958 0.
0.656004 0.0929969 0.
0.658004 0.0929984 0.
0.660004 0.0929998 0.
0.662004 0.0930016 0.
0.664004 0.0930038 0.
0.666004 0.0930059 0.
0.668004 0.0930081 0.
0.670004 0.0930104 0.
0.672004 0.0930127 0.
0.674003 0.0930146 0.
0.676003 0.0930164 0.
0.678003 0.0930183 0.
0.680003 0.0930197 0.
0.682004 0.0930212 0.
0.684004 0.0930232 0.
0.686003 0.093026 0.
0.688003 0.0930289 0.
0.690002 0.0930316 0.
0.692002 0.093034 0.
0.694002 0.0930364 0.
0.696003 0.0930397 0.
0.698003 0.0930432 0.
0.499995 0.0950377 0.
0.501996 0.0950354 0.
0.503996 0.095033 0.
0.505997 0.0950306 0.
0.507997 0.0950279 0.
0.509997 0.0950253 0.
0.511997 0.0950227 0.
0.513996 0.0950203 0.
0.515996 0.0950178 0.
0.517996 0.0950154 0.
0.519995 0.0950131 0.
0.521995 0.0950108 0.
0.523994 0.0950093 0.
0.525994 0.0950079 0.
0.527993 0.0950065 0.
0.529994 0.0950043 0.
0.531994 0.095002 0.
0.533994 0.0950001 0.
0.535994 0.094999 0.
0.537994 0.0949979 0.
0.539993 0.0949968 0.
0.541993 0.0949957 0.
0.543993 0.0949947 0.
0.545994 0.0949933 0.
0.547995 0.0949919 0.
0.549996 0.0949904 0.
0.551995 0.094989 0.
0.553995 0.0949876 0.
0.555995 0.0949863 0.
0.557996 0.0949856 0.
0.559996 0.0949849 0.
0.561996 0.0949842 0.
0.563996 0.0949837 0.
0.565997 0.0949831 0.
0.567997 0.094982 0.
0.569997 0.0949806 0.
0.571996 0.0949792 0.
0.573996 0.0949778 0.
0.575996 0.0949765 0.
0.577996 0.0949754 0.
0.579996 0.0949759 0.
0.581996 0.0949764 0.
0.583996 0.0949769 0.
0.585996 0.0949773 0.
0.587997 0.0949778 0.
0.589997 0.0949776 0.
0.591997 0.094977 0.
0.593998 0.0949764 0.
0.595998 0.0949763 0.
0.597999 0.0949763 0.
0.599999 0.0949763 0.
0.601999 0.0949763 0.
0.603999 0.0949764 0.
0.605999 0.0949764 0.
0.607998 0.0949766 0.
0.609998 0.0949768 0.
0.611998 0.0949773 0.
0.613999 0.094978 0.
0.616 0.0949787 0.
0.618 0.0949794 0.
0.62 0.09498 0.
0.622001 0.0949806 0.
0.624001 0.0949805 0.
0.626001 0.0949803 0.
0.628001 0.0949803 0.
0.630001 0.0949813 0.
0.632001 0.0949823 0.
0.634001 0.0949832 0.
0.636001 0.0949839 0.
0.638001 0.0949846 0.
0.640002 0.0949859 0.
0.642002 0.0949877 0.
0.644002 0.0949895 0.
0.646002 0.0949908 0.
0.648001 0.0949919 0.
0.649999 0.0949929 0.
0.652001 0.0949944 0.
0.654002 0.0949959 0.
0.656003 0.0949974 0.
0.658003 0.0949986 0.
0.660002 0.0949998 0.
0.662002 0.0950015 0.
0.664002 0.0950037 0.
0.666002 0.0950058 0.
0.668002 0.0950082 0.
0.670002 0.0950106 0.
0.672001 0.095013 0.
0.674001 0.095015 0.
0.676001 0.0950168 0.
0.678001 0.0950187 0.
0.680002 0.0950202 0.
0.682002 0.0950217 0.
0.684002 0.0950235 0.
0.686001 0.0950262 0.
0.688 0.0950288 0.
0.69 0.0950314 0.
0.692 0.0950338 0.
0.694 0.0950362 0.
0.696 0.0950394 0.
0.698 0.0950428 0.
0.499998 0.0970382 0.
0.501999 0.0970355 0.
0.504 0.0970327 0.
0.506 0.0970301 0.
0.508 0.0970277 0.
0.51 0.0970253 0.
0.512 0.0970228 0.
0.513999 0.0970203 0.
0.515999 0.0970177 0.
0.517998 0.0970153 0.
0.519997 0.097013 0.
0.521996 0.0970107 0.
0.523996 0.0970093 0.
0.525996 0.0970081 0.
0.527995 0.0970068 0.
0.529995 0.0970046 0.
0.531995 0.0970024 0.
0.533995 0.0970006 0.
0.535995 0.0969996 0.
0.537994 0.0969986 0.
0.539994 0.0969972 0.
0.541994 0.0969955 0.
0.543995 0.0969939 0.
0.545995 0.0969926 0.
0.547996 0.0969915 0.
0.549996 0.0969903 0.
0.551997 0.096989 0.
0.553997 0.0969877 0.
0.555997 0.0969865 0.
0.557997 0.0969856 0.
0.559997 0.0969847 0.
0.561997 0.096984 0.
0.563997 0.0969837 0.
0.565997 0.0969833 0.
0.567997 0.0969822 0.
0.569997 0.0969807 0.
0.571997 0.0969792 0.
0.573996 0.0969778 0.
0.575996 0.0969763 0.
0.577996 0.0969751 0.
0.579996 0.0969759 0.
0.581996 0.0969767 0.
0.583996 0.0969772 0.
0.585996 0.0969773 0.
0.587996 0.0969774 0.
0.589997 0.0969771 0.
0.591997 0.0969765 0.
0.593997 0.0969759 0.
0.595998 0.0969762 0.
0.597999 0.0969767 0.
0.599999 0.0969772 0.
0.601999 0.0969772 0.
0.603999 0.0969771 0.
0.605999 0.096977 0.
0.607999 0.0969767 0.
0.609998 0.0969765 0.
0.611998 0.0969767 0.
0.613998 0.0969776 0.
0.615999 0.0969785 0.
0.617999 0.0969794 0.
0.62 0.0969801 0.
0.622 0.0969809 0.
0.624 0.0969803 0.
0.626 0.0969796 0.
0.628 0.0969792 0.
0.63 0.096981 0.
0.632 0.0969828 0.
0.634 0.096984 0.
0.636 0.0969842 0.
0.638 0.0969843 0.
0.64 0.0969855 0.
0.642 0.0969876 0.
0.644001 0.0969896 0.
0.646001 0.0969905 0.
0.648 0.0969912 0.
0.65 0.0969918 0.
0.652 0.0969936 0.
0.654001 0.0969954 0.
0.656001 0.0969971 0.
0.658001 0.0969986 0.
0.66 0.0970001 0.
0.662 0.0970017 0.
0.664 0.0970037 0.
0.666 0.0970056 0.
0.668 0.0970081 0.
0.67 0.0970109 0.
0.672 0.0970137 0.
0.674 0.0970155 0.
0.675999 0.0970172 0.
0.677999 0.0970189 0.
0.679999 0.0970203 0.
0.681999 0.0970218 0.
0.683999 0.0970237 0.
0.685998 0.0970265 0.
0.687998 0.0970293 0.
0.689997 0.0970318 0.
0.691997 0.097034 0.
0.693997 0.0970362 0.
0.695997 0.0970393 0.
0.697997 0.0970427 0.
0.500001 0.0990388 0.
0.502002 0.0990355 0.
0.504003 0.0990324 0.
0.506004 0.0990296 0.
0.508003 0.0990274 0.
0.510003 0.0990253 0.
0.512002 0.0990229 0.
0.514002 0.0990203 0.
0.516002 0.0990176 0.
0.518001 0.0990152 0.
0.52 0.0990129 0.
0.521998 0.0990106 0.
0.523998 0.0990093 0.
0.525997 0.0990082 0.
0.527997 0.099007 0.
0.529997 0.0990049 0.
0.531996 0.0990027 0.
0.533996 0.099001 0.
0.535995 0.0990001 0.
0.537995 0.0989992 0.
0.539995 0.0989976 0.
0.541995 0.0989954 0.
0.543996 0.0989931 0.
0.545996 0.098992 0.
0.547997 0.0989911 0.
0.549997 0.0989902 0.
0.551998 0.098989 0.
0.553998 0.0989879 0.
0.555998 0.0989867 0.
0.557998 0.0989856 0.
0.559998 0.0989845 0.
0.561998 0.0989838 0.
0.563998 0.0989836 0.
0.565998 0.0989834 0.
0.567998 0.0989823 0.
0.569997 0.0989808 0.
0.571997 0.0989792 0.
0.573997 0.0989777 0.
0.575997 0.0989762 0.
0.577997 0.0989749 0.
0.579996 0.0989759 0.
0.581996 0.098977 0.
0.583996 0.0989776 0.
0.585996 0.0989773 0.
0.587996 0.0989771 0.
0.589996 0.0989766 0.
0.591996 0.098976 0.
0.593997 0.0989754 0.
0.595998 0.0989761 0.
0.597999 0.0989771 0.
0.6 0.0989781 0.
0.602 0.098978 0.
0.604 0.0989779 0.
0.606 0.0989776 0.
0.607999 0.0989769 0.
0.609998 0.0989761 0.
0.611997 0.0989762 0.
0.613998 0.0989773 0.
0.615998 0.0989784 0.
0.617998 0.0989793 0.
0.619999 0.0989803 0.
0.621999 0.0989812 0.
0.623999 0.0989802 0.
0.625999 0.098979 0.
0.627999 0.0989781 0.
0.629999 0.0989807 0.
0.631999 0.0989833 0.
0.633999 0.0989849 0.
0.635999 0.0989845 0.
0.637998 0.0989841 0.
0.639998 0.0989852 0.
0.641999 0.0989874 0.
0.643999 0.0989896 0.
0.646 0.0989903 0.
0.648 0.0989905 0.
0.650001 0.0989907 0.
0.652 0.0989928 0.
0.654 0.0989948 0.
0.655999 0.0989968 0.
0.657999 0.0989985 0.
0.659998 0.0990003 0.
0.661997 0.099002 0.
0.663998 0.0990037 0.
0.665998 0.0990054 0.
0.667998 0.0990081 0.
0.669998 0.0990112 0.
0.671998 0.0990144 0.
0.673998 0.099016 0.
0.675997 0.0990176 0.
0.677997 0.0990191 0.
0.679997 0.0990205 0.
0.681997 0.0990219 0.
0.683997 0.0990238 0.
0.685996 0.0990268 0.
0.687995 0.0990298 0.
0.689995 0.0990323 0.
0.691994 0.0990343 0.
0.693994 0.0990363 0.
0.695994 0.0990393 0.
0.697994 0.0990425 0.
CELLS 5000 10000
1 0
1 1
1 2
1 3
1 4
1 5
1 6
1 7
1 8
1 9
1 10
1 11
1 12
1 13
1 14
1 15
1 16
1 17
1 18
1 19
1 20
1 21
1 22
1 23
1 24
1 25
1 26
1 27
1 28
1 29
1 30
1 31
1 32
1 33
1 34
1 35
1 36
1 37
1 38
1 39
1 40
1 41
1 42
1 43
1 44
1 45
1 46
1 47
1 48
1 49
1 50
1 51
1 52
1 53
1 54
1 55
1 56
1 57
1 58
1 59
1 60
1 61
1 62
1 63
1 64
1 65
1 66
1 67
1 68
1 69
1 70
1 71
1 72
1 73
1 74
1 75
1 76
1 77
1 78
1 79
1 80
1 81
1 82
1 83
1 84
1 85
1 86
1 87
1 88
1 89
1 90
1 91
1 92
1 93
1 94
1 95
1 96
1 97
1 98
1 99
1 100
1 101
1 102
1 103
1 104
1 105
1 106
1 107
1 108
1 109
1 110
1 111
1 112
1 113
1 114
1 115
1 116
1 117
1 118
1 119
1 120
1 121
1 122
1 123
1 124
1 125
1 126
1 127
1 128
1 129
1 130
1 131
1 132
1 133
1 134
1 135
1 136
1 137
1 138
1 139
1 140
1 141
1 142
1 143
1 144
1 145
1 146
1 147
1 148
1 149
1 150
1 151
1 152
1 153
1 154
1 155
1 156
1 157
1 158
1 159
1 160
1 161
1 162
1 163
1 164
1 165
1 166
1 167
1 168
1 169
1 170
1 171
1 172
1 173
1 174
1 175
1 176
1 177
1 178
1 179
1 180
1 181
1 182
1 183
1 184
1 185
1 186
1 187
1 188
1 189
1 190
1 191
1 192
1 193
1 194
1 195
1 196
1 197
1 198
1 199
1 200
1 201
1 202
1 203
1 204
1 205
1 206
1 207
1 208
1 209
1 210
1 211
1 212
1 213
1 214
1 215
1 216
1 217
1 218
1 219
1 220
1 221
1 222
1 223
1 224
1 225
1 226
1 227
1 228
1 229
1 230
1 231
1 232
1 233
1 234
1 235
1 236
1 237
1 238
1 239
1 240
1 241
1 242
1 243
1 244
1 245
1 246
1 247
1 248
1 249
1 250
1 251
1 252
1 253
1 254
1 255
1 256
1 257
1 258
1 259
1 260
1 261
1 262
1 263
1 264
1 265
1 266
1 267
1 268
1 269
1 270
1 271
1 272
1 273
1 274
1 275
1 276
1 277
1 278
1 279
1 280
1 281
1 282
1 283
1 284
1 285
1 286
1 287
1 288
1 289
1 290
1 291
1 292
1 293
1 294
1 295
1 296
1 297
1 298
1 299
1 300
1 301
1 302
1 303
1 304
1 305
1 306
1 307
1 308
1 309
1 310
1 311
1 312
1 313
1 314
1 315
1 316
1 317
1 318
1 319
1 320
1 321
1 322
1 323
1 324
1 325
1 326
1 327
1 328
1 329
1 330
1 331
1 332
1 333
1 334
1 335
1 336
1 337
1 338
1 339
1 340
1 341
1 342
1 343
1 344
1 345
1 346
1 347
1 348
1 349
1 350
1 351
1 352
1 353
1 354
1 355
1 356
1 357
1 358
1 359
1 360
1 361
1 362
1 363
1 364
1 365
1 366
1 367
1 368
1 369
1 370
1 371
1 372
1 373
1 374
1 375
1 376
1 377
1 378
1 379
1 380
1 381
1 382
1 383
1 384
1 385
1 386
1 387
1 388
1 389
1 390
1 391
1 392
1 393
1 394
1 395
1 396
1 397
1 398
1 399
1 400
1 401
1 402
1 403
1 404
1 405
1 406
1 407
1 408
1 409
1 410
1 411
1 412
1 413
1 414
1 415
1 416
1 417
1 418
1 419
1 420
1 421
1 422
1 423
1 424
1 425
1 426
1 427
1 428
1 429
1 430
1 431
1 432
1 433
1 434
1 435
1 436
1 437
1 438
1 439
1 440
1 441
1 442
1 443
1 444
1 445
1 446
1 447
1 448
1 449
1 450
1 451
1 452
1 453
1 454
1 455
1 456
1 457
1 458
1 459
1 460
1 461
1 462
1 463
1 464
1 465
1 466
1 467
1 468
1 469
1 470
1 471
1 472
1 473
1 474
1 475
1 476
1 477
1 478
1 479
1 480
1 481
1 482
1 483
1 484
1 485
1 486
1 487
1 488
1 489
1 490
1 491
1 492
1 493
1 494
1 495
1 496
1 497
1 498
1 499
1 500
1 501
1 502
1 503
1 504
1 505
1 506
1 507
1 508
1 509
1 510
1 511
1 512
1 513
1 514
1 515
1 516
1 517
1 518
1 519
1 520
1 521
1 522
1 523
1 524
1 525
1 526
1 527
1 528
1 529
1 530
1 531
1 532
1 533
1 534
1 535
1 536
1 537
1 538
1 539
1 540
1 541
1 542
1 543
1 544
1 545
1 546
1 547
1 548
1 549
1 550
1 551
1 552
1 553
1 554
1 555
1 556
1 557
1 558
1 559
1 560
1 561
1 562
1 563
1 564
1 565
1 566
1 567
1 568
1 569
1 570
1 571
1 572
1 573
1 574
1 575
1 576
1 577
1 578
1 579
1 580
1 581
1 582
1 583
1 584
1 585
1 586
1 587
1 588
1 589
1 590
1 591
1 592
1 593
1 594
1 595
1 596
1 597
1 598
1 599
1 600
1 601
1 602
1 603
1 604
1 605
1 606
1 607
1 608
1 609
1 610
1 611
1 612
1 613
1 614
1 615
1 616
1 617
1 618
1 619
1 620
1 621
1 622
1 623
1 624
1 625
1 626
1 627
1 628
1 629
1 630
1 631
1 632
1 633
1 634
1 635
1 636
1 637
1 638
1 639
1 640
1 641
1 642
1 643
1 644
1 645
1 646
1 647
1 648
1 649
1 650
1 651
1 652
1 653
1 654
1 655
1 656
1 657
1 658
1 659
1 660
1 661
1 662
1 663
1 664
1 665
1 666
1 667
1 668
1 669
1 670
1 671
1 672
1 673
1 674
1 675
1 676
1 677
1 678
1 679
1 680
1 681
1 682
1 683
1 684
1 685
1 686
1 687
1 688
1 689
1 690
1 691
1 692
1 693
1 694
1 695
1 696
1 697
1 698
1 699
1 700
1 701
1 702
1 703
1 704
1 705
1 706
1 707
1 708
1 709
1 710
1 711
1 712
1 713
1 714
1 715
1 716
1 717
1 718
1 719
1 720
1 721
1 722
1 723
1 724
1 725
1 726
1 727
1 728
1 729
1 730
1 731
1 732
1 733
1 734
1 735
1 736
1 737
1 738
1 739
1 740
1 741
1 742
1 743
1 744
1 745
1 746
1 747
1 748
1 749
1 750
1 751
1 752
1 753
1 754
1 755
1 756
1 757
1 758
1 759
1 760
1 761
1 762
1 763
1 764
1 765
1 766
1 767
1 768
1 769
1 770
1 771
1 772
1 773
1 774
1 775
1 776
1 777
1 778
1 779
1 780
1 781
1 782
1 783
1 784
1 785
1 786
1 787
1 788
1 789
1 790
1 791
1 792
1 793
1 794
1 795
1 796
1 797
1 798
1 799
1 800
1 801
1 802
1 803
1 804
1 805
1 806
1 807
1 808
1 809
1 810
1 811
1 812
1 813
1 814
1 815
1 816
1 817
1 818
1 819
1 820
1 821
1 822
1 823
1 824
1 825
1 826
1 827
1 828
1 829
1 830
1 831
1 832
1 833
1 834
1 835
1 836
1 837
1 838
1 839
1 840
1 841
1 842
1 843
1 844
1 845
1 846
1 847
1 848
1 849
1 850
1 851
1 852
1 853
1 854
1 855
1 856
1 857
1 858
1 859
1 860
1 861
1 862
1 863
1 864
1 865
1 866
1 867
1 868
1 869
1 870
1 871
1 872
1 873
1 874
1 875
1 876
1 877
1 878
1 879
1 880
1 881
1 882
1 883
1 884
1 885
1 886
1 887
1 888
1 889
1 890
1 891
1 892
1 893
1 894
1 895
1 896
1 897
1 898
1 899
1 900
1 901
1 902
1 903
1 904
1 905
1 906
1 907
1 908
1 909
1 910
1 911
1 912
1 913
1 914
1 915
1 916
1 917
1 918
1 919
1 920
1 921
1 922
1 923
1 924
1 925
1 926
1 927
1 928
1 929
1 930
1 931
1 932
1 933
1 934
1 935
1 936
1 937
1 938
1 939
1 940
1 941
1 942
1 943
1 944
1 945
1 946
1 947
1 948
1 949
1 950
1 951
1 952
1 953
1 954
1 955
1 956
1 957
1 958
1 959
1 960
1 961
1 962
1 963
1 964
1 965
1 966
1 967
1 968
1 969
1 970
1 971
1 972
1 973
1 974
1 975
1 976
1 977
1 978
1 979
1 980
1 981
1 982
1 983
1 984
1 985
1 986
1 987
1 988
1 989
1 990
1 991
1 992
1 993
1 994
1 995
1 996
1 997
1 998
1 999
1 1000
1 1001
1 1002
1 1003
1 1004
1 1005
1 1006
1 1007
1 1008
1 1009
1 1010
1 1011
1 1012
1 1013
1 1014
1 1015
1 1016
1 1017
1 1018
1 1019
1 1020
1 1021
1 1022
1 1023
1 1024
1 1025
1 1026
1 1027
1 1028
1 1029
1 1030
1 1031
1 1032
1 1033
1 1034
1 1035
1 1036
1 1037
1 1038
1 1039
1 1040
1 1041
1 1042
1 1043
1 1044
1 1045
1 1046
1 1047
1 1048
1 1049
1 1050
1 1051
1 1052
1 1053
1 1054
1 1055
1 1056
1 1057
1 1058
1 1059
1 1060
1 1061
1 1062
1 1063
1 1064
1 1065
1 1066
1 1067
1 1068
1 1069
1 1070
1 1071
1 1072
1 1073
1 1074
1 1075
1 1076
1 1077
1 1078
1 1079
1 1080
1 1081
1 1082
1 1083
1 1084
1 1085
1 1086
1 1087
1 1088
1 1089
1 1090
1 1091
1 1092
1 1093
1 1094
1 1095
1 1096
1 1097
1 1098
1 1099
1 1100
1 1101
1 1102
1 1103
1 1104
1 1105
1 1106
1 1107
1 1108
1 1109
1 1110
1 1111
1 1112
1 1113
1 1114
1 1115
1 1116
1 1117
1 1118
1 1119
1 1120
1 1121
1 1122
1 1123
1 1124
1 1125
1 1126
1 1127
1 1128
1 1129
1 1130
1 1131
1 1132
1 1133
1 1134
1 1135
1 1136
1 1137
1 1138
1 1139
1 1140
1 1141
1 1142
1 1143
1 1144
1 1145
1 1146
1 1147
1 1148
1 1149
1 1150
1 1151
1 1152
1 1153
1 1154
1 1155
1 1156
1 1157
1 1158
1 1159
1 1160
1 1161
1 1162
1 1163
1 1164
1 1165
1 1166
1 1167
1 1168
1 1169
1 1170
1 1171
1 1172
1 1173
1 1174
1 1175
1 1176
1 1177
1 1178
1 1179
1 1180
1 1181
1 1182
1 1183
1 1184
1 1185
1 1186
1 1187
1 1188
1 1189
1 1190
1 1191
1 1192
1 1193
1 1194
1 1195
1 1196
1 1197
1 1198
1 1199
1 1200
1 1201
1 1202
1 1203
1 1204
1 1205
1 1206
1 1207
1 1208
1 1209
1 1210
1 1211
1 1212
1 1213
1 1214
1 1215
1 1216
1 1217
1 1218
1 1219
1 1220
1 1221
1 1222
1 1223
1 1224
1 1225
1 1226
1 1227
1 1228
1 1229
1 1230
1 1231
1 1232
1 1233
1 1234
1 1235
1 1236
1 1237
1 1238
1 1239
1 1240
1 1241
1 1242
1 1243
1 1244
1 1245
1 1246
1 1247
1 1248
1 1249
1 1250
1 1251
1 1252
1 1253
1 1254
1 1255
1 1256
1 1257
1 1258
1 1259
1 1260
1 1261
1 1262
1 1263
1 1264
1 1265
1 1266
1 1267
1 1268
1 1269
1 1270
1 1271
1 1272
1 1273
1 1274
1 1275
1 1276
1 1277
1 1278
1 1279
1 1280
1 1281
1 1282
1 1283
1 1284
1 1285
1 1286
1 1287
1 1288
1 1289
1 1290
1 1291
1 1292
1 1293
1 1294
1 1295
1 1296
1 1297
1 1298
1 1299
1 1300
1 1301
1 1302
1 1303
1 1304
1 1305
1 1306
1 1307
1 1308
1 1309
1 1310
1 1311
1 1312
1 1313
1 1314
1 1315
1 1316
1 1317
1 1318
1 1319
1 1320
1 1321
1 1322
1 1323
1 1324
1 1325
1 1326
1 1327
1 1328
1 1329
1 1330
1 1331
1 1332
1 1333
1 1334
1 1335
1 1336
1 1337
1 1338
1 1339
1 1340
1 1341
1 1342
1 1343
1 1344
1 1345
1 1346
1 1347
1 1348
1 1349
1 1350
1 1351
1 1352
1 1353
1 1354
1 1355
1 1356
1 1357
1 1358
1 1359
1 1360
1 1361
1 1362
1 1363
1 1364
1 1365
1 1366
1 1367
1 1368
1 1369
1 1370
1 1371
1 1372
1 1373
1 1374
1 1375
1 1376
1 1377
1 1378
1 1379
1 1380
1 1381
1 1382
1 1383
1 1384
1 1385
1 1386
1 1387
1 1388
1 1389
1 1390
1 1391
1 1392
1 1393
1 1394
1 1395
1 1396
1 1397
1 1398
1 1399
1 1400
1 1401
1 1402
1 1403
1 1404
1 1405
1 1406
1 1407
1 1408
1 1409
1 1410
1 1411
1 1412
1 1413
1 1414
1 1415
1 1416
1 1417
1 1418
1 1419
1 1420
1 1421
1 1422
1 1423
1 1424
1 1425
1 1426
1 1427
1 1428
1 1429
1 1430
1 1431
1 1432
1 1433
1 1434
1 1435
1 1436
1 1437
1 1438
1 1439
1 1440
1 1441
1 1442
1 1443
1 1444
1 1445
1 1446
1 1447
1 1448
1 1449
1 1450
1 1451
1 1452
1 1453
1 1454
1 1455
1 1456
1 1457
1 1458
1 1459
1 1460
1 1461
1 1462
1 1463
1 1464
1 1465
1 1466
1 1467
1 1468
1 1469
1 1470
1 1471
1 1472
1 1473
1 1474
1 1475
1 1476
1 1477
1 1478
1 1479
1 1480
1 1481
1 1482
1 1483
1 1484
1 1485
1 1486
1 1487
1 1488
1 1489
1 1490
1 1491
1 1492
1 1493
1 1494
1 1495
1 1496
1 1497
1 1498
1 1499
1 1500
1 1501
1 1502
1 1503
1 1504
1 1505
1 1506
1 1507
1 1508
1 1509
1 1510
1 1511
1 1512
1 1513
1 1514
1 1515
1 1516
1 1517
1 1518
1 1519
1 1520
1 1521
1 1522
1 1523
1 1524
1 1525
1 1526
1 1527
1 1528
1 1529
1 1530
1 1531
1 1532
1 1533
1 1534
1 1535
1 1536
1 1537
1 1538
1 1539
1 1540
1 1541
1 1542
1 1543
1 1544
1 1545
1 1546
1 1547
1 1548
1 1549
1 1550
1 1551
1 1552
1 1553
1 1554
1 1555
1 1556
1 1557
1 1558
1 1559
1 1560
1 1561
1 1562
1 1563
1 1564
1 1565
1 1566
1 1567
1 1568
1 1569
1 1570
1 1571
1 1572
1 1573
1 1574
1 1575
1 1576
1 1577
1 1578
1 1579
1 1580
1 1581
1 1582
1 1583
1 1584
1 1585
1 1586
1 1587
1 1588
1 1589
1 1590
1 1591
1 1592
1 1593
1 1594
1 1595
1 1596
1 1597
1 1598
1 1599
1 1600
1 1601
1 1602
1 1603
1 1604
1 1605
1 1606
1 1607
1 1608
1 1609
1 1610
1 1611
1 1612
1 1613
1 1614
1 1615
1 1616
1 1617
1 1618
1 1619
1 1620
1 1621
1 1622
1 1623
1 1624
1 1625
1 1626
1 1627
1 1628
1 1629
1 1630
1 1631
1 1632
1 1633
1 1634
1 1635
1 1636
1 1637
1 1638
1 1639
1 1640
1 1641
1 1642
1 1643
1 1644
1 1645
1 1646
1 1647
1 1648
1 1649
1 1650
1 1651
1 1652
1 1653
1 1654
1 1655
1 1656
1 1657
1 1658
1 1659
1 1660
1 1661
1 1662
1 1663
1 1664
1 1665
1 1666
1 1667
1 1668
1 1669
1 1670
1 1671
1 1672
1 1673
1 1674
1 1675
1 1676
1 1677
1 1678
1 1679
1 1680
1 1681
1 1682
1 1683
1 1684
1 1685
1 1686
1 1687
1 1688
1 1689
1 1690
1 1691
1 1692
1 1693
1 1694
1 1695
1 1696
1 1697
1 1698
1 1699
1 1700
1 1701
1 1702
1 1703
1 1704
1 1705
1 1706
1 1707
1 1708
1 1709
1 1710
1 1711
1 1712
1 1713
1 1714
1 1715
1 1716
1 1717
1 1718
1 1719
1 1720
1 1721
1 1722
1 1723
1 1724
1 1725
1 1726
1 1727
1 1728
1 1729
1 1730
1 1731
1 1732
1 1733
1 1734
1 1735
1 1736
1 1737
1 1738
1 1739
1 1740
1 1741
1 1742
1 1743
1 1744
1 1745
1 1746
1 1747
1 1748
1 1749
1 1750
1 1751
1 1752
1 1753
1 1754
1 1755
1 1756
1 1757
1 1758
1 1759
1 1760
1 1761
1 1762
1 1763
1 1764
1 1765
1 1766
1 1767
1 1768
1 1769
1 1770
1 1771
1 1772
1 1773
1 1774
1 1775
1 1776
1 1777
1 1778
1 1779
1 1780
1 1781
1 1782
1 1783
1 1784
1 1785
1 1786
1 1787
1 1788
1 1789
1 1790
1 1791
1 1792
1 1793
1 1794
1 1795
1 1796
1 1797
1 1798
1 1799
1 1800
1 1801
1 1802
1 1803
1 1804
1 1805
1 1806
1 1807
1 1808
1 1809
1 1810
1 1811
1 1812
1 1813
1 1814
1 1815
1 1816
1 1817
1 1818
1 1819
1 1820
1 1821
1 1822
1 1823
1 1824
1 1825
1 1826
1 1827
1 1828
1 1829
1 1830
1 1831
1 1832
1 1833
1 1834
1 1835
1 1836
1 1837
1 1838
1 1839
1 1840
1 1841
1 1842
1 1843
1 1844
1 1845
1 1846
1 1847
1 1848
1 1849
1 1850
1 1851
1 1852
1 1853
1 1854
1 1855
1 1856
1 1857
1 1858
1 1859
1 1860
1 1861
1 1862
1 1863
1 1864
1 1865
1 1866
1 1867
1 1868
1 1869
1 1870
1 1871
1 1872
1 1873
1 1874
1 1875
1 1876
1 1877
1 1878
1 1879
1 1880
1 1881
1 1882
1 1883
1 1884
1 1885
1 1886
1 1887
1 1888
1 1889
1 1890
1 1891
1 1892
1 1893
1 1894
1 1895
1 1896
1 1897
1 1898
1 1899
1 1900
1 1901
1 1902
1 1903
1 1904
1 1905
1 1906
1 1907
1 1908
1 1909
1 1910
1 1911
1 1912
1 1913
1 1914
1 1915
1 1916
1 1917
1 1918
1 1919
1 1920
1 1921
1 1922
1 1923
1 1924
1 1925
1 1926
1 1927
1 1928
1 1929
1 1930
1 1931
1 1932
1 1933
1 1934
1 1935
1 1936
1 1937
1 1938
1 1939
1 1940
1 1941
1 1942
1 1943
1 1944
1 1945
1 1946
1 1947
1 1948
1 1949
1 1950
1 1951
1 1952
1 1953
1 1954
1 1955
1 1956
1 1957
1 1958
1 1959
1 1960
1 1961
1 1962
1 1963
1 1964
1 1965
1 1966
1 1967
1 1968
1 1969
1 1970
1 1971
1 1972
1 1973
1 1974
1 1975
1 1976
1 1977
1 1978
1 1979
1 1980
1 1981
1 1982
1 1983
1 1984
1 1985
1 1986
1 1987
1 1988
1 1989
1 1990
1 1991
1 1992
1 1993
1 1994
1 1995
1 1996
1 1997
1 1998
1 1999
1 2000
1 2001
1 2002
1 2003
1 2004
1 2005
1 2006
1 2007
1 2008
1 2009
1 2010
1 2011
1 2012
1 2013
1 2014
1 2015
1 2016
1 2017
1 2018
1 2019
1 2020
1 2021
1 2022
1 2023
1 2024
1 2025
1 2026
1 2027
1 2028
1 2029
1 2030
1 2031
1 2032
1 2033
1 2034
1 2035
1 2036
1 2037
1 2038
1 2039
1 2040
1 2041
1 2042
1 2043
1 2044
1 2045
1 2046
1 2047
1 2048
1 2049
1 2050
1 2051
1 2052
1 2053
1 2054
1 2055
1 2056
1 2057
1 2058
1 2059
1 2060
1 2061
1 2062
1 2063
1 2064
1 2065
1 2066
1 2067
1 2068
1 2069
1 2070
1 2071
1 2072
1 2073
1 2074
1 2075
1 2076
1 2077
1 2078
1 2079
1 2080
1 2081
1 2082
1 2083
1 2084
1 2085
1 2086
1 2087
1 2088
1 2089
1 2090
1 2091
1 2092
1 2093
1 2094
1 2095
1 2096
1 2097
1 2098
1 2099
1 2100
1 2101
1 2102
1 2103
1 2104
1 2105
1 2106
1 2107
1 2108
1 2109
1 2110
1 2111
1 2112
1 2113
1 2114
1 2115
1 2116
1 2117
1 2118
1 2119
1 2120
1 2121
1 2122
1 2123
1 2124
1 2125
1 2126
1 2127
1 2128
1 2129
1 2130
1 2131
1 2132
1 2133
1 2134
1 2135
1 2136
1 2137
1 2138
1 2139
1 2140
1 2141
1 2142
1 2143
1 2144
1 2145
1 2146
1 2147
1 2148
1 2149
1 2150
1 2151
1 2152
1 2153
1 2154
1 2155
1 2156
1 2157
1 2158
1 2159
1 2160
1 2161
1 2162
1 2163
1 2164
1 2165
1 2166
1 2167
1 2168
1 2169
1 2170
1 2171
1 2172
1 2173
1 2174
1 2175
1 2176
1 2177
1 2178
1 2179
1 2180
1 2181
1 2182
1 2183
1 2184
1 2185
1 2186
1 2187
1 2188
1 2189
1 2190
1 2191
1 2192
1 2193
1 2194
1 2195
1 2196
1 2197
1 2198
1 2199
1 2200
1 2201
1 2202
1 2203
1 2204
1 2205
1 2206
1 2207
1 2208
1 2209
1 2210
1 2211
1 2212
1 2213
1 2214
1 2215
1 2216
1 2217
1 2218
1 2219
1 2220
1 2221
1 2222
1 2223
1 2224
1 2225
1 2226
1 2227
1 2228
1 2229
1 2230
1 2231
1 2232
1 2233
1 2234
1 2235
1 2236
1 2237
1 2238
1 2239
1 2240
1 2241
1 2242
1 2243
1 2244
1 2245
1 2246
1 2247
1 2248
1 2249
1 2250
1 2251
1 2252
1 2253
1 2254
1 2255
1 2256
1 2257
1 2258
1 2259
1 2260
1 2261
1 2262
1 2263
1 2264
1 2265
1 2266
1 2267
1 2268
1 2269
1 2270
1 2271
1 2272
1 2273
1 2274
1 2275
1 2276
1 2277
1 2278
1 2279
1 2280
1 2281
1 2282
1 2283
1 2284
1 2285
1 2286
1 2287
1 2288
1 2289
1 2290
1 2291
1 2292
1 2293
1 2294
1 2295
1 2296
1 2297
1 2298
1 2299
1 2300
1 2301
1 2302
1 2303
1 2304
1 2305
1 2306
1 2307
1 2308
1 2309
1 2310
1 2311
1 2312
1 2313
1 2314
1 2315
1 2316
1 2317
1 2318
1 2319
1 2320
1 2321
1 2322
1 2323
1 2324
1 2325
1 2326
1 2327
1 2328
1 2329
1 2330
1 2331
1 2332
1 2333
1 2334
1 2335
1 2336
1 2337
1 2338
1 2339
1 2340
1 2341
1 2342
1 2343
1 2344
1 2345
1 2346
1 2347
1 2348
1 2349
1 2350
1 2351
1 2352
1 2353
1 2354
1 2355
1 2356
1 2357
1 2358
1 2359
1 2360
1 2361
1 2362
1 2363
1 2364
1 2365
1 2366
1 2367
1 2368
1 2369
1 2370
1 2371
1 2372
1 2373
1 2374
1 2375
1 2376
1 2377
1 2378
1 2379
1 2380
1 2381
1 2382
1 2383
1 2384
1 2385
1 2386
1 2387
1 2388
1 2389
1 2390
1 2391
1 2392
1 2393
1 2394
1 2395
1 2396
1 2397
1 2398
1 2399
1 2400
1 2401
1 2402
1 2403
1 2404
1 2405
1 2406
1 2407
1 2408
1 2409
1 2410
1 2411
1 2412
1 2413
1 2414
1 2415
1 2416
1 2417
1 2418
1 2419
1 2420
1 2421
1 2422
1 2423
1 2424
1 2425
1 2426
1 2427
1 2428
1 2429
1 2430
1 2431
1 2432
1 2433
1 2434
1 2435
1 2436
1 2437
1 2438
1 2439
1 2440
1 2441
1 2442
1 2443
1 2444
1 2445
1 2446
1 2447
1 2448
1 2449
1 2450
1 2451
1 2452
1 2453
1 2454
1 2455
1 2456
1 2457
1 2458
1 2459
1 2460
1 2461
1 2462
1 2463
1 2464
1 2465
1 2466
1 2467
1 2468
1 2469
1 2470
1 2471
1 2472
1 2473
1 2474
1 2475
1 2476
1 2477
1 2478
1 2479
1 2480
1 2481
1 2482
1 2483
1 2484
1 2485
1 2486
1 2487
1 2488
1 2489
1 2490
1 2491
1 2492
1 2493
1 2494
1 2495
1 2496
1 2497
1 2498
1 2499
1 2500
1 2501
1 2502
1 2503
1 2504
1 2505
1 2506
1 2507
1 2508
1 2509
1 2510
1 2511
1 2512
1 2513
1 2514
1 2515
1 2516
1 2517
1 2518
1 2519
1 2520
1 2521
1 2522
1 2523
1 2524
1 2525
1 2526
1 2527
1 2528
1 2529
1 2530
1 2531
1 2532
1 2533
1 2534
1 2535
1 2536
1 2537
1 2538
1 2539
1 2540
1 2541
1 2542
1 2543
1 2544
1 2545
1 2546
1 2547
1 2548
1 2549
1 2550
1 2551
1 2552
1 2553
1 2554
1 2555
1 2556
1 2557
1 2558
1 2559
1 2560
1 2561
1 2562
1 2563
1 2564
1 2565
1 2566
1 2567
1 2568
1 2569
1 2570
1 2571
1 2572
1 2573
1 2574
1 2575
1 2576
1 2577
1 2578
1 2579
1 2580
1 2581
1 2582
1 2583
1 2584
1 2585
1 2586
1 2587
1 2588
1 2589
1 2590
1 2591
1 2592
1 2593
1 2594
1 2595
1 2596
1 2597
1 2598
1 2599
1 2600
1 2601
1 2602
1 2603
1 2604
1 2605
1 2606
1 2607
1 2608
1 2609
1 2610
1 2611
1 2612
1 2613
1 2614
1 2615
1 2616
1 2617
1 2618
1 2619
1 2620
1 2621
1 2622
1 2623
1 2624
1 2625
1 2626
1 2627
1 2628
1 2629
1 2630
1 2631
1 2632
1 2633
1 2634
1 2635
1 2636
1 2637
1 2638
1 2639
1 2640
1 2641
1 2642
1 2643
1 2644
1 2645
1 2646
1 2647
1 2648
1 2649
1 2650
1 2651
1 2652
1 2653
1 2654
1 2655
1 2656
1 2657
1 2658
1 2659
1 2660
1 2661
1 2662
1 2663
1 2664
1 2665
1 2666
1 2667
1 2668
1 2669
1 2670
1 2671
1 2672
1 2673
1 2674
1 2675
1 2676
1 2677
1 2678
1 2679
1 2680
1 2681
1 2682
1 2683
1 2684
1 2685
1 2686
1 2687
1 2688
1 2689
1 2690
1 2691
1 2692
1 2693
1 2694
1 2695
1 2696
1 2697
1 2698
1 2699
1 2700
1 2701
1 2702
1 2703
1 2704
1 2705
1 2706
1 2707
1 2708
1 2709
1 2710
1 2711
1 2712
1 2713
1 2714
1 2715
1 2716
1 2717
1 2718
1 2719
1 2720
1 2721
1 2722
1 2723
1 2724
1 2725
1 2726
1 2727
1 2728
1 2729
1 2730
1 2731
1 2732
1 2733
1 2734
1 2735
1 2736
1 2737
1 2738
1 2739
1 2740
1 2741
1 2742
1 2743
1 2744
1 2745
1 2746
1 2747
1 2748
1 2749
1 2750
1 2751
1 2752
1 2753
1 2754
1 2755
1 2756
1 2757
1 2758
1 2759
1 2760
1 2761
1 2762
1 2763
1 2764
1 2765
1 2766
1 2767
1 2768
1 2769
1 2770
1 2771
1 2772
1 2773
1 2774
1 2775
1 2776
1 2777
1 2778
1 2779
1 2780
1 2781
1 2782
1 2783
1 2784
1 2785
1 2786
1 2787
1 2788
1 2789
1 2790
1 2791
1 2792
1 2793
1 2794
1 2795
1 2796
1 2797
1 2798
1 2799
1 2800
1 2801
1 2802
1 2803
1 2804
1 2805
1 2806
1 2807
1 2808
1 2809
1 2810
1 2811
1 2812
1 2813
1 2814
1 2815
1 2816
1 2817
1 2818
1 2819
1 2820
1 2821
1 2822
1 2823
1 2824
1 2825
1 2826
1 2827
1 2828
1 2829
1 2830
1 2831
1 2832
1 2833
1 2834
1 2835
1 2836
1 2837
1 2838
1 2839
1 2840
1 2841
1 2842
1 2843
1 2844
1 2845
1 2846
1 2847
1 2848
1 2849
1 2850
1 2851
1 2852
1 2853
1 2854
1 2855
1 2856
1 2857
1 2858
1 2859
1 2860
1 2861
1 2862
1 2863
1 2864
1 2865
1 2866
1 2867
1 2868
1 2869
1 2870
1 2871
1 2872
1 2873
1 2874
1 2875
1 2876
1 2877
1 2878
1 2879
1 2880
1 2881
1 2882
1 2883
1 2884
1 2885
1 2886
1 2887
1 2888
1 2889
1 2890
1 2891
1 2892
1 2893
1 2894
1 2895
1 2896
1 2897
1 2898
1 2899
1 2900
1 2901
1 2902
1 2903
1 2904
1 2905
1 2906
1 2907
1 2908
1 2909
1 2910
1 2911
1 2912
1 2913
1 2914
1 2915
1 2916
1 2917
1 2918
1 2919
1 2920
1 2921
1 2922
1 2923
1 2924
1 2925
1 2926
1 2927
1 2928
1 2929
1 2930
1 2931
1 2932
1 2933
1 2934
1 2935
1 2936
1 2937
1 2938
1 2939
1 2940
1 2941
1 2942
1 2943
1 2944
1 2945
1 2946
1 2947
1 2948
1 2949
1 2950
1 2951
1 2952
1 2953
1 2954
1 2955
1 2956
1 2957
1 2958
1 2959
1 2960
1 2961
1 2962
1 2963
1 2964
1 2965
1 2966
1 2967
1 2968
1 2969
1 2970
1 2971
1 2972
1 2973
1 2974
1 2975
1 2976
1 2977
1 2978
1 2979
1 2980
1 2981
1 2982
1 2983
1 2984
1 2985
1 2986
1 2987
1 2988
1 2989
1 2990
1 2991
1 2992
1 2993
1 2994
1 2995
1 2996
1 2997
1 2998
1 2999
1 3000
1 3001
1 3002
1 3003
1 3004
1 3005
1 3006
1 3007
1 3008
1 3009
1 3010
1 3011
1 3012
1 3013
1 3014
1 3015
1 3016
1 3017
1 3018
1 3019
1 3020
1 3021
1 3022
1 3023
1 3024
1 3025
1 3026
1 3027
1 3028
1 3029
1 3030
1 3031
1 3032
1 3033
1 3034
1 3035
1 3036
1 3037
1 3038
1 3039
1 3040
1 3041
1 3042
1 3043
1 3044
1 3045
1 3046
1 3047
1 3048
1 3049
1 3050
1 3051
1 3052
1 3053
1 3054
1 3055
1 3056
1 3057
1 3058
1 3059
1 3060
1 3061
1 3062
1 3063
1 3064
1 3065
1 3066
1 3067
1 3068
1 3069
1 3070
1 3071
1 3072
1 3073
1 3074
1 3075
1 3076
1 3077
1 3078
1 3079
1 3080
1 3081
1 3082
1 3083
1 3084
1 3085
1 3086
1 3087
1 3088
1 3089
1 3090
1 3091
1 3092
1 3093
1 3094
1 3095
1 3096
1 3097
1 3098
1 3099
1 3100
1 3101
1 3102
1 3103
1 3104
1 3105
1 3106
1 3107
1 3108
1 3109
1 3110
1 3111
1 3112
1 3113
1 3114
1 3115
1 3116
1 3117
1 3118
1 3119
1 3120
1 3121
1 3122
1 3123
1 3124
1 3125
1 3126
1 3127
1 3128
1 3129
1 3130
1 3131
1 3132
1 3133
1 3134
1 3135
1 3136
1 3137
1 3138
1 3139
1 3140
1 3141
1 3142
1 3143
1 3144
1 3145
1 3146
1 3147
1 3148
1 3149
1 3150
1 3151
1 3152
1 3153
1 3154
1 3155
1 3156
1 3157
1 3158
1 3159
1 3160
1 3161
1 3162
1 3163
1 3164
1 3165
1 3166
1 3167
1 3168
1 3169
1 3170
1 3171
1 3172
1 3173
1 3174
1 3175
1 3176
1 3177
1 3178
1 3179
1 3180
1 3181
1 3182
1 3183
1 3184
1 3185
1 3186
1 3187
1 3188
1 3189
1 3190
1 3191
1 3192
1 3193
1 3194
1 3195
1 3196
1 3197
1 3198
1 3199
1 3200
1 3201
1 3202
1 3203
1 3204
1 3205
1 3206
1 3207
1 3208
1 3209
1 3210
1 3211
1 3212
1 3213
1 3214
1 3215
1 3216
1 3217
1 3218
1 3219
1 3220
1 3221
1 3222
1 3223
1 3224
1 3225
1 3226
1 3227
1 3228
1 3229
1 3230
1 3231
1 3232
1 3233
1 3234
1 3235
1 3236
1 3237
1 3238
1 3239
1 3240
1 3241
1 3242
1 3243
1 3244
1 3245
1 3246
1 3247
1 3248
1 3249
1 3250
1 3251
1 3252
1 3253
1 3254
1 3255
1 3256
1 3257
1 3258
1 3259
1 3260
1 3261
1 3262
1 3263
1 3264
1 3265
1 3266
1 3267
1 3268
1 3269
1 3270
1 3271
1 3272
1 3273
1 3274
1 3275
1 3276
1 3277
1 3278
1 3279
1 3280
1 3281
1 3282
1 3283
1 3284
1 3285
1 3286
1 3287
1 3288
1 3289
1 3290
1 3291
1 3292
1 3293
1 3294
1 3295
1 3296
1 3297
1 3298
1 3299
1 3300
1 3301
1 3302
1 3303
1 3304
1 3305
1 3306
1 3307
1 3308
1 3309
1 3310
1 3311
1 3312
1 3313
1 3314
1 3315
1 3316
1 3317
1 3318
1 3319
1 3320
1 3321
1 3322
1 3323
1 3324
1 3325
1 3326
1 3327
1 3328
1 3329
1 3330
1 3331
1 3332
1 3333
1 3334
1 3335
1 3336
1 3337
1 3338
1 3339
1 3340
1 3341
1 3342
1 3343
1 3344
1 3345
1 3346
1 3347
1 3348
1 3349
1 3350
1 3351
1 3352
1 3353
1 3354
1 3355
1 3356
1 3357
1 3358
1 3359
1 3360
1 3361
1 3362
1 3363
1 3364
1 3365
1 3366
1 3367
1 3368
1 3369
1 3370
1 3371
1 3372
1 3373
1 3374
1 3375
1 3376
1 3377
1 3378
1 3379
1 3380
1 3381
1 3382
1 3383
1 3384
1 3385
1 3386
1 3387
1 3388
1 3389
1 3390
1 3391
1 3392
1 3393
1 3394
1 3395
1 3396
1 3397
1 3398
1 3399
1 3400
1 3401
1 3402
1 3403
1 3404
1 3405
1 3406
1 3407
1 3408
1 3409
1 3410
1 3411
1 3412
1 3413
1 3414
1 3415
1 3416
1 3417
1 3418
1 3419
1 3420
1 3421
1 3422
1 3423
1 3424
1 3425
1 3426
1 3427
1 3428
1 3429
1 3430
1 3431
1 3432
1 3433
1 3434
1 3435
1 3436
1 3437
1 3438
1 3439
1 3440
1 3441
1 3442
1 3443
1 3444
1 3445
1 3446
1 3447
1 3448
1 3449
1 3450
1 3451
1 3452
1 3453
1 3454
1 3455
1 3456
1 3457
1 3458
1 3459
1 3460
1 3461
1 3462
1 3463
1 3464
1 3465
1 3466
1 3467
1 3468
1 3469
1 3470
1 3471
1 3472
1 3473
1 3474
1 3475
1 3476
1 3477
1 3478
1 3479
1 3480
1 3481
1 3482
1 3483
1 3484
1 3485
1 3486
1 3487
1 3488
1 3489
1 3490
1 3491
1 3492
1 3493
1 3494
1 3495
1 3496
1 3497
1 3498
1 3499
1 3500
1 3501
1 3502
1 3503
1 3504
1 3505
1 3506
1 3507
1 3508
1 3509
1 3510
1 3511
1 3512
1 3513
1 3514
1 3515
1 3516
1 3517
1 3518
1 3519
1 3520
1 3521
1 3522
1 3523
1 3524
1 3525
1 3526
1 3527
1 3528
1 3529
1 3530
1 3531
1 3532
1 3533
1 3534
1 3535
1 3536
1 3537
1 3538
1 3539
1 3540
1 3541
1 3542
1 3543
1 3544
1 3545
1 3546
1 3547
1 3548
1 3549
1 3550
1 3551
1 3552
1 3553
1 3554
1 3555
1 3556
1 3557
1 3558
1 3559
1 3560
1 3561
1 3562
1 3563
1 3564
1 3565
1 3566
1 3567
1 3568
1 3569
1 3570
1 3571
1 3572
1 3573
1 3574
1 3575
1 3576
1 3577
1 3578
1 3579
1 3580
1 3581
1 3582
1 3583
1 3584
1 3585
1 3586
1 3587
1 3588
1 3589
1 3590
1 3591
1 3592
1 3593
1 3594
1 3595
1 3596
1 3597
1 3598
1 3599
1 3600
1 3601
1 3602
1 3603
1 3604
1 3605
1 3606
1 3607
1 3608
1 3609
1 3610
1 3611
1 3612
1 3613
1 3614
1 3615
1 3616
1 3617
1 3618
1 3619
1 3620
1 3621
1 3622
1 3623
1 3624
1 3625
1 3626
1 3627
1 3628
1 3629
1 3630
1 3631
1 3632
1 3633
1 3634
1 3635
1 3636
1 3637
1 3638
1 3639
1 3640
1 3641
1 3642
1 3643
1 3644
1 3645
1 3646
1 3647
1 3648
1 3649
1 3650
1 3651
1 3652
1 3653
1 3654
1 3655
1 3656
1 3657
1 3658
1 3659
1 3660
1 3661
1 3662
1 3663
1 3664
1 3665
1 3666
1 3667
1 3668
1 3669
1 3670
1 3671
1 3672
1 3673
1 3674
1 3675
1 3676
1 3677
1 3678
1 3679
1 3680
1 3681
1 3682
1 3683
1 3684
1 3685
1 3686
1 3687
1 3688
1 3689
1 3690
1 3691
1 3692
1 3693
1 3694
1 3695
1 3696
1 3697
1 3698
1 3699
1 3700
1 3701
1 3702
1 3703
1 3704
1 3705
1 3706
1 3707
1 3708
1 3709
1 3710
1 3711
1 3712
1 3713
1 3714
1 3715
1 3716
1 3717
1 3718
1 3719
1 3720
1 3721
1 3722
1 3723
1 3724
1 3725
1 3726
1 3727
1 3728
1 3729
1 3730
1 3731
1 3732
1 3733
1 3734
1 3735
1 3736
1 3737
1 3738
1 3739
1 3740
1 3741
1 3742
1 3743
1 3744
1 3745
1 3746
1 3747
1 3748
1 3749
1 3750
1 3751
1 3752
1 3753
1 3754
1 3755
1 3756
1 3757
1 3758
1 3759
1 3760
1 3761
1 3762
1 3763
1 3764
1 3765
1 3766
1 3767
1 3768
1 3769
1 3770
1 3771
1 3772
1 3773
1 3774
1 3775
1 3776
1 3777
1 3778
1 3779
1 3780
1 3781
1 3782
1 3783
1 3784
1 3785
1 3786
1 3787
1 3788
1 3789
1 3790
1 3791
1 3792
1 3793
1 3794
1 3795
1 3796
1 3797
1 3798
1 3799
1 3800
1 3801
1 3802
1 3803
1 3804
1 3805
1 3806
1 3807
1 3808
1 3809
1 3810
1 3811
1 3812
1 3813
1 3814
1 3815
1 3816
1 3817
1 3818
1 3819
1 3820
1 3821
1 3822
1 3823
1 3824
1 3825
1 3826
1 3827
1 3828
1 3829
1 3830
1 3831
1 3832
1 3833
1 3834
1 3835
1 3836
1 3837
1 3838
1 3839
1 3840
1 3841
1 3842
1 3843
1 3844
1 3845
1 3846
1 3847
1 3848
1 3849
1 3850
1 3851
1 3852
1 3853
1 3854
1 3855
1 3856
1 3857
1 3858
1 3859
1 3860
1 3861
1 3862
1 3863
1 3864
1 3865
1 3866
1 3867
1 3868
1 3869
1 3870
1 3871
1 3872
1 3873
1 3874
1 3875
1 3876
1 3877
1 3878
1 3879
1 3880
1 3881
1 3882
1 3883
1 3884
1 3885
1 3886
1 3887
1 3888
1 3889
1 3890
1 3891
1 3892
1 3893
1 3894
1 3895
1 3896
1 3897
1 3898
1 3899
1 3900
1 3901
1 3902
1 3903
1 3904
1 3905
1 3906
1 3907
1 3908
1 3909
1 3910
1 3911
1 3912
1 3913
1 3914
1 3915
1 3916
1 3917
1 3918
1 3919
1 3920
1 3921
1 3922
1 3923
1 3924
1 3925
1 3926
1 3927
1 3928
1 3929
1 3930
1 3931
1 3932
1 3933
1 3934
1 3935
1 3936
1 3937
1 3938
1 3939
1 3940
1 3941
1 3942
1 3943
1 3944
1 3945
1 3946
1 3947
1 3948
1 3949
1 3950
1 3951
1 3952
1 3953
1 3954
1 3955
1 3956
1 3957
1 3958
1 3959
1 3960
1 3961
1 3962
1 3963
1 3964
1 3965
1 3966
1 3967
1 3968
1 3969
1 3970
1 3971
1 3972
1 3973
1 3974
1 3975
1 3976
1 3977
1 3978
1 3979
1 3980
1 3981
1 3982
1 3983
1 3984
1 3985
1 3986
1 3987
1 3988
1 3989
1 3990
1 3991
1 3992
1 3993
1 3994
1 3995
1 3996
1 3997
1 3998
1 3999
1 4000
1 4001
1 4002
1 4003
1 4004
1 4005
1 4006
1 4007
1 4008
1 4009
1 4010
1 4011
1 4012
1 4013
1 4014
1 4015
1 4016
1 4017
1 4018
1 4019
1 4020
1 4021
1 4022
1 4023
1 4024
1 4025
1 4026
1 4027
1 4028
1 4029
1 4030
1 4031
1 4032
1 4033
1 4034
1 4035
1 4036
1 4037
1 4038
1 4039
1 4040
1 4041
1 4042
1 4043
1 4044
1 4045
1 4046
1 4047
1 4048
1 4049
1 4050
1 4051
1 4052
1 4053
1 4054
1 4055
1 4056
1 4057
1 4058
1 4059
1 4060
1 4061
1 4062
1 4063
1 4064
1 4065
1 4066
1 4067
1 4068
1 4069
1 4070
1 4071
1 4072
1 4073
1 4074
1 4075
1 4076
1 4077
1 4078
1 4079
1 4080
1 4081
1 4082
1 4083
1 4084
1 4085
1 4086
1 4087
1 4088
1 4089
1 4090
1 4091
1 4092
1 4093
1 4094
1 4095
1 4096
1 4097
1 4098
1 4099
1 4100
1 4101
1 4102
1 4103
1 4104
1 4105
1 4106
1 4107
1 4108
1 4109
1 4110
1 4111
1 4112
1 4113
1 4114
1 4115
1 4116
1 4117
1 4118
1 4119
1 4120
1 4121
1 4122
1 4123
1 4124
1 4125
1 4126
1 4127
1 4128
1 4129
1 4130
1 4131
1 4132
1 4133
1 4134
1 4135
1 4136
1 4137
1 4138
1 4139
1 4140
1 4141
1 4142
1 4143
1 4144
1 4145
1 4146
1 4147
1 4148
1 4149
1 4150
1 4151
1 4152
1 4153
1 4154
1 4155
1 4156
1 4157
1 4158
1 4159
1 4160
1 4161
1 4162
1 4163
1 4164
1 4165
1 4166
1 4167
1 4168
1 4169
1 4170
1 4171
1 4172
1 4173
1 4174
1 4175
1 4176
1 4177
1 4178
1 4179
1 4180
1 4181
1 4182
1 4183
1 4184
1 4185
1 4186
1 4187
1 4188
1 4189
1 4190
1 4191
1 4192
1 4193
1 4194
1 4195
1 4196
1 4197
1 4198
1 4199
1 4200
1 4201
1 4202
1 4203
1 4204
1 4205
1 4206
1 4207
1 4208
1 4209
1 4210
1 4211
1 4212
1 4213
1 4214
1 4215
1 4216
1 4217
1 4218
1 4219
1 4220
1 4221
1 4222
1 4223
1 4224
1 4225
1 4226
1 4227
1 4228
1 4229
1 4230
1 4231
1 4232
1 4233
1 4234
1 4235
1 4236
1 4237
1 4238
1 4239
1 4240
1 4241
1 4242
1 4243
1 4244
1 4245
1 4246
1 4247
1 4248
1 4249
1 4250
1 4251
1 4252
1 4253
1 4254
1 4255
1 4256
1 4257
1 4258
1 4259
1 4260
1 4261
1 4262
1 4263
1 4264
1 4265
1 4266
1 4267
1 4268
1 4269
1 4270
1 4271
1 4272
1 4273
1 4274
1 4275
1 4276
1 4277
1 4278
1 4279
1 4280
1 4281
1 4282
1 4283
1 4284
1 4285
1 4286
1 4287
1 4288
1 4289
1 4290
1 4291
1 4292
1 4293
1 4294
1 4295
1 4296
1 4297
1 4298
1 4299
1 4300
1 4301
1 4302
1 4303
1 4304
1 4305
1 4306
1 4307
1 4308
1 4309
1 4310
1 4311
1 4312
1 4313
1 4314
1 4315
1 4316
1 4317
1 4318
1 4319
1 4320
1 4321
1 4322
1 4323
1 4324
1 4325
1 4326
1 4327
1 4328
1 4329
1 4330
1 4331
1 4332
1 4333
1 4334
1 4335
1 4336
1 4337
1 4338
1 4339
1 4340
1 4341
1 4342
1 4343
1 4344
1 4345
1 4346
1 4347
1 4348
1 4349
1 4350
1 4351
1 4352
1 4353
1 4354
1 4355
1 4356
1 4357
1 4358
1 4359
1 4360
1 4361
1 4362
1 4363
1 4364
1 4365
1 4366
1 4367
1 4368
1 4369
1 4370
1 4371
1 4372
1 4373
1 4374
1 4375
1 4376
1 4377
1 4378
1 4379
1 4380
1 4381
1 4382
1 4383
1 4384
1 4385
1 4386
1 4387
1 4388
1 4389
1 4390
1 4391
1 4392
1 4393
1 4394
1 4395
1 4396
1 4397
1 4398
1 4399
1 4400
1 4401
1 4402
1 4403
1 4404
1 4405
1 4406
1 4407
1 4408
1 4409
1 4410
1 4411
1 4412
1 4413
1 4414
1 4415
1 4416
1 4417
1 4418
1 4419
1 4420
1 4421
1 4422
1 4423
1 4424
1 4425
1 4426
1 4427
1 4428
1 4429
1 4430
1 4431
1 4432
1 4433
1 4434
1 4435
1 4436
1 4437
1 4438
1 4439
1 4440
1 4441
1 4442
1 4443
1 4444
1 4445
1 4446
1 4447
1 4448
1 4449
1 4450
1 4451
1 4452
1 4453
1 4454
1 4455
1 4456
1 4457
1 4458
1 4459
1 4460
1 4461
1 4462
1 4463
1 4464
1 4465
1 4466
1 4467
1 4468
1 4469
1 4470
1 4471
1 4472
1 4473
1 4474
1 4475
1 4476
1 4477
1 4478
1 4479
1 4480
1 4481
1 4482
1 4483
1 4484
1 4485
1 4486
1 4487
1 4488
1 4489
1 4490
1 4491
1 4492
1 4493
1 4494
1 4495
1 4496
1 4497
1 4498
1 4499
1 4500
1 4501
1 4502
1 4503
1 4504
1 4505
1 4506
1 4507
1 4508
1 4509
1 4510
1 4511
1 4512
1 4513
1 4514
1 4515
1 4516
1 4517
1 4518
1 4519
1 4520
1 4521
1 4522
1 4523
1 4524
1 4525
1 4526
1 4527
1 4528
1 4529
1 4530
1 4531
1 4532
1 4533
1 4534
1 4535
1 4536
1 4537
1 4538
1 4539
1 4540
1 4541
1 4542
1 4543
1 4544
1 4545
1 4546
1 4547
1 4548
1 4549
1 4550
1 4551
1 4552
1 4553
1 4554
1 4555
1 4556
1 4557
1 4558
1 4559
1 4560
1 4561
1 4562
1 4563
1 4564
1 4565
1 4566
1 4567
1 4568
1 4569
1 4570
1 4571
1 4572
1 4573
1 4574
1 4575
1 4576
1 4577
1 4578
1 4579
1 4580
1 4581
1 4582
1 4583
1 4584
1 4585
1 4586
1 4587
1 4588
1 4589
1 4590
1 4591
1 4592
1 4593
1 4594
1 4595
1 4596
1 4597
1 4598
1 4599
1 4600
1 4601
1 4602
1 4603
1 4604
1 4605
1 4606
1 4607
1 4608
1 4609
1 4610
1 4611
1 4612
1 4613
1 4614
1 4615
1 4616
1 4617
1 4618
1 4619
1 4620
1 4621
1 4622
1 4623
1 4624
1 4625
1 4626
1 4627
1 4628
1 4629
1 4630
1 4631
1 4632
1 4633
1 4634
1 4635
1 4636
1 4637
1 4638
1 4639
1 4640
1 4641
1 4642
1 4643
1 4644
1 4645
1 4646
1 4647
1 4648
1 4649
1 4650
1 4651
1 4652
1 4653
1 4654
1 4655
1 4656
1 4657
1 4658
1 4659
1 4660
1 4661
1 4662
1 4663
1 4664
1 4665
1 4666
1 4667
1 4668
1 4669
1 4670
1 4671
1 4672
1 4673
1 4674
1 4675
1 4676
1 4677
1 4678
1 4679
1 4680
1 4681
1 4682
1 4683
1 4684
1 4685
1 4686
1 4687
1 4688
1 4689
1 4690
1 4691
1 4692
1 4693
1 4694
1 4695
1 4696
1 4697
1 4698
1 4699
1 4700
1 4701
1 4702
1 4703
1 4704
1 4705
1 4706
1 4707
1 4708
1 4709
1 4710
1 4711
1 4712
1 4713
1 4714
1 4715
1 4716
1 4717
1 4718
1 4719
1 4720
1 4721
1 4722
1 4723
1 4724
1 4725
1 4726
1 4727
1 4728
1 4729
1 4730
1 4731
1 4732
1 4733
1 4734
1 4735
1 4736
1 4737
1 4738
1 4739
1 4740
1 4741
1 4742
1 4743
1 4744
1 4745
1 4746
1 4747
1 4748
1 4749
1 4750
1 4751
1 4752
1 4753
1 4754
1 4755
1 4756
1 4757
1 4758
1 4759
1 4760
1 4761
1 4762
1 4763
1 4764
1 4765
1 4766
1 4767
1 4768
1 4769
1 4770
1 4771
1 4772
1 4773
1 4774
1 4775
1 4776
1 4777
1 4778
1 4779
1 4780
1 4781
1 4782
1 4783
1 4784
1 4785
1 4786
1 4787
1 4788
1 4789
1 4790
1 4791
1 4792
1 4793
1 4794
1 4795
1 4796
1 4797
1 4798
1 4799
1 4800
1 4801
1 4802
1 4803
1 4804
1 4805
1 4806
1 4807
1 4808
1 4809
1 4810
1 4811
1 4812
1 4813
1 4814
1 4815
1 4816
1 4817
1 4818
1 4819
1 4820
1 4821
1 4822
1 4823
1 4824
1 4825
1 4826
1 4827
1 4828
1 4829
1 4830
1 4831
1 4832
1 4833
1 4834
1 4835
1 4836
1 4837
1 4838
1 4839
1 4840
1 4841
1 4842
1 4843
1 4844
1 4845
1 4846
1 4847
1 4848
1 4849
1 4850
1 4851
1 4852
1 4853
1 4854
1 4855
1 4856
1 4857
1 4858
1 4859
1 4860
1 4861
1 4862
1 4863
1 4864
1 4865
1 4866
1 4867
1 4868
1 4869
1 4870
1 4871
1 4872
1 4873
1 4874
1 4875
1 4876
1 4877
1 4878
1 4879
1 4880
1 4881
1 4882
1 4883
1 4884
1 4885
1 4886
1 4887
1 4888
1 4889
1 4890
1 4891
1 4892
1 4893
1 4894
1 4895
1 4896
1 4897
1 4898
1 4899
1 4900
1 4901
1 4902
1 4903
1 4904
1 4905
1 4906
1 4907
1 4908
1 4909
1 4910
1 4911
1 4912
1 4913
1 4914
1 4915
1 4916
1 4917
1 4918
1 4919
1 4920
1 4921
1 4922
1 4923
1 4924
1 4925
1 4926
1 4927
1 4928
1 4929
1 4930
1 4931
1 4932
1 4933
1 4934
1 4935
1 4936
1 4937
1 4938
1 4939
1 4940
1 4941
1 4942
1 4943
1 4944
1 4945
1 4946
1 4947
1 4948
1 4949
1 4950
1 4951
1 4952
1 4953
1 4954
1 4955
1 4956
1 4957
1 4958
1 4959
1 4960
1 4961
1 4962
1 4963
1 4964
1 4965
1 4966
1 4967
1 4968
1 4969
1 4970
1 4971
1 4972
1 4973
1 4974
1 4975
1 4976
1 4977
1 4978
1 4979
1 4980
1 4981
1 4982
1 4983
1 4984
1 4985
1 4986
1 4987
1 4988
1 4989
1 4990
1 4991
1 4992
1 4993
1 4994
1 4995
1 4996
1 4997
1 4998
1 4999
CELL_TYPES 5000
1 
1 
1 
1 
1 
1 
1 
1 
1 
1 
1 
1 
1 
1 
1 
1 
1 
1 
1 
1 
1 
1 
1 
1 
1 
1 
1 
1 
1 
1 
1 
1 
1 
1 
1 
1 
1 
1 
1 
1 
1 
1 
1 
1 
1 
1 
1 
1 
1 
1 
1 
1 
1 
1 
1 
1 
1 
1 
1 
1 
1 
1 
1 
1 
1 
1 
1 
1 
1 
1 
1 
1 
1 
1 
1 
1 
1 
1 
1 
1 
1 
1 
1 
1 
1 
1 
1 
1 
1 
1 
1 
1 
1 
1 
1 
1 
1 
1 
1 
1 
1 
1 
1 
1 
1 
1 
1 
1 
1 
1 
1 
1 
1 
1 
1 
1 
1 
1 
1 
1 
1 
1 
1 
1 
1 
1 
1 
1 
1 
1 
1 
1 
1 
1 
1 
1 
1 
1 
1 
1 
1 
1 
1 
1 
1 
1 
1 
1 
1 
1 
1 
1 
1 
1 
1 
1 
1 
1 
1 
1 
1 
1 
1 
1 
1 
1 
1 
1 
1 
1 
1 
1 
1 
1 
1 
1 
1 
1 
1 
1 
1 
1 
1 
1 
1 
1 
1 
1 
1 
1 
1 
1 
1 
1 
1 
1 
1 
1 
1 
1 
1 
1 
1 
1 
1 
1 
1 
1 
1 
1 
1 
1 
1 
1 
1 
1 
1 
1 
1 
1 
1 
1 
1 
1 
1 
1 
1 
1 
1 
1 
1 
1 
1 
1 
1 
1 
1 
1 
1 
1 
1 
1 
1 
1 
1 
1 
1 
1 
1 
1 
1 
1 
1 
1 
1 
1 
1 
1 
1 
1 
1 
1 
1 
1 
1 
1 
1 
1 
1 
1 
1 
1 
1 
1 
1 
1 
1 
1 
1 
1 
1 
1 
1 
1 
1 
1 
1 
1 
1 
1 
1 
1 
1 
1 
1 
1 
1 
1 
1 
1 
1 
1 
1 
1 
1 
1 
1 
1 
1 
1 
1 
1 
1 
1 
1 
1 
1 
1 
1 
1 
1 
1 
1 
1 
1 
1 
1 
1 
1 
1 
1 
1 
1 
1 
1 
1 
1 
1 
1 
1 
1 
1 
1 
1 
1 
1 
1 
1 
1 
1 
1 
1 
1 
1 
1 
1 
1 
1 
1 
1 
1 
1 
1 
1 
1 
1 
1 
1 
1 
1 
1 
1 
1 
1 
1 
1 
1 
1 
1 
1 
1 
1 
1 
1 
1 
1 
1 
1 
1 
1 
1 
1 
1 
1 
1 
1 
1 
1 
1 
1 
1 
1 
1 
1 
1 
1 
1 
1 
1 
1 
1 
1 
1 
1 
1 
1 
1 
1 
1 
1 
1 
1 
1 
1 
1 
1 
1 
1 
1 
1 
1 
1 
1 
1 
1 
1 
1 
1 
1 
1 
1 
1 
1 
1 
1 
1 
1 
1 
1 
1 
1 
1 
1 
1 
1 
1 
1 
1 
1 
1 
1 
1 
1 
1 
1 
1 
1 
1 
1 
1 
1 
1 
1 
1 
1 
1 
1 
1 
1 
1 
1 
1 
1 
1 
1 
1 
1 
1 
1 
1 
1 
1 
1 
1 
1 
1 
1 
1 
1 
1 
1 
1 
1 
1 
1 
1 
1 
1 
1 
1 
1 
1 
1 
1 
1 
1 
1 
1 
1 
1 
1 
1 
1 
1 
1 
1 
1 
1 
1 
1 
1 
1 
1 
1 
1 
1 
1 
1 
1 
1 
1 
1 
1 
1 
1 
1 
1 
1 
1 
1 
1 
1 
1 
1 
1 
1 
1 
1 
1 
1 
1 
1 
1 
1 
1 
1 
1 
1 
1 
1 
1 
1 
1 
1 
1 
1 
1 
1 
1 
1 
1 
1 
1 
1 
1 
1 
1 
1 
1 
1 
1 
1 
1 
1 
1 
1 
1 
1 
1 
1 
1 
1 
1 
1 
1 
1 
1 
1 
1 
1 
1 
1 
1 
1 
1 
1 
1 
1 
1 
1 
1 
1 
1 
1 
1 
1 
1 
1 
1 
1 
1 
1 
1 
1 
1 
1 
1 
1 
1 
1 
1 
1 
1 
1 
1 
1 
1 
1 
1 
1 
1 
1 
1 
1 
1 
1 
1 
1 
1 
1 
1 
1 
1 
1 
1 
1 
1 
1 
1 
1 
1 
1 
1 
1 
1 
1 
1 
1 
1 
1 
1 
1 
1 
1 
1 
1 
1 
1 
1 
1 
1 
1 
1 
1 
1 
1 
1 
1 
1 
1 
1 
1 
1 
1 
1 
1 
1 
1 
1 
1 
1 
1 
1 
1 
1 
1 
1 
1 
1 
1 
1 
1 
1 
1 
1 
1 
1 
1 
1 
1 
1 
1 
1 
1 
1 
1 
1 
1 
1 
1 
1 
1 
1 
1 
1 
1 
1 
1 
1 
1 
1 
1 
1 
1 
1 
1 
1 
1 
1 
1 
1 
1 
1 
1 
1 
1 
1 
1 
1 
1 
1 
1 
1 
1 
1 
1 
1 
1 
1 
1 
1 
1 
1 
1 
1 
1 
1 
1 
1 
1 
1 
1 
1 
1 
1 
1 
1 
1 
1 
1 
1 
1 
1 
1 
1 
1 
1 
1 
1 
1 
1 
1 
1 
1 
1 
1 
1 
1 
1 
1 
1 
1 
1 
1 
1 
1 
1 
1 
1 
1 
1 
1 
1 
1 
1 
1 
1 
1 
1 
1 
1 
1 
1 
1 
1 
1 
1 
1 
1 
1 
1 
1 
1 
1 
1 
1 
1 
1 
1 
1 
1 
1 
1 
1 
1 
1 
1 
1 
1 
1 
1 
1 
1 
1 
1 
1 
1 
1 
1 
1 
1 
1 
1 
1 
1 
1 
1 
1 
1 
1 
1 
1 
1 
1 
1 
1 
1 
1 
1 
1 
1 
1 
1 
1 
1 
1 
1 
1 
1 
1 
1 
1 
1 
1 
1 
1 
1 
1 
1 
1 
1 
1 
1 
1 
1 
1 
1 
1 
1 
1 
1 
1 
1 
1 
1 
1 
1 
1 
1 
1 
1 
1 
1 
1 
1 
1 
1 
1 
1 
1 
1 
1 
1 
1 
1 
1 
1 
1 
1 
1 
1 
1 
1 
1 
1 
1 
1 
1 
1 
1 
1 
1 
1 
1 
1 
1 
1 
1 
1 
1 
1 
1 
1 
1 
1 
1 
1 
1 
1 
1 
1 
1 
1 
1 
1 
1 
1 
1 
1 
1 
1 
1 
1 
1 
1 
1 
1 
1 
1 
1 
1 
1 
1 
1 
1 
1 
1 
1 
1 
1 
1 
1 
1 
1 
1 
1 
1 
1 
1 
1 
1 
1 
1 
1 
1 
1 
1 
1 
1 
1 
1 
1 
1 
1 
1 
1 
1 
1 
1 
1 
1 
1 
1 
1 
1 
1 
1 
1 
1 
1 
1 
1 
1 
1 
1 
1 
1 
1 
1 
1 
1 
1 
1 
1 
1 
1 
1 
1 
1 
1 
1 
1 
1 
1 
1 
1 
1 
1 
1 
1 
1 
1 
1 
1 
1 
1 
1 
1 
1 
1 
1 
1 
1 
1 
1 
1 
1 
1 
1 
1 
1 
1 
1 
1 
1 
1 
1 
1 
1 
1 
1 
1 
1 
1 
1 
1 
1 
1 
1 
1 
1 
1 
1 
1 
1 
1 
1 
1 
1 
1 
1 
1 
1 
1 
1 
1 
1 
1 
1 
1 
1 
1 
1 
1 
1 
1 
1 
1 
1 
1 
1 
1 
1 
1 
1 
1 
1 
1 
1 
1 
1 
1 
1 
1 
1 
1 
1 
1 
1 
1 
1 
1 
1 
1 
1 
1 
1 
1 
1 
1 
1 
1 
1 
1 
1 
1 
1 
1 
1 
1 
1 
1 
1 
1 
1 
1 
1 
1 
1 
1 
1 
1 
1 
1 
1 
1 
1 
1 
1 
1 
1 
1 
1 
1 
1 
1 
1 
1 
1 
1 
1 
1 
1 
1 
1 
1 
1 
1 
1 
1 
1 
1 
1 
1 
1 
1 
1 
1 
1 
1 
1 
1 
1 
1 
1 
1 
1 
1 
1 
1 
1 
1 
1 
1 
1 
1 
1 
1 
1 
1 
1 
1 
1 
1 
1 
1 
1 
1 
1 
1 
1 
1 
1 
1 
1 
1 
1 
1 
1 
1 
1 
1 
1 
1 
1 
1 
1 
1 
1 
1 
1 
1 
1 
1 
1 
1 
1 
1 
1 
1 
1 
1 
1 
1 
1 
1 
1 
1 
1 
1 
1 
1 
1 
1 
1 
1 
1 
1 
1 
1 
1 
1 
1 
1 
1 
1 
1 
1 
1 
1 
1 
1 
1 
1 
1 
1 
1 
1 
1 
1 
1 
1 
1 
1 
1 
1 
1 
1 
1 
1 
1 
1 
1 
1 
1 
1 
1 
1 
1 
1 
1 
1 
1 
1 
1 
1 
1 
1 
1 
1 
1 
1 
1 
1 
1 
1 
1 
1 
1 
1 
1 
1 
1 
1 
1 
1 
1 
1 
1 
1 
1 
1 
1 
1 
1 
1 
1 
1 
1 
1 
1 
1 
1 
1 
1 
1 
1 
1 
1 
1 
1 
1 
1 
1 
1 
1 
1 
1 
1 
1 
1 
1 
1 
1 
1 
1 
1 
1 
1 
1 
1 
1 
1 
1 
1 
1 
1 
1 
1 
1 
1 
1 
1 
1 
1 
1 
1 
1 
1 
1 
1 
1 
1 
1 
1 
1 
1 
1 
1 
1 
1 
1 
1 
1 
1 
1 
1 
1 
1 
1 
1 
1 
1 
1 
1 
1 
1 
1 
1 
1 
1 
1 
1 
1 
1 
1 
1 
1 
1 
1 
1 
1 
1 
1 
1 
1 
1 
1 
1 
1 
1 
1 
1 
1 
1 
1 
1 
1 
1 
1 
1 
1 
1 
1 
1 
1 
1 
1 
1 
1 
1 
1 
1 
1 
1 
1 
1 
1 
1 
1 
1 
1 
1 
1 
1 
1 
1 
1 
1 
1 
1 
1 
1 
1 
1 
1 
1 
1 
1 
1 
1 
1 
1 
1 
1 
1 
1 
1 
1 
1 
1 
1 
1 
1 
1 
1 
1 
1 
1 
1 
1 
1 
1 
1 
1 
1 
1 
1 
1 
1 
1 
1 
1 
1 
1 
1 
1 
1 
1 
1 
1 
1 
1 
1 
1 
1 
1 
1 
1 
1 
1 
1 
1 
1 
1 
1 
1 
1 
1 
1 
1 
1 
1 
1 
1 
1 
1 
1 
1 
1 
1 
1 
1 
1 
1 
1 
1 
1 
1 
1 
1 
1 
1 
1 
1 
1 
1 
1 
1 
1 
1 
1 
1 
1 
1 
1 
1 
1 
1 
1 
1 
1 
1 
1 
1 
1 
1 
1 
1 
1 
1 
1 
1 
1 
1 
1 
1 
1 
1 
1 
1 
1 
1 
1 
1 
1 
1 
1 
1 
1 
1 
1 
1 
1 
1 
1 
1 
1 
1 
1 
1 
1 
1 
1 
1 
1 
1 
1 
1 
1 
1 
1 
1 
1 
1 
1 
1 
1 
1 
1 
1 
1 
1 
1 
1 
1 
1 
1 
1 
1 
1 
1 
1 
1 
1 
1 
1 
1 
1 
1 
1 
1 
1 
1 
1 
1 
1 
1 
1 
1 
1 
1 
1 
1 
1 
1 
1 
1 
1 
1 
1 
1 
1 
1 
1 
1 
1 
1 
1 
1 
1 
1 
1 
1 
1 
1 
1 
1 
1 
1 
1 
1 
1 
1 
1 
1 
1 
1 
1 
1 
1 
1 
1 
1 
1 
1 
1 
1 
1 
1 
1 
1 
1 
1 
1 
1 
1 
1 
1 
1 
1 
1 
1 
1 
1 
1 
1 
1 
1 
1 
1 
1 
1 
1 
1 
1 
1 
1 
1 
1 
1 
1 
1 
1 
1 
1 
1 
1 
1 
1 
1 
1 
1 
1 
1 
1 
1 
1 
1 
1 
1 
1 
1 
1 
1 
1 
1 
1 
1 
1 
1 
1 
1 
1 
1 
1 
1 
1 
1 
1 
1 
1 
1 
1 
1 
1 
1 
1 
1 
1 
1 
1 
1 
1 
1 
1 
1 
1 
1 
1 
1 
1 
1 
1 
1 
1 
1 
1 
1 
1 
1 
1 
1 
1 
1 
1 
1 
1 
1 
1 
1 
1 
1 
1 
1 
1 
1 
1 
1 
1 
1 
1 
1 
1 
1 
1 
1 
1 
1 
1 
1 
1 
1 
1 
1 
1 
1 
1 
1 
1 
1 
1 
1 
1 
1 
1 
1 
1 
1 
1 
1 
1 
1 
1 
1 
1 
1 
1 
1 
1 
1 
1 
1 
1 
1 
1 
1 
1 
1 
1 
1 
1 
1 
1 
1 
1 
1 
1 
1 
1 
1 
1 
1 
1 
1 
1 
1 
1 
1 
1 
1 
1 
1 
1 
1 
1 
1 
1 
1 
1 
1 
1 
1 
1 
1 
1 
1 
1 
1 
1 
1 
1 
1 
1 
1 
1 
1 
1 
1 
1 
1 
1 
1 
1 
1 
1 
1 
1 
1 
1 
1 
1 
1 
1 
1 
1 
1 
1 
1 
1 
1 
1 
1 
1 
1 
1 
1 
1 
1 
1 
1 
1 
1 
1 
1 
1 
1 
1 
1 
1 
1 
1 
1 
1 
1 
1 
1 
1 
1 
1 
1 
1 
1 
1 
1 
1 
1 
1 
1 
1 
1 
1 
1 
1 
1 
1 
1 
1 
1 
1 
1 
1 
1 
1 
1 
1 
1 
1 
1 
1 
1 
1 
1 
1 
1 
1 
1 
1 
1 
1 
1 
1 
1 
1 
1 
1 
1 
1 
1 
1 
1 
1 
1 
1 
1 
1 
1 
1 
1 
1 
1 
1 
1 
1 
1 
1 
1 
1 
1 
1 
1 
1 
1 
1 
1 
1 
1 
1 
1 
1 
1 
1 
1 
1 
1 
1 
1 
1 
1 
1 
1 
1 
1 
1 
1 
1 
1 
1 
1 
1 
1 
1 
1 
1 
1 
1 
1 
1 
1 
1 
1 
1 
1 
1 
1 
1 
1 
1 
1 
1 
1 
1 
1 
1 
1 
1 
1 
1 
1 
1 
1 
1 
1 
1 
1 
1 
1 
1 
1 
1 
1 
1 
1 
1 
1 
1 
1 
1 
1 
1 
1 
1 
1 
1 
1 
1 
1 
1 
1 
1 
1 
1 
1 
1 
1 
1 
1 
1 
1 
1 
1 
1 
1 
1 
1 
1 
1 
1 
1 
1 
1 
1 
1 
1 
1 
1 
1 
1 
1 
1 
1 
1 
1 
1 
1 
1 
1 
1 
1 
1 
1 
1 
1 
1 
1 
1 
1 
1 
1 
1 
1 
1 
1 
1 
1 
1 
1 
1 
1 
1 
1 
1 
1 
1 
1 
1 
1 
1 
1 
1 
1 
1 
1 
1 
1 
1 
1 
1 
1 
1 
1 
1 
1 
1 
1 
1 
1 
1 
1 
1 
1 
1 
1 
1 
1 
1 
1 
1 
1 
1 
1 
1 
1 
1 
1 
1 
1 
1 
1 
1 
1 
1 
1 
1 
1 
1 
1 
1 
1 
1 
1 
1 
1 
1 
1 
1 
1 
1 
1 
1 
1 
1 
1 
1 
1 
1 
1 
1 
1 
1 
1 
1 
1 
1 
1 
1 
1 
1 
1 
1 
1 
1 
1 
1 
1 
1 
1 
1 
1 
1 
1 
1 
1 
1 
1 
1 
1 
1 
1 
1 
1 
1 
1 
1 
1 
1 
1 
1 
1 
1 
1 
1 
1 
1 
1 
1 
1 
1 
1 
1 
1 
1 
1 
1 
1 
1 
1 
1 
1 
1 
1 
1 
1 
1 
1 
1 
1 
1 
1 
1 
1 
1 
1 
1 
1 
1 
1 
1 
1 
1 
1 
1 
1 
1 
1 
1 
1 
1 
1 
1 
1 
1 
1 
1 
1 
1 
1 
1 
1 
1 
1 
1 
1 
1 
1 
1 
1 
1 
1 
1 
1 
1 
1 
1 
1 
1 
1 
1 
1 
1 
1 
1 
1 
1 
1 
1 
1 
1 
1 
1 
1 
1 
1 
1 
1 
1 
1 
1 
1 
1 
1 
1 
1 
1 
1 
1 
1 
1 
1 
1 
1 
1 
1 
1 
1 
1 
1 
1 
1 
1 
1 
1 
1 
1 
1 
1 
1 
1 
1 
1 
1 
1 
1 
1 
1 
1 
1 
1 
1 
1 
1 
1 
1 
1 
1 
1 
1 
1 
1 
1 
1 
1 
1 
1 
1 
1 
1 
1 
1 
1 
1 
1 
1 
1 
1 
1 
1 
1 
1 
1 
1 
1 
1 
1 
1 
1 
1 
1 
1 
1 
1 
1 
1 
1 
1 
1 
1 
1 
1 
1 
1 
1 
1 
1 
1 
1 
1 
1 
1 
1 
1 
1 
1 
1 
1 
1 
1 
1 
1 
1 
1 
1 
1 
1 
1 
1 
1 
1 
1 
1 
1 
1 
1 
1 
1 
1 
1 
1 
1 
1 
1 
1 
1 
1 
1 
1 
1 
1 
1 
1 
1 
1 
1 
1 
1 
1 
1 
1 
1 
1 
1 
1 
1 
1 
1 
1 
1 
1 
1 
1 
1 
1 
1 
1 
1 
1 
1 
1 
1 
1 
1 
1 
1 
1 
1 
1 
1 
1 
1 
1 
1 
1 
1 
1 
1 
1 
1 
1 
1 
1 
1 
1 
1 
1 
1 
1 
1 
1 
1 
1 
1 
1 
1 
1 
1 
1 
1 
1 
1 
1 
1 
1 
1 
1 
1 
1 
1 
1 
1 
1 
1 
1 
1 
1 
1 
1 
1 
1 
1 
1 
1 
1 
1 
1 
1 
1 
1 
1 
1 
1 
1 
1 
1 
1 
1 
1 
1 
1 
1 
1 
1 
1 
1 
1 
1 
1 
1 
1 
1 
1 
1 
1 
1 
1 
1 
1 
1 
1 
1 
1 
1 
1 
1 
1 
1 
1 
1 
1 
1 
1 
1 
1 
1 
1 
1 
1 
1 
1 
1 
1 
1 
1 
1 
1 
1 
1 
1 
1 
1 
1 
1 
1 
1 
1 
1 
1 
1 
1 
1 
1 
1 
1 
1 
1 
1 
1 
1 
1 
1 
1 
1 
1 
1 
1 
1 
1 
1 
1 
1 
1 
1 
1 
1 
1 
1 
1 
1 
1 
1 
1 
1 
1 
1 
1 
1 
1 
1 
1 
1 
1 
1 
1 
1 
1 
1 
1 
1 
1 
1 
1 
1 
1 
1 
1 
1 
1 
1 
1 
1 
1 
1 
1 
1 
1 
1 
1 
1 
1 
1 
1 
1 
1 
1 
1 
1 
1 
1 
1 
1 
1 
1 
1 
1 
1 
1 
1 
1 
1 
1 
1 
1 
1 
1 
1 
1 
1 
1 
1 
1 
1 
1 
1 
1 
1 
1 
1 
1 
1 
1 
1 
1 
1 
1 
1 
1 
1 
1 
1 
1 
1 
1 
1 
1 
1 
1 
1 
1 
1 
1 
1 
1 
1 
1 
1 
1 
1 
1 
1 
1 
1 
1 
1 
1 
1 
1 
1 
1 
1 
1 
1 
1 
1 
1 
1 
1 
1 
1 
1 
1 
1 
1 
1 
1 
1 
1 
1 
1 
1 
1 
1 
1 
1 
1 
1 
1 
1 
1 
1 
1 
1 
1 
1 
1 
1 
1 
1 
1 
1 
1 
1 
1 
1 
1 
1 
1 
1 
1 
1 
1 
1 
1 
1 
1 
1 
1 
1 
1 
1 
1 
1 
1 
1 
1 
1 
1 
1 
1 
1 
1 
1 
1 
1 
1 
1 
1 
1 
1 
1 
1 
1 
1 
1 
1 
1 
1 
1 
1 
1 
1 
1 
1 
1 
1 
1 
1 
1 
1 
1 
1 
1 
1 
1 
1 
1 
1 
1 
1 
1 
1 
1 
1 
1 
1 
1 
1 
1 
1 
1 
1 
1 
1 
1 
1 
1 
1 
1 
1 
1 
1 
1 
1 
1 
1 
1 
1 
1 
1 
1 
1 
1 
1 
1 
1 
1 
1 
1 
1 
1 
1 
1 
1 
1 
1 
1 
1 
1 
1 
1 
1 
1 
1 
1 
1 
1 
1 
1 
1 
1 
1 
1 
1 
1 
1 
1 
1 
1 
1 
1 
1 
1 
1 
1 
1 
1 
1 
1 
1 
1 
1 
1 
1 
1 
1 
1 
1 
1 
1 
1 
1 
1 
1 
1 
1 
1 
1 
1 
1 
1 
1 
1 
1 
1 
1 
1 
1 
1 
1 
1 
1 
1 
1 
1 
1 
1 
1 
1 
1 
1 
1 
1 
1 
1 
1 
1 
1 
1 
1 
1 
1 
1 
1 
1 
1 
1 
1 
1 
1 
1 
1 
1 
1 
1 
1 
1 
1 
1 
1 
1 
1 
1 
1 
1 
1 
1 
1 
1 
1 
1 
1 
1 
1 
1 
1 
1 
1 
1 
1 
1 
1 
1 
1 
1 
1 
1 
1 
1 
1 
1 
1 
1 
1 
1 
1 
1 
1 
1 
1 
1 
1 
1 
1 
1 
1 
1 
1 
1 
1 
1 
1 
1 
1 
1 
1 
1 
1 
1 
1 
1 
1 
1 
1 
1 
1 
1 
1 
1 
1 
1 
1 
1 
1 
1 
1 
1 
1 
1 
1 
1 
1 
1 
1 
1 
1 
1 
1 
1 
1 
1 
1 
1 
1 
1 
1 
1 
1 
1 
1 
1 
1 
1 
1 
1 
1 
1 
1 
1 
1 
1 
1 
1 
1 
1 
1 
1 
1 
1 
1 
1 
1 
1 
1 
1 
1 
1 
1 
1 
1 
1 
1 
1 
1 
1 
1 
1 
1 
1 
1 
1 
1 
1 
1 
1 
1 
1 
1 
1 
1 
1 
1 
1 
1 
1 
1 
1 
1 
1 
1 
1 
1 
1 
1 
1 
1 
1 
1 
1 
1 
1 
1 
1 
1 
1 
1 
1 
1 
1 
1 
1 
1 
1 
1 
1 
1 
1 
1 
1 
1 
1 
1 
1 
1 
1 
1 
1 
1 
1 
1 
1 
1 
1 
1 
1 
1 
1 
1 
1 
1 
1 
1 
1 
1 
1 
1 
1 
1 
1 
1 
1 
1 
1 
1 
1 
1 
1 
1 
1 
1 
1 
1 
1 
1 
1 
1 
1 
1 
1 
1 
1 
1 
1 
1 
1 
1 
1 
1 
1 
1 
1 
1 
1 
1 
1 
1 
1 
1 
1 
1 
1 
1 
1 
1 
1 
1 
1 
1 
1 
1 
1 
1 
1 
1 
1 
1 
1 
1 
1 
1 
1 
1 
1 
1 
1 
1 
1 
1 
1 
1 
1 
1 
1 
1 
1 
1 
1 
1 
1 
1 
1 
1 
1 
1 
1 
1 
1 
1 
1 
1 
1 
1 
1 
1 
1 
1 
1 
1 
1 
1 
1 
1 
1 
1 
1 
1 
1 
1 
1 
1 
1 
1 
1 
1 
1 
1 
1 
1 
1 
1 
1 
1 
1 
1 
1 
1 
1 
1 
1 
1 
1 
1 
1 
1 
1 
1 
1 
1 
1 
1 
1 
1 
1 
1 
1 
1 
1 
1 
1 
1 
1 
1 
1 
1 
1 
1 
1 
1 
1 
1 
1 
1 
1 
1 
1 
1 
1 
1 
1 
1 
1 
1 
1 
1 
1 
1 
1 
1 
1 
1 
1 
1 
1 
1 
1 
1 
1 
1 
1 
1 
1 
1 
1 
1 
1 
1 
1 
1 
1 
1 
1 
1 
1 
1 
1 
1 
1 
1 
1 
1 
1 
1 
1 
1 
1 
1 
1 
1 
1 
1 
1 
1 
1 
1 
1 
1 
1 
1 
1 
1 
1 
1 
1 
1 
1 
1 
1 
1 
1 
1 
1 
1 
1 
1 
1 
1 
1 
1 
1 
1 
1 
1 
1 
1 
1 
1 
1 
1 
1 
1 
1 
1 
1 
1 
1 
1 
1 
1 
1 
1 
1 
1 
1 
1 
1 
1 
1 
1 
1 
1 
1 
1 
1 
1 
1 
1 
1 
1 
1 
1 
1 
1 
1 
1 
1 
1 
1 
1 
1 
1 
1 
1 
1 
1 
1 
1 
1 
1 
1 
1 
1 
1 
1 
1 
1 
1 
1 
1 
1 
1 
1 
1 
1 
1 
1 
1 
1 
1 
1 
1 
1 
1 
1 
1 
1 
1 
1 
1 
1 
1 
1 
1 
1 
1 
1 
1 
1 
1 
1 
1 
1 
1 
1 
1 
1 
1 
1 
1 
1 
1 
1 
1 
1 
1 
1 
1 
1 
1 
1 
1 
1 
1 
1 
1 
1 
1 
1 
1 
1 
1 
1 
1 
1 
1 
1 
1 
1 
1 
1 
1 
1 
1 
1 
1 
1 
1 
1 
1 
1 
1 
1 
1 
1 
1 
1 
1 
1 
1 
1 
1 
1 
1 
1 
1 
1 
1 
1 
1 
1 
1 
1 
1 
1 
1 
1 
1 
1 
1 
1 
1 
1 
1 
1 
1 
1 
1 
1 
1 
1 
1 
1 
1 
1 
1 
1 
1 
1 
1 
1 
1 
1 
1 
1 
1 
1 
1 
1 
1 
1 
1 
1 
1 
1 
1 
1 
1 
1 
1 
1 
1 
1 
1 
1 
1 
1 
1 
1 
1 
1 
1 
1 
1 
1 
1 
1 
1 
1 
1 
1 
1 
1 
1 
1 
1 
1 
1 
1 
1 
1 
1 
1 
1 
1 
1 
1 
1 
1 
1 
1 
1 
1 
1 
1 
1 
1 
1 
1 
1 
1 
1 
1 
1 
1 
1 
1 
1 
1 
1 
1 
1 
1 
1 
1 
1 
1 
1 
1 
1 
1 
1 
1 
1 
1 
1 
1 
1 
1 
1 
1 
1 
1 
1 
1 
1 
1 
1 
1 
1 
1 
1 
1 
1 
1 
1 
1 
1 
1 
1 
1 
1 
1 
1 
1 
1 
1 
1 
1 
1 
1 
1 
1 
1 
1 
1 
1 
1 
1 
1 
1 
1 
1 
1 
1 
1 
1 
1 
1 
1 
1 
1 
1 
1 
1 
1 
1 
1 
1 
1 
1 
1 
1 
1 
1 
1 
1 
1 
1 
1 
1 
1 
1 
1 
1 
1 
1 
1 
1 
1 
1 
1 
1 
1 
1 
1 
1 
1 
1 
1 
1 
1 
1 
1 
1 
1 
1 
1 
1 
1 
1 
1 
1 
1 
1 
1 
1 
1 
1 
1 
1 
1 
1 
1 
1 
1 
1 
1 
1 
1 
1 
1 
1 
1 
1 
1 
1 
1 
1 
1 
1 
1 
1 
1 
1 
1 
1 
1 
1 
1 
1 
1 
1 
1 
1 
1 
1 
1 
1 
1 
1 
1 
1 
1 
1 
1 
1 
1 
1 
1 
1 
1 
1 
1 
1 
1 
1 
1 
1 
1 
1 
1 
1 
1 
1 
1 
1 
1 
1 
1 
1 
1 
1 
1 
1 
1 
1 
1 
1 
1 
1 
1 
1 
1 
1 
1 
1 
1 
1 
1 
1 
1 
1 
1 
1 
1 
1 
1 
1 
1 
1 
1 
1 
1 
1 
1 
1 
1 
1 
1 
1 
1 
1 
1 
1 
1 
1 
1 
1 
1 
1 
1 
1 
1 
1 
1 
1 
1 
1 
1 
1 
1 
1 
1 
1 
1 
1 
1 
1 
1 
1 
1 
1 
1 
1 
1 
1 
1 
1 
1 
1 
1 
1 
1 
1 
1 
1 
1 
1 
1 
1 
1 
1 
1 
1 
1 
1 
1 
1 
1 
1 
1 
1 
1 
1 
1 
1 
1 
1 
1 
1 
1 
1 
1 
1 
1 
1 
1 
1 
1 
1 
1 
1 
1 
1 
1 
1 
1 
1 
1 
1 
1 
1 
1 
1 
1 
1 
1 
1 
1 
1 
1 
1 
1 
1 
1 
1 
1 
1 
1 
1 
1 
1 
1 
1 
1 
1 
1 
1 
1 
1 
1 
1 
1 
1 
1 
1 
1 
1 
1 
1 
1 
1 
1 
1 
1 
1 
1 
1 
1 
1 
1 
1 
1 
1 
1 
1 
1 
1 
1 
1 
1 
1 
1 
1 
1 
1 
1 
1 
1 
1 
1 
1 
1 
1 
1 
1 
1 
1 
1 
1 
1 
1 
1 
1 
1 
1 
1 
1 
1 
1 
1 
1 
1 
1 
1 
1 
1 
1 
1 
1 
1 
1 
1 
1 
1 
1 
1 
1 
1 
1 
1 
1 
1 
1 
1 
1 
1 
1 
1 
1 
1 
1 
1 
1 
1 
1 
1 
1 
1 
1 
1 
1 
1 
1 
1 
1 
1 
1 
1 
1 
1 
1 
1 
1 
1 
1 
1 
1 
1 
1 
1 
1 
1 
1 
1 
1 
1 
1 
1 
1 
1 
1 
1 
1 
1 
1 
1 
1 
1 
1 
1 
1 
1 
1 
1 
1 
1 
1 
1 
1 
1 
1 
1 
1 
1 
1 
1 
1 
1 
1 
1 
1 
1 
1 
1 
1 
1 
1 
1 
1 
1 
1 
1 
1 
1 
1 
1 
1 
1 
1 
1 
1 
1 
1 
1 
1 
1 
1 
1 
1 
1 
1 
1 
1 
1 
1 
1 
1 
1 
1 
1 
1 
1 
1 
1 
1 
1 
1 
1 
1 
1 
1 
1 
1 
1 
1 
1 
1 
1 
1 
1 
1 
1 
1 
1 
1 
1 
1 
1 
1 
1 
1 
1 
1 
1 
1 
1 
1 
1 
1 
1 
1 
1 
1 
1 
1 
1 
1 
1 
1 
1 
1 
1 
1 
1 
1 
1 
1 
1 
1 
1 
1 
1 
1 
1 
1 
1 
1 
1 
1 
1 
1 
1 
1 
1 
1 
1 
1 
1 
1 
1 
1 
1 
1 
1 
1 
1 
1 
1 
1 
1 
1 
1 
1 
1 
1 
1 
1 
1 
1 
1 
1 
1 
1 
1 
1 
1 
1 
1 
1 
1 
1 
1 
1 
1 
1 
1 
1 
1 
1 
1 
1 
1 
1 
1 
1 
1 
1 
1 
1 
1 
1 
1 
1 
1 
1 
1 
1 
1 
1 
1 
1 
1 
1 
1 
1 
1 
1 
1 
1 
1 
1 
1 
1 
1 
1 
1 
1 
1 
1 
1 
1 
1 
1 
1 
1 
1 
1 
1 
1 
1 
1 
1 
1 
1 
1 
1 
1 
1 
1 
1 
1 
1 
1 
1 
1 
1 
1 
1 
1 
1 
1 
1 
1 
1 
1 
1 
1 
1 
1 
1 
1 
1 
1 
1 
1 
1 
1 
1 
1 
1 
1 
1 
1 
1 
1 
1 
1 
1 
1 
1 
1 
1 
1 
1 
1 
1 
1 
1 
1 
1 
1 
1 
1 
1 
1 
1 
1 
1 
1 
1 
1 
1 
1 
1 
1 
1 
1 
1 
1 
1 
1 
1 
1 
1 
1 
1 
1 
1 
1 
1 
1 
1 
1 
1 
1 
1 
1 
1 
1 
1 
1 
1 
1 
1 
1 
1 
1 
1 
1 
1 
1 
1 
1 
1 
1 
1 
1 
1 
1 
1 
1 
1 
1 
1 
1 
1 
1 
1 
1 
1 
1 
1 
1 
1 
1 
1 
1 
1 
1 
1 
1 
1 
1 
1 
1 
1 
1 
1 
1 
1 
1 
1 
1 
1 
1 
1 
1 
1 
1 
1 
1 
1 
1 
1 
1 
1 
1 
1 
1 
1 
1 
1 
1 
1 
1 
1 
1 
1 
1 
1 
1 
1 
1 
1 
1 
1 
1 
1 
1 
1 
1 
1 
1 
1 
1 
1 
1 
1 
1 
1 
1 
1 
1 
1 
1 
1 
1 
1 
1 
1 
1 
1 
1 
1 
1 
1 
1 
1 
1 
1 
1 
1 
1 
1 
1 
1 
1 
1 
1 
1 
1 
1 
1 
1 
1 
1 
1 
1 
1 
1 
1 
1 
1 
1 
1 
1 
1 
1 
1 
1 
1 
1 
1 
1 
1 
1 
1 
1 
1 
1 
1 
1 
1 
1 
1 
1 
1 
1 
1 
1 
1 
1 
1 
1 
1 
1 
1 
1 
1 
1 
1 
1 
1 
1 
1 
1 
1 
1 
1 
1 
1 
1 
1 
POINT_DATA 5000
VECTORS Stress float
-326.623 -284.832 0.
90.5616 -71.3281 0.
116.747 -10.4143 0.
380.528 104.765 0.
263.858 -168.115 0.
147.188 -440.996 0.
178.293 -703.815 0.
-2.27989 -1125.05 0.
-182.853 -1546.29 0.
-404.012 -1712.73 0.
-364.596 -1620.73 0.
-325.18 -1528.73 0.
-689.387 -1621.81 0.
-650.974 -1532.26 0.
-824.342 -1497.48 0.
-625.568 -1033.91 0.
-426.793 -570.346 0.
899.609 82.0961 0.
610.336 -593.36 0.
321.063 -1268.82 0.
-105.777 -1589.57 0.
7.52162 -1325.31 0.
120.821 -1061.06 0.
-201.703 -1058.44 0.
-141.172 -917.594 0.
47.8265 -721.693 0.
-1971.04 -1369.14 0.
-1855.75 -1099.33 0.
-701.399 -498.386 0.
-863.911 -877.893 0.
-1026.42 -1257.4 0.
-2012.87 -1675.42 0.
-1786.65 -1146.68 0.
-1560.42 -617.942 0.
-1876.48 -1019.01 0.
-2225.39 -1832.29 0.
-2574.3 -2645.57 0.
-4754.38 -2906.9 0.
-4287.98 -1818.39 0.
-5548.07 -1470.85 0.
-5150.6 -544.006 0.
-4753.12 382.842 0.
-7920.53 -397.953 0.
-7852.36 -236.821 0.
-7784.18 -75.6893 0.
-11875.6 -2764.9 0.
-12886.4 -5120.01 0.
-13897.3 -7475.11 0.
64592.3 27866.4 0.
66173.3 31565.2 0.
-595506 -248992 0.
65950.7 31513 0.
64392.9 27868.8 0.
-13322.8 -7237.88 0.
-12565.9 -5473.94 0.
-11809.1 -3710 0.
-7379.14 -1030.65 0.
-7353.52 -971.82 0.
-7327.91 -912.991 0.
-5288.73 -42.7753 0.
-5283.58 -31.3238 0.
-5278.42 -19.8724 0.
-4604.5 -364.631 0.
-4964.22 -1202.26 0.
-1345.06 -323.898 0.
-1726.16 -1213.47 0.
-2107.26 -2103.05 0.
-1634.68 -2232.19 0.
-1424.89 -1743.07 0.
-1215.11 -1253.95 0.
-984.363 -916.642 0.
-922.798 -773.594 0.
-861.234 -630.545 0.
-2323.03 -987.596 0.
-2156.54 -598.848 0.
-145.973 561.793 0.
-446.6 -207.889 0.
-783.232 -992.993 0.
101.168 -1140.86 0.
5.86244 -1363.06 0.
-89.4436 -1585.27 0.
569.377 -1226.79 0.
761.882 -776.908 0.
954.387 -327.021 0.
-308.391 -644.02 0.
-225.684 -449.587 0.
-142.978 -255.154 0.
-213.682 -570.827 0.
-385.302 -972.018 0.
-257.08 -1166.08 0.
-140.202 -893.382 0.
-23.3231 -620.686 0.
13.7045 -496.666 0.
-30.9523 -602.726 0.
-75.6091 -708.786 0.
112.988 -554.216 0.
216.83 -311.831 0.
320.672 -69.4473 0.
-126.74 -60.7892 0.
-28.4379 169.555 0.
162.715 -44.6149 0.
41.9531 -63.0321 0.
68.0659 -2.66052 0.
272.288 90.6378 0.
155.985 -182.69 0.
39.6821 -456.017 0.
233.78 -648.132 0.
53.25 -1069.07 0.
-127.28 -1490.02 0.
91.787 -1469.93 0.
131.168 -1377.96 0.
170.548 -1285.99 0.
-765.101 -1622.54 0.
-726.637 -1533.05 0.
-560.301 -1353.75 0.
-361.363 -890.272 0.
-162.425 -426.797 0.
-380.004 -434.543 0.
-668.725 -1109.68 0.
-957.445 -1784.83 0.
1344.34 -937.352 0.
1457.77 -673.015 0.
1571.19 -408.677 0.
-695.339 -1237.63 0.
-634.84 -1097.63 0.
-905.038 -1099.36 0.
-1813.77 -1271.3 0.
-1699.08 -1001.33 0.
-1161.75 -664.514 0.
-1324.01 -1044.05 0.
-1486.26 -1423.58 0.
-1589.03 -1462.32 0.
-1363.1 -932.495 0.
-1137.17 -402.674 0.
-1312.58 -747.838 0.
-1662.01 -1560.65 0.
-2011.45 -2373.46 0.
-4460.37 -2749.75 0.
-3993.99 -1660.8 0.
-4636.87 -1046.94 0.
-4238.76 -119.789 0.
-3840.65 807.357 0.
-7297.84 -102.306 0.
-7230.87 60.1506 0.
-7163.89 222.608 0.
-8142.98 -1142.9 0.
-9158.79 -3502.43 0.
-10174.6 -5861.95 0.
58377.8 25246 0.
59945.6 28933.4 0.
-521268 -217144 0.
59828.4 28926.3 0.
58283.4 25293.2 0.
-9557.72 -5602.09 0.
-8797.51 -3834.61 0.
-8037.29 -2067.13 0.
-6728.3 -722.305 0.
-6702.35 -664.606 0.
-6676.4 -606.906 0.
-4182.83 465.277 0.
-4177.3 476.454 0.
-4171.77 487.63 0.
-4465.02 -271.291 0.
-4825.8 -1107.94 0.
-1711.92 -451.793 0.
-2092.66 -1341.23 0.
-2473.4 -2230.67 0.
-672.466 -1788.03 0.
-462.37 -1298.96 0.
-252.274 -809.895 0.
-1160.21 -959.907 0.
-1098.33 -817.323 0.
-1036.45 -674.738 0.
-2347.82 -966.091 0.
-2181.49 -577.207 0.
-1145.82 165.114 0.
-1371.59 -571.744 0.
-1708.22 -1356.12 0.
2218.1 -202.238 0.
2122.52 -424.733 0.
2026.95 -647.228 0.
-43.3456 -1456.94 0.
148.631 -1006.87 0.
340.609 -556.799 0.
-579.325 -730.649 0.
-497.667 -535.759 0.
-416.01 -340.87 0.
-245.137 -552.587 0.
-416.31 -954.223 0.
-242.887 -1129.91 0.
-126.071 -857.397 0.
-9.25465 -584.889 0.
230.428 -372.229 0.
186.643 -479.975 0.
142.858 -587.721 0.
-34.5453 -584.006 0.
69.1668 -341.753 0.
172.879 -99.5001 0.
388.535 191.745 0.
486.403 423.022 0.
436.728 -304.166 0.
-363.063 -887.636 0.
-368.392 -902 0.
-697.53 -1944.7 0.
-301.87 -1021.36 0.
-524.629 -1541 0.
-1024.93 -3659.77 0.
-786.516 -3104.54 0.
-3272.58 -8906.41 0.
-4997.68 -14258.7 0.
-1060.23 -5073.16 0.
-1131.99 -5242.44 0.
-2525.54 -5551.68 0.
-2925.12 -6480.77 0.
-4165.85 -10250.5 0.
-1258.65 -3463.99 0.
-1663.63 -4405.89 0.
-3522.59 -5307.16 0.
-3453.29 -5145.7 0.
-6088.7 -11295.2 0.
-22638 -59627.2 0.
-1832.3 -11077.9 0.
-838.769 -8757.02 0.
-3624.81 -7107.74 0.
-2842.13 -5282.31 0.
-3617.17 -7147.82 0.
-3182.5 -4724.64 0.
-3047.93 -4412.39 0.
-2813.8 -3624.55 0.
-2860.2 -3731.21 0.
-4097.66 -6617.03 0.
-6813.3 -14426.4 0.
-3584.01 -6892.48 0.
-3500.56 -6698.83 0.
-3327.56 -6480.32 0.
-3698.65 -7350.95 0.
-17437.2 -39412.3 0.
-14059.3 -25678.7 0.
-10111.8 -16470 0.
-9244.6 -13505.2 0.
-7313.64 -9001.72 0.
-7511.87 -9466.36 0.
-10161.1 -7973.02 0.
-8987.04 -5236.83 0.
-8983.26 -5231.23 0.
-7507.17 -6743.54 0.
-9138.94 -10534.5 0.
-28454.7 -55588.3 0.
49124.3 15555.6 0.
52673.8 23922.5 0.
-413886 -172477 0.
52469.3 23514.8 0.
48663.5 14553.5 0.
-26775 -52930.3 0.
-9041.51 -11567.2 0.
-8520.73 -10367.2 0.
-9649.71 -8778.14 0.
-9030.51 -7332.85 0.
-10090.7 -9806.19 0.
-6805.7 -7734.59 0.
-5597.2 -4915.13 0.
-5705.77 -5168.84 0.
-6282.52 -4738.27 0.
-6560.66 -5392.15 0.
-5566.27 -8722.37 0.
-5237.92 -7955.82 0.
-7444.18 -13103.3 0.
-22861 -55364 0.
-3605.15 -10430.7 0.
-3490.98 -10161.4 0.
-4892.32 -9305.01 0.
-4265.01 -7840.24 0.
-6066.4 -12042.5 0.
-3731.67 -4107.12 0.
-3343.02 -3200.17 0.
-3851.99 -4351.81 0.
-3073.05 -2748.95 0.
-3886.65 -4644.4 0.
-5899.26 -23138.2 0.
-6867.12 -25398 0.
-28482.9 -75836.2 0.
-12706.9 -29805.5 0.
-5904.07 -13932.1 0.
-5802.16 -13694.3 0.
-2716.17 -5160.41 0.
-1509.78 -2350.4 0.
-2045.11 -3604.39 0.
-1536.37 -3470.72 0.
-1784.75 -4048.1 0.
-3376.66 -8455.54 0.
-852.019 -2561.63 0.
-720.437 -2251.88 0.
-456.916 -2370.33 0.
-254.032 -1893.43 0.
-1148.95 -3978.05 0.
-1017.02 -2570.39 0.
-217.018 -704.254 0.
-60.4808 -339.583 0.
413.202 -688.307 0.
-587.289 -3025.18 0.
211.699 368.528 0.
308.343 258.494 0.
197.313 -1.38619 0.
135.741 -165.641 0.
267.262 144.121 0.
398.783 453.882 0.
1002.19 1112.75 0.
1306.6 1821.97 0.
1611.01 2531.2 0.
1685.57 2648.7 0.
1596.16 2438.2 0.
1506.75 2227.69 0.
1016.17 2146.09 0.
1099.42 2341.55 0.
1364.4 2546.45 0.
1071.9 1867.76 0.
779.391 1189.07 0.
-90.925 948.711 0.
766.431 2945.99 0.
1623.79 4943.26 0.
4278 6272.91 0.
3714.16 4957.52 0.
3150.32 3642.13 0.
798.718 2254.31 0.
724.593 2081.22 0.
1200.39 2143.76 0.
-224.98 1360.85 0.
-314.772 1149.98 0.
-441.111 1095.09 0.
-116.107 1855.32 0.
208.897 2615.56 0.
775.246 3049.56 0.
591.715 2620.96 0.
408.184 2192.36 0.
855.589 3465.23 0.
1835.5 5746.28 0.
2815.41 8027.32 0.
196.727 6663.97 0.
-97.5193 5974.92 0.
-295.011 5265.34 0.
-915.263 3819.18 0.
-1535.51 2373.02 0.
-3214.4 733.833 0.
-3380.85 343.712 0.
-3547.28 -46.4018 0.
-2080.26 -454.91 0.
-3066.51 -2738.91 0.
-4052.71 -5022.89 0.
42728.2 19106.3 0.
46035.3 26937.9 0.
-279567 -106193 0.
46402.1 27212.2 0.
43155.4 19525 0.
-3140.03 -4201.97 0.
-1938.62 -1416.87 0.
-737.202 1368.27 0.
-2807.58 1610.88 0.
-2804.3 1620.86 0.
-2801.02 1630.85 0.
-1785.49 1948.8 0.
-1878.43 1732.28 0.
-1971.37 1515.75 0.
-2617.61 1057.62 0.
-2705.05 848.747 0.
-793.015 1771.33 0.
146.274 3958.59 0.
1085.56 6145.85 0.
3416.31 7744.81 0.
2614.14 5873.58 0.
1811.96 4002.35 0.
526.391 2877.62 0.
580.971 3003.78 0.
635.552 3129.94 0.
-282.277 2200.02 0.
-644.34 1357.78 0.
-317.584 848.903 0.
318.987 2494.19 0.
1039.16 4175.31 0.
5162.15 7262.7 0.
5742.19 8615.01 0.
6322.23 9967.31 0.
3608.18 8422.39 0.
2542.8 5935.6 0.
1477.42 3448.8 0.
955.257 2333.78 0.
735.967 1818.53 0.
516.678 1303.29 0.
1017.65 1495.84 0.
1032.76 1535.17 0.
893.147 1460.67 0.
704.901 1023.41 0.
516.654 586.155 0.
535.27 445.422 0.
638.675 691.71 0.
742.079 937.998 0.
358.395 754.364 0.
272.273 554.019 0.
186.15 353.674 0.
820.983 790.956 0.
951.157 1094.43 0.
-400.362 137.977 0.
545.106 390.499 0.
433.67 130.797 0.
238.989 -90.0016 0.
369.564 220.307 0.
500.139 530.616 0.
995.885 1140.62 0.
1300.3 1849.84 0.
1604.71 2559.07 0.
1012.55 2391.48 0.
923.251 2181.19 0.
833.951 1970.9 0.
1329.96 2312.01 0.
1413.78 2506.76 0.
1436.78 2608.34 0.
1144.04 1929.9 0.
851.307 1251.46 0.
845.408 1382.17 0.
1704.35 3380.14 0.
2563.29 5378.12 0.
2669.29 5615.42 0.
2106.76 4300.64 0.
1544.23 2985.85 0.
1319.71 2510.43 0.
1245.26 2337.29 0.
1866.75 2462.32 0.
219.142 1581.73 0.
129.129 1370.76 0.
4.17023 1317.46 0.
329.181 2077.99 0.
654.192 2838.51 0.
911.973 3137.94 0.
728.343 2709.83 0.
544.713 2281.71 0.
774.476 3460.84 0.
1754.48 5741.46 0.
2734.48 8022.07 0.
698.727 6913.96 0.
404.482 6224.51 0.
829.443 5777.21 0.
207.828 4331.09 0.
-413.784 2884.96 0.
740.098 2458.94 0.
572.813 2068.32 0.
405.542 1677.7 0.
1270.62 989.753 0.
281.587 -1300.01 0.
-707.417 -3589.75 0.
33079.9 15069.2 0.
36353.7 22853.3 0.
-157111 -53680.6 0.
37061.1 23270.8 0.
33846.7 15628.6 0.
230.163 -2758.11 0.
1435.69 33.4997 0.
2641.22 2825.15 0.
136.522 2904.44 0.
139.053 2914.54 0.
141.583 2924.65 0.
-704.04 2441.76 0.
-797.321 2225.13 0.
-890.598 2008.51 0.
-1152.86 1719.79 0.
-1240.27 1511.01 0.
-438.894 1953.73 0.
502.309 4140.63 0.
1443.52 6327.54 0.
2490.74 7380.24 0.
1689.76 5509.36 0.
888.779 3638.47 0.
786.311 3023.09 0.
841.479 3148.39 0.
896.649 3273.69 0.
649.727 2633.24 0.
286.621 1791.07 0.
1071.96 1474.18 0.
1737.62 3132.73 0.
2459.4 4815.33 0.
2769.43 6270.63 0.
3348.61 7621.28 0.
3927.8 8971.94 0.
3543.27 8430.31 0.
2478.2 5943.27 0.
1413.13 3456.22 0.
1533.85 2611.35 0.
1314.03 2096.21 0.
1094.21 1581.07 0.
1555.41 1757.78 0.
1569.81 1797.46 0.
933.124 1506.93 0.
745.099 1069.46 0.
557.073 631.997 0.
289.924 373.619 0.
392.814 620.169 0.
495.702 866.719 0.
313.747 765.703 0.
227.204 565.542 0.
140.66 365.381 0.
561.263 712.899 0.
690.862 1017.14 0.
-526.682 -142.29 0.
369.098 63.7549 0.
277.751 -147.715 0.
217.097 -342.461 0.
149.555 -500.486 0.
82.0132 -658.51 0.
123.28 -757.898 0.
82.0566 -851.278 0.
40.8336 -944.659 0.
-658.649 -1268.06 0.
-660.11 -1272.79 0.
-661.569 -1277.52 0.
-40.817 -1095.77 0.
-91.1158 -1211.06 0.
-240.821 -1346.19 0.
-178.604 -1200.72 0.
-116.387 -1055.25 0.
193.119 -1036.81 0.
-130.825 -1779.79 0.
-454.767 -2522.77 0.
-1415.76 -2935.54 0.
-1137.32 -2290.58 0.
-858.877 -1645.62 0.
-247.874 -1360.55 0.
-317.422 -1527.02 0.
128.903 -1472.3 0.
-964.745 -1747.97 0.
-856.514 -1500.18 0.
-797.071 -1361.05 0.
-899.301 -1600.36 0.
-1001.53 -1839.67 0.
-1121.04 -1875.1 0.
-971.385 -1531.82 0.
-821.734 -1188.54 0.
-1302.96 -1820.41 0.
-1723.97 -2803.27 0.
-2144.99 -3786.13 0.
-3124.65 -4028.94 0.
-2956.77 -3639.47 0.
-1732.22 -2843.66 0.
-1858.3 -3139.93 0.
-1984.37 -3436.19 0.
423.99 -2828.61 0.
-33.8057 -3888.96 0.
-491.597 -4949.31 0.
1283.59 -3362.85 0.
2515.46 -477.248 0.
3747.32 2408.35 0.
22060.4 4797.7 0.
17791.3 -5057.62 0.
386.006 -20535.7 0.
17933.7 -5119 0.
22144.1 4582.07 0.
4034.24 2128.27 0.
2730.87 -903.811 0.
1427.5 -3935.87 0.
-1902.91 -6105.98 0.
-1294.16 -4693.13 0.
-685.399 -3280.27 0.
-2203.55 -3276 0.
-1971.98 -2734.07 0.
-1740.4 -2192.14 0.
-1856.44 -2201.9 0.
-1852.54 -2191.38 0.
-1690.51 -2150.04 0.
-1894.96 -2622.88 0.
-2099.41 -3095.72 0.
-2077.84 -3105.42 0.
-1718.81 -2269.87 0.
-1359.78 -1434.32 0.
-839.532 -1054.37 0.
-954.523 -1320.33 0.
-1069.51 -1586.3 0.
-678.279 -1390.57 0.
-627.889 -1283.62 0.
594.245 -675.658 0.
399.375 -1050.85 0.
242.769 -1409.64 0.
-1579.23 -2564.67 0.
-1909.58 -3329.91 0.
-2239.92 -4095.15 0.
-1572.89 -3727.84 0.
-1112.05 -2651.72 0.
-651.215 -1575.6 0.
75.6033 -1036.14 0.
51.0499 -1096.41 0.
26.4945 -1156.69 0.
537.465 -852.27 0.
584.073 -743.198 0.
-130.294 -963.425 0.
-88.6934 -860.543 0.
-47.0933 -757.66 0.
-253.455 -773.614 0.
-233.775 -726.509 0.
-214.094 -679.404 0.
-332.409 -631.174 0.
-257.813 -458.977 0.
-183.216 -286.78 0.
-68.0155 -414.67 0.
-202.504 -719.123 0.
70.5961 141.774 0.
80.184 -29.383 0.
-12.1592 -239.957 0.
357.813 -253.825 0.
290.951 -412.268 0.
224.089 -570.711 0.
-1.5092 -778.628 0.
-42.6697 -872.593 0.
-83.8303 -966.559 0.
-216.192 -1049.25 0.
-217.535 -1054.23 0.
-218.877 -1059.22 0.
-122.134 -1100.38 0.
-172.595 -1215.91 0.
-227.344 -1311.64 0.
-165.624 -1165.84 0.
-103.905 -1020.04 0.
213.599 -995.787 0.
-109.451 -1740.01 0.
-432.499 -2484.24 0.
-844.535 -2658.16 0.
-565.577 -2013.41 0.
-286.616 -1368.66 0.
-498.844 -1437.92 0.
-568.077 -1604.41 0.
-1162.29 -1995.94 0.
-793.18 -1644.91 0.
-685.923 -1396.89 0.
-361.963 -1144.11 0.
-464.639 -1382.93 0.
-567.315 -1621.75 0.
-952.657 -1774.82 0.
-803.994 -1430.62 0.
-655.331 -1086.43 0.
-770.998 -1565.03 0.
-1192.86 -2547.25 0.
-1614.72 -3529.48 0.
-1512.42 -3308.35 0.
-1344.35 -2918.58 0.
-63.5929 -2102.17 0.
-190.931 -2398.01 0.
-318.264 -2693.85 0.
1328.36 -2417.23 0.
869.492 -3478.51 0.
410.627 -4539.79 0.
2573.33 -2765.79 0.
3807.82 120.571 0.
5042.31 3006.93 0.
15463.6 1957.84 0.
11228.7 -7862.65 0.
1249.09 -20131.9 0.
10241.3 -8404.61 0.
14412.6 1256.54 0.
4861.62 2532.8 0.
3557.56 -500.568 0.
2253.5 -3533.92 0.
-332.193 -5413.3 0.
276.465 -3997.56 0.
885.126 -2581.82 0.
-940.253 -2708.81 0.
-708.699 -2166.39 0.
-477.141 -1623.97 0.
-900.01 -1761.28 0.
-896.264 -1751.09 0.
-808.573 -1743.22 0.
-1013.04 -2216.18 0.
-1217.5 -2689.13 0.
-1345.21 -2761.36 0.
-985.798 -1925.44 0.
-626.386 -1089.52 0.
-766.968 -991.824 0.
-881.578 -1258.02 0.
-996.187 -1524.21 0.
-595.426 -1324.42 0.
-545.992 -1216.2 0.
366.85 -742.096 0.
160.373 -1122.83 0.
4.37943 -1481.93 0.
-638.257 -2131.51 0.
-968.44 -2896.97 0.
-1298.62 -3662.43 0.
-1264 -3566.57 0.
-802.629 -2490.17 0.
-341.257 -1413.78 0.
-209.091 -1127.15 0.
-233.308 -1187.37 0.
-257.526 -1247.58 0.
257.271 -942.108 0.
304.359 -833.474 0.
-154.549 -942.89 0.
-112.647 -840.419 0.
-70.7446 -737.947 0.
-103.266 -677.835 0.
-83.5722 -630.673 0.
-63.8787 -583.51 0.
-354.631 -611.676 0.
-280.586 -439.128 0.
-206.541 -266.58 0.
-151.617 -418.222 0.
-287.206 -722.245 0.
584.309 296.691 0.
-119.004 74.6765 0.
-275.924 -293.466 0.
251.949 -739.99 0.
434.574 -313.979 0.
525.838 -101.126 0.
-577.878 -1854.76 0.
305.496 209.523 0.
199.047 -36.192 0.
277.758 -731.085 0.
-73.2045 -1546.99 0.
390.291 -462.509 0.
216.311 -120.471 0.
155.216 -266.195 0.
-56.6195 -900.823 0.
263.357 -160.711 0.
-93.7835 -1000.55 0.
-148.274 -1825.79 0.
-74.1798 -1654.98 0.
227.453 -953.263 0.
422.862 -759.319 0.
550.918 -461.032 0.
692.154 -132.034 0.
-261.286 -393.638 0.
-628.709 -1250.34 0.
-609.853 -1096.4 0.
-273.343 -727.088 0.
-554.079 -1392.52 0.
175.595 -668.241 0.
696.734 541.46 0.
1130.68 1547.72 0.
-839.502 -1806.61 0.
-582.116 -1211.81 0.
-276.332 -503.992 0.
277.036 -95.1231 0.
-645.687 -2246.53 0.
-1392.85 -3988.37 0.
-160.614 -3170.58 0.
166.652 -2403.24 0.
1208.81 -2266.74 0.
1267.79 -2125.78 0.
1531.01 -1508.32 0.
2415.32 -1557.06 0.
2145.33 -2188.85 0.
2714.81 -862.01 0.
4702.66 -173.28 0.
4562.84 -497.789 0.
4981.8 481.497 0.
9622.67 821.958 0.
9839.7 1338.87 0.
1642.3 -3803.44 0.
7684.13 181.91 0.
7914.23 712.116 0.
4356.8 -123.37 0.
3814.25 -1400.02 0.
3290.26 -2633.37 0.
2870.01 -880.719 0.
3500.94 584.008 0.
3492.06 555.851 0.
429.586 -1883.65 0.
-42.2095 -2985.92 0.
1055.87 -425.074 0.
130.389 -1152.3 0.
-478.527 -2565.07 0.
-237.514 -2041.07 0.
745.308 255.126 0.
190.474 -1036.57 0.
-252.964 -1567.39 0.
-294.239 -1660.85 0.
-28.4794 -1037.86 0.
-1066.82 -1806.36 0.
-211.423 189.665 0.
-342.033 -114.929 0.
-729.304 -1765.89 0.
-911.789 -2191.52 0.
627.787 -119.207 0.
53.8665 -901.376 0.
-294.261 -1716.59 0.
983.654 -68.9548 0.
397.262 -1436.7 0.
301.917 -1658.59 0.
-256.845 -1766.7 0.
77.6187 -983.697 0.
374.311 -288.769 0.
-592.033 -1469 0.
-570.123 -1413.87 0.
-973.086 -2350.15 0.
212.004 -475.001 0.
596.995 422.702 0.
516.837 698.717 0.
439.861 511.569 0.
344.388 281.102 0.
318.918 68.3289 0.
278.366 -27.5975 0.
722.387 1007.15 0.
-212.687 -220.992 0.
-375.783 -602.331 0.
-431 -731.917 0.
71.481 289.654 0.
-287.044 -555.433 0.
139.141 47.7365 0.
-34.2312 -201.964 0.
-103.592 -367.165 0.
243.656 -339.303 0.
216.533 -403.365 0.
189.41 -467.427 0.
85.8706 -630.331 0.
-20.3726 -873.757 0.
-126.615 -1117.18 0.
215.73 -1024.18 0.
227.432 -993.586 0.
239.134 -962.988 0.
-128.936 -1059.12 0.
-89.5967 -969.728 0.
-53.3831 -880.49 0.
-16.3968 -796.494 0.
20.5886 -712.498 0.
184.456 -722.179 0.
-58.2947 -1289.05 0.
-301.046 -1855.93 0.
43.8036 -1814.73 0.
165.521 -1532.41 0.
287.238 -1250.08 0.
-504.488 -1466.7 0.
-464.435 -1374.49 0.
-429.086 -1284.13 0.
-446.224 -1260.81 0.
-415.888 -1201.45 0.
-8.26597 -982.768 0.
34.4625 -887.78 0.
77.1911 -792.792 0.
-230.035 -1006.13 0.
-400.09 -1408.18 0.
-570.144 -1810.22 0.
-121.409 -1661.24 0.
-58.6142 -1511.22 0.
4.18248 -1361.2 0.
1020.21 -1399.2 0.
715.608 -2105.2 0.
1470.82 -2293.22 0.
1497.37 -2225.92 0.
1523.92 -2158.62 0.
2494.51 -1765.46 0.
2379.43 -2035.41 0.
2264.34 -2305.37 0.
3432.95 -1640.22 0.
3692.26 -1037.92 0.
3951.56 -435.627 0.
7843.08 538.468 0.
7291.27 -741.898 0.
2858.15 -3684.67 0.
6210.5 -1142.86 0.
6791.24 210.737 0.
3702.58 -330.9 0.
3565.93 -657.472 0.
3429.27 -984.044 0.
2492.87 -1608.13 0.
2397.69 -1837.14 0.
2302.51 -2066.14 0.
562.375 -2732.41 0.
676.169 -2466.92 0.
789.964 -2201.44 0.
-6.54265 -2160.55 0.
192.845 -1688.31 0.
85.0699 -1460.75 0.
-101.396 -1893.57 0.
-287.862 -2326.39 0.
-498.948 -2479.17 0.
-273.313 -1950.65 0.
-47.6773 -1422.12 0.
-557.864 -1462.86 0.
-556.466 -1458.17 0.
-555.066 -1453.47 0.
-410.27 -1283.46 0.
-340.628 -1118.09 0.
143.601 -782.582 0.
-43.548 -1159.29 0.
-198.878 -1522.37 0.
219.936 -1640.29 0.
76.3008 -1973.03 0.
-67.3356 -2305.76 0.
-344.616 -2270.54 0.
-22.5887 -1514.44 0.
299.439 -758.335 0.
-150.324 -631.76 0.
-46.4369 -385.628 0.
57.4503 -139.495 0.
192.723 -374.997 0.
14.2051 -790.56 0.
-286.35 -1192.54 0.
-201.251 -998.953 0.
-116.152 -805.363 0.
16.0673 -679.541 0.
-19.9949 -764.395 0.
-56.0569 -849.248 0.
-408.861 -971.828 0.
-359.393 -857.717 0.
-309.925 -743.606 0.
-268.762 -668.063 0.
-237.814 -600.321 0.
-260.417 -94.7636 0.
230.735 -58.2502 0.
161.738 -223.917 0.
40.7334 -392.72 0.
13.7197 -457.231 0.
-13.2944 -521.742 0.
272.43 -519.346 0.
165.779 -762.436 0.
59.1282 -1005.53 0.
311.24 -950.424 0.
322.786 -919.855 0.
334.332 -889.286 0.
-43.4973 -993.225 0.
-4.50132 -903.659 0.
-43.2676 -844.359 0.
-7.67455 -759.767 0.
27.9173 -675.174 0.
27.9706 -760.165 0.
-215.265 -1326.72 0.
-458.501 -1893.28 0.
149.787 -1738.43 0.
271.807 -1456.3 0.
393.827 -1174.17 0.
-222.735 -1314.98 0.
-181.928 -1223.3 0.
-159.408 -1139.25 0.
-359.803 -1190.73 0.
-329.112 -1131.66 0.
-52.1526 -969.694 0.
-10.2574 -874.619 0.
31.6379 -779.545 0.
112.73 -829.144 0.
-57.7165 -1231.13 0.
-228.163 -1633.11 0.
228.499 -1480.87 0.
290.713 -1330.37 0.
352.929 -1179.86 0.
1553.59 -1139.03 0.
1248.63 -1845.25 0.
1821.31 -2112.46 0.
1847.16 -2045 0.
1873.01 -1977.53 0.
2716.3 -1641.84 0.
2601.17 -1911.22 0.
2486.06 -2180.59 0.
2665.05 -1936.36 0.
2925.71 -1334.83 0.
3186.36 -733.308 0.
5829.67 -292.264 0.
5279.82 -1571.33 0.
-308.674 -5012.29 0.
5115.22 -1582.92 0.
5693.8 -229.489 0.
3026.11 -590.844 0.
2888.53 -916.394 0.
2750.96 -1241.94 0.
2428.56 -1605.78 0.
2333.26 -1834.61 0.
2237.96 -2063.43 0.
1186.34 -2435.19 0.
1299.8 -2168.59 0.
1413.26 -1901.98 0.
370.811 -1969.35 0.
570.8 -1497.21 0.
192.855 -1381 0.
6.89439 -1814.12 0.
-179.067 -2247.23 0.
-303.827 -2362.01 0.
-77.9653 -1833.66 0.
147.897 -1305.31 0.
-98.5547 -1235.99 0.
-97.6566 -1230.93 0.
-96.7574 -1225.87 0.
-256.398 -1186.21 0.
-187.567 -1020.21 0.
258.985 -703.996 0.
-12.2289 -1115.88 0.
-168.094 -1478.31 0.
125.784 -1649.94 0.
-18.3224 -1981.84 0.
-162.429 -2313.74 0.
-172.197 -2166.54 0.
149.397 -1409.79 0.
470.99 -653.044 0.
-31.2993 -547.452 0.
72.7188 -301.428 0.
176.737 -55.4035 0.
133.608 -367.917 0.
-45.5246 -783.036 0.
-262.092 -1152.12 0.
-177.706 -957.813 0.
-93.3209 -763.509 0.
52.9678 -634.266 0.
16.6438 -719.256 0.
-19.6799 -804.246 0.
-238.501 -867.564 0.
-188.901 -753.615 0.
-139.301 -639.666 0.
-166.488 -593.26 0.
-136.869 -524.584 0.
-636.56 -726.074 0.
140.196 -436.455 0.
112.286 -502.55 0.
-175.667 -681.671 0.
-203.839 -752.765 0.
-232.011 -823.859 0.
218.952 -718.226 0.
139.626 -912.227 0.
60.3 -1106.23 0.
227.651 -1106.22 0.
226.315 -1113.21 0.
224.978 -1120.19 0.
-140.51 -1357.22 0.
-196.431 -1479.98 0.
-332.68 -1635.63 0.
-353.467 -1685.19 0.
-374.254 -1734.74 0.
-431.932 -1801.82 0.
-453.092 -1850.32 0.
-474.251 -1898.82 0.
150.388 -1670.16 0.
127.687 -1722.97 0.
104.986 -1775.77 0.
-314.594 -1839.72 0.
-225.372 -1629.93 0.
148.946 -1297.88 0.
-275.211 -1520.58 0.
-297.811 -1573.78 0.
-286.005 -1629.39 0.
-331.604 -1736.27 0.
-377.204 -1843.15 0.
-120.398 -1877.3 0.
-235.475 -2148.06 0.
-350.554 -2418.82 0.
2.29168 -2557.96 0.
-169.082 -2955.09 0.
-340.457 -3352.22 0.
1014.19 -2918.8 0.
948.601 -3066.88 0.
1392.72 -2994.17 0.
1312.44 -3176.92 0.
1232.15 -3359.67 0.
2064.4 -2945.55 0.
2329.37 -2316.87 0.
2594.34 -1688.19 0.
2461.68 -1389.56 0.
2572.23 -1129.29 0.
2682.79 -869.028 0.
4805.37 -154.296 0.
4639.77 -542.892 0.
-479.417 -3058.23 0.
4634.31 -547.647 0.
4804.61 -155.155 0.
2536.87 -953.086 0.
2357.22 -1370.83 0.
2177.57 -1788.57 0.
1939.67 -2220.23 0.
1781.38 -2585.17 0.
1623.09 -2950.11 0.
1070.03 -3115.47 0.
1193.87 -2825.83 0.
1317.7 -2536.18 0.
413.228 -2606.67 0.
584.131 -2213.85 0.
-136.49 -2238.19 0.
-108.513 -2170.08 0.
-80.5362 -2101.97 0.
92.7666 -1979.99 0.
100.571 -1958.74 0.
108.374 -1937.5 0.
-242.683 -2040.83 0.
-210.538 -1970.25 0.
-178.392 -1899.66 0.
-497.995 -2002.42 0.
-477.087 -1960.84 0.
-111.852 -1770.28 0.
-271.511 -1909.96 0.
-306.769 -1996.36 0.
-130.881 -2021.02 0.
-214.279 -2221.31 0.
-297.678 -2421.6 0.
-204.664 -2312.27 0.
-38.7321 -1926.23 0.
127.2 -1540.18 0.
-283.044 -1514.65 0.
-204.091 -1332.55 0.
-125.138 -1150.45 0.
-73.7967 -996.337 0.
-6.1016 -841.176 0.
-151.264 -808.101 0.
-185.264 -888.38 0.
-219.265 -968.659 0.
-29.0335 -820.185 0.
118.329 -481.447 0.
265.692 -142.708 0.
107.901 -187.059 0.
33.0751 -357.868 0.
-41.7498 -528.677 0.
-73.926 -373.456 0.
47.7439 -90.3224 0.
-488.014 -628.85 0.
101.848 -419.84 0.
73.3726 -485.74 0.
-167.208 -647.44 0.
-195.714 -718.281 0.
-224.22 -789.122 0.
163.812 -710.46 0.
84.2707 -904.46 0.
4.72901 -1098.46 0.
137.248 -1115.19 0.
135.654 -1122.22 0.
134.06 -1129.24 0.
-58.594 -1291.14 0.
-113.845 -1414.8 0.
-196.324 -1546.26 0.
-217.626 -1595.62 0.
-238.929 -1644.98 0.
-279.298 -1705.8 0.
-300.721 -1754.23 0.
-322.144 -1802.67 0.
-1.34109 -1703.96 0.
-23.5774 -1757.11 0.
-45.8139 -1810.26 0.
-245.081 -1780.54 0.
-155.932 -1570.9 0.
545.259 -1098.89 0.
219.436 -1276.28 0.
197.592 -1330.21 0.
-97.8378 -1516.48 0.
-143.821 -1623.41 0.
-189.805 -1730.35 0.
104.108 -1752.81 0.
-11.9388 -2022.91 0.
-127.987 -2293.01 0.
265.631 -2414.14 0.
93.2282 -2810.97 0.
-79.1752 -3207.8 0.
1074.82 -2861.25 0.
1009.07 -3009.12 0.
985.239 -3138.47 0.
905.466 -3321.61 0.
825.69 -3504.74 0.
1636.52 -3097.48 0.
1902.12 -2469.37 0.
2167.7 -1841.26 0.
2165.6 -1484.02 0.
2276.58 -1224.24 0.
2387.55 -964.458 0.
4183.05 -392.389 0.
4017.1 -780.809 0.
2631.2 -1694.29 0.
3489.39 -1006.39 0.
3658.59 -614.061 0.
2420.86 -969.325 0.
2241.33 -1388.12 0.
2061.79 -1806.92 0.
1486.67 -2382.01 0.
1327.98 -2747.61 0.
1169.3 -3113.22 0.
914.082 -3149.38 0.
1037.57 -2859.86 0.
1161.06 -2570.34 0.
869.588 -2380.28 0.
1039.8 -1986.58 0.
-123.72 -2203.84 0.
-95.6412 -2134.95 0.
-67.5632 -2066.07 0.
485.301 -1780.76 0.
492.963 -1759.21 0.
500.625 -1737.66 0.
-169.216 -1981.2 0.
-137.201 -1910.51 0.
-105.186 -1839.82 0.
-342.89 -1901.88 0.
-321.842 -1860.08 0.
-252.522 -1799.79 0.
-69.0379 -1791.73 0.
-104.611 -1877.54 0.
-241.504 -2039.79 0.
-325.655 -2238.82 0.
-409.806 -2437.85 0.
-262.318 -2307.72 0.
-96.4622 -1921.5 0.
69.3932 -1535.27 0.
52.0579 -1337.99 0.
130.895 -1155.46 0.
209.732 -972.933 0.
171.709 -861.877 0.
238.623 -705.363 0.
-235.556 -812.121 0.
-269.239 -892.825 0.
-302.922 -973.529 0.
-40.0612 -794.6 0.
106.208 -454.714 0.
252.478 -114.828 0.
100.149 -160.288 0.
25.4718 -331.178 0.
-49.2049 -502.068 0.
-153.325 -377.192 0.
-31.6255 -93.7444 0.
-314.836 -488.275 0.
136.199 -232.118 0.
817.187 1360.84 0.
486.736 869.653 0.
74.2543 -86.1019 0.
-1.01123 -254.883 0.
398.473 -28.6595 0.
430.957 46.6732 0.
680.254 626.649 0.
846.254 739.347 0.
761.498 543.178 0.
505.921 -51.5135 0.
337.888 -492.639 0.
121.527 -1000.31 0.
249.403 -719.818 0.
811.476 590.284 0.
617.966 137.349 0.
699.721 323.411 0.
536.899 -58.0237 0.
334.35 -532.428 0.
578.431 -44.3365 0.
549.009 -113.719 0.
-121.255 -1678.26 0.
206.295 -834.237 0.
647.393 191.261 0.
627.613 -250.011 0.
1121.51 -92.1426 0.
677.823 -1130.87 0.
128.859 -1305.92 0.
522.832 -389.273 0.
657.398 -77.9688 0.
977.057 -105.603 0.
870.756 -358.274 0.
954.694 -166.654 0.
1559.7 154.049 0.
1568.05 168.945 0.
1111.14 -901.189 0.
2627.75 686.057 0.
2072.06 -617.352 0.
1685.74 -699.5 0.
1574.12 -971.104 0.
1716.88 -648.884 0.
2375.48 -510.248 0.
2630.39 74.5898 0.
2486.01 -271.915 0.
2402.84 -343.566 0.
2633.7 192.536 0.
2098.76 -1057.54 0.
3744.59 -201.999 0.
4245.64 967.482 0.
483.179 805.084 0.
3063.86 230.782 0.
2548.24 -972.895 0.
2765.51 68.141 0.
2640.95 -220.069 0.
2310.04 -987.295 0.
2189.16 159.182 0.
2010.12 -257.715 0.
2054.06 -155.033 0.
1729.11 -920.302 0.
1783.63 -788.677 0.
1980.27 -325.977 0.
1981.16 -618.266 0.
2179.85 -151.442 0.
671.094 -343.439 0.
544.513 -640.577 0.
560.028 -605.834 0.
1368.07 -412.83 0.
1826.48 649.676 0.
1466.04 -198.548 0.
437.551 -673.846 0.
659.727 -155.934 0.
744.876 42.0044 0.
556.347 -84.5225 0.
1072.9 1120.52 0.
103.103 -83.0248 0.
672.93 -413.778 0.
901.202 116.21 0.
77.0962 -1054.47 0.
214.3 -738.78 0.
493.845 -91.189 0.
603.497 -161.801 0.
421.31 -585.565 0.
590.223 -189.999 0.
798.21 -203.189 0.
566.086 -741.753 0.
1081.66 463.848 0.
842.462 284.678 0.
1171.93 1054.65 0.
-33.7349 -157.581 0.
139.202 246.708 0.
164.152 305.568 0.
13.4892 -613.119 0.
445.974 396.222 0.
359.665 194.478 0.
-234.07 -891.667 0.
274.443 292.494 0.
254.398 243.533 0.
-128.334 -147.028 0.
-249.094 -425.88 0.
-577.5 -858.649 0.
-38.0272 -469.069 0.
52.3323 -255.214 0.
261.649 -72.3245 0.
69.3072 -515.303 0.
-123.033 -958.279 0.
-151.801 -1202.96 0.
-152.96 -1206.05 0.
-154.118 -1209.13 0.
-68.4406 -1234.38 0.
-118.562 -1351.51 0.
-168.685 -1468.64 0.
30.4369 -1373.48 0.
43.1609 -1343.09 0.
56.3431 -1321.72 0.
43.7453 -1351.26 0.
31.148 -1380.8 0.
-104.897 -1482.78 0.
-166.343 -1625.95 0.
-227.788 -1769.12 0.
-8.34203 -1685.5 0.
36.9621 -1580.6 0.
82.2669 -1475.7 0.
-154.017 -1669.12 0.
-228.416 -1845.17 0.
57.7222 -1866.91 0.
360.569 -1701.09 0.
382.473 -1653.31 0.
100.264 -1764.94 0.
64.697 -1851.77 0.
29.1306 -1938.59 0.
140.257 -1878.58 0.
209.095 -1722.64 0.
277.933 -1566.7 0.
936.513 -1542.49 0.
686.515 -2129.66 0.
436.516 -2716.84 0.
1424.17 -2282.79 0.
1467.76 -2183.6 0.
1110.63 -2254.18 0.
1162.15 -2142.72 0.
1213.67 -2031.25 0.
1601.23 -1806.21 0.
1598.02 -1822.44 0.
1594.8 -1838.67 0.
1477.55 -1667 0.
1701.99 -1148.95 0.
1926.43 -630.895 0.
3093.98 -261.091 0.
2944.67 -610.187 0.
380.13 -1993.8 0.
2599.04 -977.521 0.
2631.92 -898.086 0.
1794.97 -1224.41 0.
1754.06 -1313.87 0.
1713.14 -1403.32 0.
1233.01 -1702.31 0.
1168.38 -1854.81 0.
1103.75 -2007.3 0.
1212.4 -2107.4 0.
1125.82 -2307.1 0.
1039.24 -2506.81 0.
1313.96 -2092.29 0.
1490.38 -1679.78 0.
335.389 -1909.06 0.
256.871 -2093.45 0.
178.354 -2277.84 0.
368.124 -2175.97 0.
531.148 -1799.35 0.
694.172 -1422.73 0.
182.767 -1598.37 0.
108.774 -1770.27 0.
34.78 -1942.18 0.
-121.455 -1916.67 0.
-40.9675 -1729.31 0.
46.3275 -1555.68 0.
97.1271 -1698.31 0.
12.6122 -1898.88 0.
-150.709 -1997.21 0.
34.9707 -1569.66 0.
220.65 -1142.1 0.
295.691 -1000.17 0.
215.33 -1183.61 0.
134.969 -1367.05 0.
178.02 -1446.94 0.
138.228 -1538.92 0.
98.4358 -1630.9 0.
140.641 -1307.34 0.
314.286 -903.509 0.
-173.173 -817.937 0.
-119.31 -693.596 0.
-65.4463 -569.255 0.
-135.801 -604.2 0.
-210.61 -781.516 0.
-285.419 -958.832 0.
-40.2024 -691.344 0.
151.34 -247.305 0.
342.883 196.736 0.
-28.6101 78.2854 0.
-45.8718 42.3962 0.
-690.29 -879.33 0.
-111.723 -471.673 0.
-20.9177 -258.376 0.
498.012 62.2496 0.
305.656 -381.492 0.
113.301 -825.232 0.
-192.579 -1188.11 0.
-193.865 -1191.48 0.
-195.151 -1194.86 0.
-135.81 -1230.42 0.
-185.131 -1348.07 0.
-234.454 -1465.72 0.
130.938 -1299.44 0.
142.957 -1268.45 0.
151.343 -1249.27 0.
138.809 -1278.64 0.
126.275 -1308.01 0.
-126.528 -1461.23 0.
-188.674 -1603.67 0.
-250.82 -1746.11 0.
152.466 -1585.95 0.
198.229 -1481 0.
243.993 -1376.04 0.
-140.477 -1633.54 0.
-215.519 -1808.89 0.
103.874 -1815.57 0.
288.92 -1703.23 0.
311.579 -1656.22 0.
325.731 -1634.39 0.
290.47 -1721.71 0.
255.21 -1809.03 0.
64.3426 -1874.97 0.
133.381 -1719.46 0.
202.421 -1563.96 0.
1080.45 -1450.31 0.
830.164 -2036.67 0.
579.878 -2623.04 0.
1524.94 -2209.27 0.
1567.52 -2109.07 0.
1238.99 -2167.97 0.
1289.69 -2056.06 0.
1340.39 -1944.14 0.
1348.65 -1885.51 0.
1345.27 -1901.43 0.
1341.9 -1917.36 0.
1055.38 -1816.59 0.
1280.46 -1299.09 0.
1505.53 -781.579 0.
2345.15 -548.839 0.
2196.21 -898.409 0.
-2336.64 -3126.05 0.
2681.69 -910.205 0.
2714.37 -831.322 0.
1300.59 -1401.46 0.
1260.03 -1491.33 0.
1219.48 -1581.21 0.
1055.85 -1748.08 0.
992.033 -1900.74 0.
928.212 -2053.4 0.
1219.15 -2073.02 0.
1132.57 -2272.54 0.
1045.98 -2472.06 0.
1287.91 -2072 0.
1464.55 -1659.4 0.
765.74 -1691.72 0.
686.566 -1875.61 0.
607.393 -2059.49 0.
82.7512 -2268.53 0.
245.351 -1891.62 0.
407.952 -1514.72 0.
370.371 -1487.02 0.
296.827 -1659.16 0.
223.283 -1831.29 0.
26.1816 -1821.48 0.
106.93 -1634.22 0.
757.301 -1219.97 0.
82.1116 -1673.22 0.
-3.08409 -1873.64 0.
85.5113 -1863.13 0.
271.131 -1435.92 0.
456.75 -1008.71 0.
373.231 -937.098 0.
292.089 -1120.16 0.
210.947 -1303.21 0.
87.4419 -1455.39 0.
48.2863 -1548.1 0.
9.13107 -1640.81 0.
133.834 -1279.39 0.
308.206 -876.041 0.
19.7332 -703.692 0.
74.1133 -579.749 0.
128.493 -455.807 0.
-305.411 -643.3 0.
-379.448 -821.068 0.
-453.486 -998.837 0.
108.108 -597.395 0.
299.86 -153.417 0.
491.613 290.561 0.
-7.95962 118.989 0.
-25.2759 84.3599 0.
-552.967 -457.245 0.
-100.31 -464.694 0.
-200.169 -697.906 0.
203.819 -663.703 0.
273.457 -504.485 0.
343.095 -345.268 0.
124.371 -462.752 0.
-18.2234 -799.714 0.
-160.818 -1136.68 0.
-109.682 -1135.18 0.
-36.7523 -963.664 0.
36.1773 -792.145 0.
317.677 -869.174 0.
175.651 -1199.82 0.
100.84 -1496.08 0.
18.567 -1687.47 0.
-63.7061 -1878.86 0.
-350.234 -2044.36 0.
-236.217 -1778.56 0.
-122.2 -1512.75 0.
260.138 -1316.24 0.
187.007 -1482.25 0.
113.874 -1648.26 0.
-202.136 -1842.78 0.
-215.59 -1876.36 0.
434.097 -1625.61 0.
163.078 -1827.63 0.
119.086 -1931.3 0.
284.899 -1963.25 0.
192.043 -2177.64 0.
99.1879 -2392.04 0.
-47.8156 -2538.4 0.
-17.0031 -2466.87 0.
13.8083 -2395.35 0.
816.708 -2046.05 0.
803.931 -2072.21 0.
791.154 -2098.37 0.
1692.79 -1804.46 0.
1635.14 -1935.93 0.
1151.13 -2234.18 0.
1215.78 -2084.39 0.
1280.42 -1934.6 0.
1175.52 -1810.67 0.
1314.33 -1481.53 0.
1453.14 -1152.39 0.
1088.81 -1191.18 0.
1093.28 -1179.33 0.
1097.74 -1167.47 0.
1865.54 -738.398 0.
1934.46 -576.342 0.
-3825.46 -2913.03 0.
2711.36 -261.732 0.
2635.3 -444.199 0.
1131.08 -1223.52 0.
1069.25 -1362.83 0.
1007.42 -1502.15 0.
1065.83 -1530.16 0.
1062.92 -1533.11 0.
1060.02 -1536.07 0.
1364.8 -1597.31 0.
1216.77 -1940.73 0.
1068.73 -2284.14 0.
1179.58 -2046.88 0.
1301.12 -1758.33 0.
809.107 -1786.14 0.
722.929 -1985.24 0.
636.75 -2184.34 0.
26.3554 -2521.27 0.
70.261 -2413.75 0.
114.167 -2306.23 0.
118.272 -2130.22 0.
239.302 -1848.27 0.
360.332 -1566.31 0.
145.469 -1733.34 0.
74.2831 -1903.11 0.
919.655 -1677.89 0.
-113.461 -2018.77 0.
-59.1819 -1893.57 0.
264.891 -1678.54 0.
249.812 -1704.9 0.
234.734 -1731.25 0.
99.8463 -1821.73 0.
75.4507 -1883.63 0.
51.0547 -1945.53 0.
-218.553 -1853.23 0.
-55.0489 -1472 0.
108.455 -1090.76 0.
219.389 -1053.97 0.
207.438 -1084.02 0.
-24.8143 -1186.92 0.
5.77842 -1115.03 0.
36.3716 -1043.14 0.
-552.489 -1184.11 0.
-442.888 -929.798 0.
-333.287 -675.482 0.
252.503 -314.86 0.
271.64 -266.778 0.
290.776 -218.696 0.
-165.964 -380.083 0.
-145.384 -338.393 0.
-533.687 -419.419 0.
16.7787 -384.538 0.
-84.2099 -617.189 0.
69.4592 -689.344 0.
138.182 -530.07 0.
206.905 -370.795 0.
215.201 -392.53 0.
72.4828 -729.711 0.
-70.2353 -1066.89 0.
-42.476 -1074.12 0.
30.7527 -902.984 0.
103.981 -731.845 0.
246.39 -870.805 0.
104.235 -1200.69 0.
158.515 -1440.48 0.
76.7786 -1631.93 0.
-4.95796 -1823.38 0.
-231.748 -1962.98 0.
-117.418 -1697.16 0.
-3.08846 -1431.35 0.
109.294 -1351.67 0.
36.0565 -1517.38 0.
-37.1815 -1683.09 0.
-125.217 -1778.57 0.
-138.821 -1811.9 0.
48.1339 -1759.23 0.
94.2291 -1827.11 0.
50.0741 -1930.7 0.
326.599 -1916.62 0.
233.295 -2130.32 0.
139.991 -2344.01 0.
477.469 -2279.31 0.
508.865 -2208.54 0.
540.26 -2137.77 0.
684.246 -2071.13 0.
671.636 -2097.71 0.
659.026 -2124.28 0.
1614.27 -1805.25 0.
1557.04 -1936.46 0.
916.571 -2304 0.
980.872 -2154.16 0.
1045.17 -2004.32 0.
944.92 -1878.87 0.
1083.76 -1550.53 0.
1222.6 -1222.19 0.
958.474 -1212.26 0.
963.027 -1201.53 0.
967.581 -1190.81 0.
1669.17 -789.416 0.
1738.44 -628.131 0.
7783.95 2093.7 0.
2055.4 -510.135 0.
1978.71 -691.833 0.
1073.94 -1215.91 0.
1011.46 -1354.71 0.
948.983 -1493.51 0.
1053.74 -1506.15 0.
1049.95 -1508.5 0.
1046.15 -1510.85 0.
1240.64 -1621.16 0.
1091.98 -1964.25 0.
943.327 -2307.34 0.
950.775 -2112.29 0.
1071.84 -1823.95 0.
621.628 -1836.25 0.
535.995 -2036.14 0.
450.362 -2236.03 0.
452.998 -2305.63 0.
497.754 -2198.91 0.
542.511 -2092.19 0.
19.4745 -2143 0.
141.05 -1861.29 0.
262.625 -1579.59 0.
234.825 -1660.81 0.
163.709 -1830.54 0.
843.306 -1680.1 0.
-166.189 -2011.06 0.
-112.129 -1885.91 0.
292.436 -1634.77 0.
277.984 -1661.8 0.
263.533 -1688.82 0.
314.313 -1698.74 0.
288.768 -1760.24 0.
263.221 -1821.74 0.
-417.438 -1907.67 0.
-254.129 -1527.3 0.
-90.8194 -1146.94 0.
215.023 -1024.24 0.
202.829 -1054.06 0.
195.337 -1062.02 0.
226.513 -990.446 0.
257.69 -918.872 0.
-402.677 -1089.39 0.
-293.168 -834.97 0.
-183.658 -580.55 0.
192.336 -309.547 0.
211.443 -261.374 0.
230.55 -213.202 0.
-20.0439 -285.128 0.
-0.243459 -243.923 0.
45.2871 938.097 0.
269.377 23.5267 0.
78.2619 -428.862 0.
212.598 -70.5822 0.
105.739 -321.038 0.
431.155 438.439 0.
22.127 -987.748 0.
272.632 -401.024 0.
511.017 156.74 0.
171.901 -672.912 0.
236.753 -520.55 0.
113.404 -806.859 0.
213.675 -777.917 0.
486.631 -135.662 0.
1044.61 544.4 0.
420.314 -910.934 0.
620.418 -442.208 0.
771.614 179.754 0.
962.433 625.486 0.
854.107 373.112 0.
795.152 566.643 0.
588.828 81.4226 0.
643.195 204.949 0.
530.11 -380.461 0.
972.817 652.137 0.
1018.47 247.621 0.
575.329 -550.247 0.
972.18 373.89 0.
1492.18 758.978 0.
1423.67 601.534 0.
1014.24 -351.325 0.
2068.58 464.227 0.
1546.24 -749.945 0.
1507.65 -835.533 0.
1467.47 51.5762 0.
1350.52 -224.478 0.
1334.64 -265.462 0.
2809.69 1177.75 0.
2235.69 -160.632 0.
1341.24 -848.658 0.
1767.81 143.875 0.
1636.13 -166.517 0.
1623.44 186.217 0.
1323.55 -516.001 0.
1369.93 -409.249 0.
1348.26 -11.383 0.
944.817 -957.684 0.
1318.84 -89.2511 0.
1355.35 -1113.63 0.
2036.96 479.475 0.
-6070.11 -289.941 0.
1936.26 500.167 0.
1390.88 -769.902 0.
1263.99 -632.275 0.
1593.05 135.407 0.
1421.62 -264.966 0.
1488.97 -423.583 0.
1990.76 743.374 0.
986.268 -1604.2 0.
1512.41 -705.619 0.
2123.08 713.489 0.
1687.02 -310.067 0.
1787.56 308.782 0.
1838.16 419.87 0.
1490.19 588.443 0.
885.425 -826.47 0.
976.393 -618.36 0.
1748.93 -62.1021 0.
1571.13 -479.738 0.
1499.5 -649.996 0.
893.346 118.805 0.
648.953 -455.074 0.
643.026 -472.368 0.
745.807 -613.917 0.
757.681 -584.861 0.
1524.24 470.62 0.
553.94 -214.162 0.
773.147 301.705 0.
1001.21 3.41616 0.
854.165 -337.332 0.
401.119 -1392.92 0.
1105.27 -225.086 0.
1324.49 286.205 0.
1312.38 258.001 0.
80.2228 -341.213 0.
8.71349 -506.339 0.
228.65 8.42501 0.
703.489 154.333 0.
539.2 -224.014 0.
1336.92 1220.92 0.
1044.56 544.707 0.
635.441 -404.523 0.
365.206 431.323 0.
638.984 1072.04 0.
447.181 626.406 0.
180.109 -193.651 0.
238.603 -61.1214 0.
708.721 1032.77 0.
512.894 727.115 0.
647.97 1042.53 0.
-154.167 -618.738 0.
-236.957 -694.112 0.
-289.565 -819.078 0.
-137.109 -842.329 0.
-158.179 -889.405 0.
-179.247 -936.481 0.
125.175 -732.572 0.
249.942 -439.744 0.
374.708 -146.917 0.
240.109 -418.54 0.
-15.4824 -1012.48 0.
-271.074 -1606.42 0.
30.1654 -1475.53 0.
77.5743 -1363.85 0.
74.4904 -1263.85 0.
111.936 -1175.7 0.
149.382 -1087.56 0.
191.254 -1086.78 0.
87.0767 -1330.8 0.
-17.1009 -1574.83 0.
-205.7 -1745.65 0.
-206.359 -1751.76 0.
-207.019 -1757.87 0.
232.344 -1535.92 0.
259.781 -1474.87 0.
556.34 -1298.38 0.
320.696 -1450.77 0.
293.812 -1514.25 0.
485.663 -1497.86 0.
416.59 -1657.26 0.
347.517 -1816.66 0.
655.453 -1856.73 0.
530.615 -2145.55 0.
405.777 -2434.38 0.
471.757 -2432.06 0.
518.993 -2323.96 0.
566.229 -2215.85 0.
1418.39 -1888.12 0.
1393.17 -1947.36 0.
765.841 -2241.44 0.
877.82 -1983.32 0.
989.799 -1725.21 0.
720.676 -1679.87 0.
744.292 -1628.6 0.
767.909 -1577.32 0.
585.258 -1591.35 0.
631.788 -1490.09 0.
678.319 -1388.83 0.
1265.3 -991.067 0.
1353.51 -784.757 0.
-1072.65 -1658.56 0.
1413.63 -441.411 0.
1492.19 -256.458 0.
1182.21 -351.76 0.
987.371 -808.484 0.
792.535 -1265.21 0.
914.049 -1577.4 0.
740.981 -1982.5 0.
567.913 -2387.59 0.
726.762 -2158.68 0.
929.35 -1688.81 0.
1131.94 -1218.95 0.
1144.44 -1312.78 0.
1070.05 -1492.59 0.
375.367 -1907.53 0.
403.163 -1848.49 0.
430.959 -1789.45 0.
997.904 -1522.6 0.
991.746 -1540.87 0.
985.589 -1559.15 0.
237.72 -1836.6 0.
289.85 -1719.12 0.
341.98 -1601.64 0.
326.707 -1445.41 0.
420.268 -1223.17 0.
888.696 -847.986 0.
329.461 -1338.71 0.
194.273 -1648.07 0.
135.431 -1842.35 0.
182.061 -1732.51 0.
228.692 -1622.66 0.
212.927 -1530.74 0.
271.808 -1390.92 0.
330.689 -1251.09 0.
-233.761 -1394.12 0.
-186.29 -1280.8 0.
-138.818 -1167.49 0.
275.311 -954.165 0.
286.699 -922.988 0.
210.391 -945.132 0.
188.505 -990.786 0.
166.617 -1036.44 0.
-251.744 -1167.09 0.
-164.973 -961.674 0.
-78.2028 -756.261 0.
36.8087 -686.949 0.
-0.221816 -774.786 0.
-37.2526 -862.622 0.
-522.368 -1023.15 0.
-484.386 -932.583 0.
434.393 -337.097 0.
-463.513 -759.24 0.
-517.44 -883.593 0.
-145.533 -817.905 0.
-167.774 -864.392 0.
-190.013 -910.879 0.
133.786 -696.901 0.
258.749 -404.336 0.
383.711 -111.77 0.
203.955 -405.312 0.
-51.8602 -999.288 0.
-307.675 -1593.26 0.
188.424 -1376.48 0.
236.066 -1265.41 0.
-145.786 -1325.99 0.
-108.862 -1237.83 0.
-71.9378 -1149.67 0.
162.06 -1066.11 0.
58.0355 -1309.7 0.
-45.9889 -1553.28 0.
-202.283 -1717.2 0.
-203.807 -1722.81 0.
-205.332 -1728.43 0.
493.877 -1390.16 0.
521.656 -1329.77 0.
120.175 -1453.51 0.
497.504 -1343.99 0.
470.711 -1407.53 0.
455.617 -1482.42 0.
386.304 -1641.52 0.
316.991 -1800.63 0.
162.833 -2034 0.
38.8989 -2323.26 0.
-85.0347 -2612.52 0.
573.854 -2354.23 0.
620.356 -2245.26 0.
666.859 -2136.3 0.
1340.34 -1892.02 0.
1315.03 -1950.86 0.
809.099 -2191.94 0.
921.32 -1933.8 0.
1033.54 -1675.65 0.
608.703 -1695.45 0.
632.31 -1644.58 0.
655.918 -1593.72 0.
500.144 -1596.12 0.
546.377 -1494.6 0.
592.611 -1393.08 0.
1108.69 -1027.2 0.
1196.61 -820.703 0.
-593.034 -1422.03 0.
1285.92 -464.516 0.
1364.02 -278.965 0.
952.11 -420.116 0.
756.939 -876.597 0.
561.767 -1333.08 0.
834.291 -1577.49 0.
661.564 -1983.35 0.
488.836 -2389.21 0.
541.088 -2208.81 0.
743.438 -1738.75 0.
945.788 -1268.69 0.
1222.01 -1247.88 0.
1147.04 -1427.65 0.
342.415 -1888.57 0.
370.706 -1830.05 0.
398.997 -1771.54 0.
856.808 -1551.91 0.
851.08 -1570.2 0.
845.351 -1588.49 0.
478.084 -1702.48 0.
530.952 -1585.4 0.
583.82 -1468.31 0.
265.443 -1439.18 0.
359.072 -1216.15 0.
874.762 -823.509 0.
659.759 -1167.13 0.
524.861 -1476.8 0.
61.1746 -1842.21 0.
107.732 -1732.3 0.
154.291 -1622.39 0.
-179.926 -1667.31 0.
-121.297 -1527.65 0.
-62.669 -1387.99 0.
-50.1952 -1284.14 0.
-2.48667 -1171.29 0.
45.222 -1058.45 0.
348.821 -891.274 0.
360.629 -860.67 0.
-16.1391 -1011.99 0.
-38.0029 -1057.57 0.
-59.8672 -1103.16 0.
-150.259 -1090.73 0.
-63.7628 -885.019 0.
22.7331 -679.309 0.
134.56 -616.033 0.
97.0102 -703.692 0.
59.4598 -791.351 0.
-855.273 -1135.13 0.
-818.074 -1044.62 0.
438.867 -684.71 0.
-570.231 -1145.22 0.
-523.614 -1034.45 0.
-73.4502 -755.187 0.
-51.3198 -703.68 0.
-29.1889 -652.174 0.
61.8283 -724.241 0.
-116.138 -1136.83 0.
-294.104 -1549.43 0.
-334.578 -1559.62 0.
-221 -1296.09 0.
-107.423 -1032.57 0.
400.303 -831.884 0.
368.681 -900.665 0.
-99.2592 -1157.34 0.
-157.423 -1293.14 0.
-215.587 -1428.93 0.
-98.7808 -1487.19 0.
-145.217 -1593.78 0.
-191.654 -1700.37 0.
-49.4235 -1613.22 0.
22.2446 -1449.98 0.
93.9115 -1286.74 0.
606.18 -1088.37 0.
561.421 -1190.97 0.
619.474 -1249.05 0.
569.34 -1498.6 0.
450.129 -1780.34 0.
155.191 -2077.56 0.
185.026 -2009.53 0.
214.861 -1941.5 0.
-86.3873 -2033.75 0.
-74.5129 -2007.98 0.
-62.6375 -1982.22 0.
931.78 -1482.58 0.
990.487 -1351.69 0.
1049.19 -1220.81 0.
1558.62 -1084.43 0.
1498.69 -1224.98 0.
1004.15 -1547.86 0.
974.968 -1615.3 0.
945.784 -1682.74 0.
493.937 -1818.46 0.
644.249 -1463.41 0.
794.561 -1108.36 0.
581.425 -1064.35 0.
588.639 -1048.45 0.
595.853 -1032.55 0.
1085.85 -870.821 0.
1055.69 -944.087 0.
-1139.65 -1945.58 0.
1093.52 -912.755 0.
1136.13 -818.428 0.
618.816 -965.327 0.
653.227 -886.184 0.
687.639 -807.04 0.
994.566 -720.264 0.
901.538 -936.661 0.
808.512 -1153.06 0.
774.87 -1347.25 0.
678.51 -1568.51 0.
582.15 -1789.77 0.
1101.15 -1589.61 0.
1096.85 -1591.23 0.
406.652 -1875.41 0.
450.12 -1766.06 0.
493.588 -1656.71 0.
760.328 -1481.28 0.
770.81 -1452.4 0.
781.291 -1423.51 0.
633.127 -1436.28 0.
664.352 -1361.73 0.
695.578 -1287.18 0.
288.57 -1557.56 0.
215.359 -1730.86 0.
707.458 -1658.01 0.
461.013 -1556.94 0.
572.108 -1302.17 0.
327.419 -1238.2 0.
345.056 -1196.82 0.
362.693 -1155.43 0.
-202.003 -1326.3 0.
-138.905 -1180.42 0.
-75.8076 -1034.54 0.
24.1415 -1130.87 0.
-107.941 -1440.98 0.
-240.025 -1751.08 0.
235.221 -1249.24 0.
418.977 -820.019 0.
104.352 -628.316 0.
155.732 -512.228 0.
207.112 -396.139 0.
156.607 -427.513 0.
74.2215 -622.863 0.
-8.16388 -818.213 0.
68.3535 -744.817 0.
159.786 -532.953 0.
251.219 -321.089 0.
-576.852 -574.687 0.
-524.01 -462.149 0.
265.133 -732.245 0.
-188.332 -950.901 0.
-141.522 -840.561 0.
92.0639 -652.505 0.
113.734 -600.706 0.
135.404 -548.907 0.
-69.4064 -748.886 0.
-246.583 -1162.22 0.
-423.76 -1575.56 0.
-379.597 -1548.88 0.
-266.153 -1285.5 0.
-152.709 -1022.12 0.
217.843 -876.583 0.
186.708 -946.251 0.
98.2882 -1041.25 0.
39.5851 -1177.2 0.
-19.1181 -1313.15 0.
-237.484 -1515.16 0.
-283.198 -1622.45 0.
-328.912 -1729.74 0.
243.93 -1454.47 0.
315.511 -1291.28 0.
387.091 -1128.09 0.
347.882 -1168.86 0.
303.504 -1271.91 0.
283.311 -1364.56 0.
769.178 -1381.25 0.
649.602 -1662.02 0.
108.742 -2067.86 0.
138.167 -1999.05 0.
167.593 -1930.25 0.
-172.077 -2041.07 0.
-161.003 -2014.45 0.
-149.929 -1987.83 0.
833.013 -1491.98 0.
891.874 -1361.09 0.
950.737 -1230.2 0.
1357.49 -1141.26 0.
1297.74 -1281.27 0.
787.954 -1607.93 0.
757.942 -1674.57 0.
727.932 -1741.2 0.
482.817 -1795.3 0.
632.686 -1439.57 0.
782.554 -1083.84 0.
340.219 -1133.84 0.
348.267 -1118.74 0.
356.316 -1103.65 0.
1052 -854.446 0.
1021.67 -927.679 0.
1127.86 -942.592 0.
1264.74 -807.427 0.
1307.04 -712.999 0.
653.98 -917.426 0.
688.604 -838.47 0.
723.229 -759.512 0.
580.235 -867.928 0.
487.679 -1084.6 0.
395.123 -1301.27 0.
653.849 -1368.38 0.
558.735 -1590.75 0.
463.62 -1813.11 0.
1114.75 -1552.13 0.
1110.61 -1554.33 0.
579.625 -1768.82 0.
624.091 -1660.38 0.
668.558 -1551.95 0.
606.383 -1516.45 0.
617.054 -1487.92 0.
627.727 -1459.39 0.
511.54 -1456.1 0.
542.636 -1381.09 0.
573.733 -1306.08 0.
564.726 -1409.91 0.
490.86 -1582.78 0.
698.407 -1628.96 0.
108.586 -1675.24 0.
219.533 -1420.66 0.
457.107 -1151.87 0.
474.713 -1110.31 0.
492.318 -1068.74 0.
-188.026 -1289.93 0.
-124.059 -1144.44 0.
-60.0916 -998.956 0.
-99.8776 -1151.82 0.
-231.001 -1462.55 0.
-362.125 -1773.29 0.
288.653 -1194.45 0.
472.101 -765.487 0.
260.717 -531.524 0.
312.088 -414.815 0.
363.459 -298.106 0.
159.856 -394.914 0.
77.2408 -589.938 0.
-5.37477 -784.962 0.
-14.1786 -747.809 0.
77.1688 -536.437 0.
168.516 -325.064 0.
-155.732 -363.708 0.
-103.602 -251.708 0.
553.972 304.34 0.
778.31 626.493 0.
489.17 -51.5081 0.
791.151 705.154 0.
357.687 -311.068 0.
546.887 126.238 0.
-144.826 -659.213 0.
-1.75809 -320.698 0.
123.327 -24.2032 0.
555.392 741.555 0.
416.593 420.842 0.
578.268 801.505 0.
752.841 749.445 0.
607.593 414.646 0.
932.889 568.15 0.
591.695 -227.98 0.
892.68 474.861 0.
467.187 410.704 0.
412.356 287.816 0.
73.5999 -497.783 0.
605.878 -1134.35 0.
962.503 -293.983 0.
1259.84 407.977 0.
590.416 -112.035 0.
782.477 339.366 0.
944.216 -67.5138 0.
1435.63 -183.757 0.
1889.89 879.329 0.
580.825 -854.256 0.
1203.36 598.026 0.
1142.76 456.993 0.
236.127 -884.144 0.
1026.12 952.952 0.
1033.79 964.167 0.
1486.48 246.815 0.
1215.69 -382.792 0.
1317.91 -142.572 0.
1502.02 -385.867 0.
1400.6 -625.268 0.
1198.47 -189.379 0.
1414 316.766 0.
1225.56 -120.852 0.
718.421 -1185.25 0.
896.879 -770.512 0.
1387.93 374.587 0.
577.862 -97.2018 0.
60.5441 -1304.19 0.
361.308 -602.624 0.
1381.41 7.55755 0.
1333.89 -101.342 0.
-2262.84 -1889.02 0.
1710.64 -70.1477 0.
1215.05 -1225.38 0.
705.629 -825.641 0.
1303.39 566.159 0.
1178.25 271.431 0.
329.002 -635.799 0.
599.642 -3.80725 0.
373.04 -532.192 0.
867.931 -618.303 0.
703.937 -1000.63 0.
1145.03 29.198 0.
1992.64 491.28 0.
1573.73 -492.318 0.
1160.11 -714.524 0.
1402.04 -146.536 0.
1460.32 -5.96751 0.
802.923 -738.467 0.
1279.31 378.972 0.
1046 -159.319 0.
704.007 -746.359 0.
869.398 -355.077 0.
1044.97 60.7084 0.
1223.69 -369.831 0.
1114.69 -623.561 0.
986.018 578.859 0.
634.101 244.974 0.
559.661 67.1882 0.
1266.17 529.616 0.
853.068 -440.354 0.
1253.75 488.023 0.
182.144 -428.972 0.
365.635 2.27092 0.
766.772 941.191 0.
401.728 273.154 0.
311.95 64.1669 0.
-179.758 -1081.1 0.
922.679 212.773 0.
426.024 -944.48 0.
288.521 -737.028 0.
776.228 401.312 0.
613.014 20.6706 0.
-255.172 -1344.19 0.
241.663 -186.397 0.
305.821 -38.2375 0.
-29.776 -593.956 0.
-148.503 -869.645 0.
354.462 304.143 0.
299.198 -55.7263 0.
63.1176 -603.719 0.
170.543 -720.375 0.
67.4584 -797.4 0.
-3.4924 -964.896 0.
22.2752 -1062.87 0.
45.5074 -1013.29 0.
68.74 -963.709 0.
-113.529 -1012.4 0.
-106.606 -992.526 0.
-99.6835 -972.65 0.
-262.502 -1057.31 0.
-281.269 -1101.92 0.
-300.035 -1146.53 0.
-33.4046 -1041.74 0.
-36.8202 -1047.27 0.
136.548 -984.927 0.
120.014 -1026.89 0.
103.48 -1068.85 0.
63.4652 -1132.66 0.
12.7796 -1247.26 0.
-37.9064 -1361.87 0.
374.082 -1302.44 0.
299.124 -1473.02 0.
224.166 -1643.6 0.
-37.4516 -1704.41 0.
19.1197 -1568.1 0.
-102.278 -1508.26 0.
607.989 -1331.33 0.
543.052 -1484.86 0.
229.625 -1701.22 0.
278.548 -1590.02 0.
327.471 -1478.82 0.
102.68 -1496.19 0.
129.215 -1438.89 0.
155.748 -1381.58 0.
735.246 -1224.09 0.
654.499 -1414.17 0.
573.75 -1604.25 0.
946.363 -1317.28 0.
1035.93 -1114.24 0.
798.588 -1068.81 0.
835.908 -985.966 0.
873.228 -903.123 0.
654.286 -973.502 0.
610.837 -1078.82 0.
567.388 -1184.14 0.
286.532 -1305.81 0.
326.526 -1213.77 0.
366.52 -1121.73 0.
703.412 -962.769 0.
702.703 -966.721 0.
1014.15 -839.048 0.
1215.33 -851.467 0.
1163.17 -972.127 0.
451.217 -1331.89 0.
504.776 -1209.39 0.
558.335 -1086.89 0.
175.092 -1112.45 0.
273.961 -882.983 0.
372.831 -653.516 0.
940.699 -588.229 0.
754.971 -1019.97 0.
569.244 -1451.71 0.
1145.41 -1143.66 0.
1203.46 -1014.12 0.
731.282 -1135.39 0.
671.002 -1269.97 0.
610.721 -1404.55 0.
496.565 -1571.83 0.
414.83 -1757.49 0.
333.095 -1943.15 0.
399.613 -1876.59 0.
493.751 -1657.54 0.
587.889 -1438.49 0.
555.836 -1435.23 0.
546.254 -1458.04 0.
832.112 -1349.19 0.
-248.225 -1657.73 0.
-165.912 -1468.33 0.
609.006 -1028.41 0.
594.822 -1070.52 0.
580.637 -1112.64 0.
-241.216 -1502.03 0.
-259.927 -1545.93 0.
-278.636 -1589.83 0.
-290.596 -1484.28 0.
-192.141 -1253.23 0.
-93.6851 -1022.17 0.
337.163 -868.123 0.
308.987 -933.894 0.
31.9101 -1091.69 0.
68.1961 -1005.49 0.
104.482 -919.296 0.
-79.5414 -920.629 0.
-33.014 -813.235 0.
13.5138 -705.841 0.
84.9947 -649.651 0.
79.4045 -662.407 0.
73.8143 -675.164 0.
53.1728 -701.737 0.
38.2614 -733.252 0.
252.686 -659.131 0.
-40.2643 -815.213 0.
-111.588 -981.91 0.
26.7756 -1028.23 0.
49.9858 -979.147 0.
73.1964 -930.067 0.
124.89 -879.898 0.
132.119 -860.07 0.
139.349 -840.242 0.
-300.463 -1041.55 0.
-318.609 -1086.89 0.
-336.755 -1132.23 0.
-43.3399 -1014.75 0.
-46.3355 -1020.64 0.
-0.779623 -1010.98 0.
-18.2513 -1051.91 0.
-35.723 -1092.84 0.
396.79 -960.007 0.
346.083 -1074.43 0.
295.375 -1188.85 0.
193.226 -1351.09 0.
118.354 -1521.96 0.
43.4831 -1692.83 0.
47.755 -1636.11 0.
104.412 -1500 0.
951.705 -1025.37 0.
211.985 -1471.45 0.
148.187 -1625.51 0.
264.455 -1654.08 0.
314.046 -1543.34 0.
363.637 -1432.6 0.
273.68 -1392.34 0.
300.292 -1335.28 0.
326.903 -1278.22 0.
604.379 -1247.35 0.
524.996 -1438.52 0.
445.611 -1629.7 0.
772.269 -1359.26 0.
862.072 -1156.06 0.
794.334 -1036.65 0.
831.5 -954.051 0.
868.665 -871.455 0.
482.152 -1016.56 0.
438.896 -1121.91 0.
395.638 -1227.26 0.
582.255 -1148.27 0.
623.053 -1056.77 0.
663.852 -965.27 0.
404.14 -1059.49 0.
403.748 -1063.52 0.
-1628.33 -1939.27 0.
1032.06 -899.181 0.
980.324 -1020.43 0.
420.311 -1312.26 0.
474.018 -1190.62 0.
527.726 -1068.97 0.
259.771 -1043.79 0.
358.192 -814.432 0.
456.612 -585.076 0.
1031.47 -519.02 0.
845.567 -950.963 0.
659.663 -1382.9 0.
984.023 -1181.5 0.
1042.21 -1051.98 0.
443.903 -1226.43 0.
384.239 -1361 0.
324.575 -1495.56 0.
573.831 -1508.15 0.
492.364 -1693.89 0.
410.897 -1879.64 0.
640.244 -1740.61 0.
735.466 -1522.29 0.
830.688 -1303.96 0.
316.3 -1507.73 0.
306.94 -1530.85 0.
428.16 -1490.18 0.
-314.331 -1653.98 0.
-232.241 -1464.63 0.
635.109 -987.082 0.
620.774 -1029.34 0.
606.438 -1071.59 0.
-181.806 -1443.74 0.
-199.219 -1488.64 0.
-216.632 -1533.53 0.
-201.279 -1414.9 0.
-101.878 -1184.65 0.
-2.47718 -954.403 0.
203.562 -893.555 0.
175.192 -959.204 0.
-83.9021 -1109.88 0.
-47.6289 -1023.09 0.
-11.3559 -936.311 0.
-69.9387 -885.68 0.
-23.4543 -777.998 0.
23.0303 -670.316 0.
269.472 -540.081 0.
263.862 -553.263 0.
258.253 -566.446 0.
108.712 -645.817 0.
93.2582 -678.494 0.
189.124 -754.075 0.
-114.887 -775.601 0.
20.8406 -459.713 0.
442.761 -108.574 0.
327.424 -373.124 0.
212.087 -637.672 0.
182.11 -765.281 0.
192.935 -740.155 0.
203.759 -715.029 0.
-214.544 -876.548 0.
-207.141 -859.839 0.
-199.738 -843.13 0.
54.9571 -806.955 0.
9.6809 -915.747 0.
-35.5948 -1022.97 0.
-43.394 -1039.96 0.
-51.1939 -1056.95 0.
520.461 -817.77 0.
520.97 -818.672 0.
521.478 -819.573 0.
180.997 -1011.63 0.
136.363 -1120.74 0.
91.7284 -1229.86 0.
182.928 -1300.44 0.
125.812 -1431.37 0.
1057.74 -1138.18 0.
37.4185 -1580.09 0.
27.7545 -1597.73 0.
262.71 -1477.84 0.
341.744 -1288.11 0.
420.777 -1098.37 0.
548.153 -994.037 0.
507.939 -1082.89 0.
467.725 -1171.75 0.
497.277 -1159.94 0.
519.755 -1105.99 0.
542.232 -1052.03 0.
960.83 -851.862 0.
965.863 -831.658 0.
818.404 -879.545 0.
784.122 -959.662 0.
749.839 -1039.78 0.
255.839 -1253.22 0.
324.989 -1091.64 0.
394.138 -930.069 0.
819.258 -701.487 0.
815.213 -706.728 0.
811.168 -711.969 0.
509.052 -790.286 0.
544.315 -704.725 0.
1488.16 -232.338 0.
1045.02 -571.893 0.
965.331 -755.67 0.
410.011 -1093.17 0.
429.254 -1046.84 0.
448.496 -1000.5 0.
254.584 -1125.11 0.
190.742 -1279.41 0.
126.9 -1433.71 0.
654.437 -1311.65 0.
608.901 -1414.45 0.
563.365 -1517.25 0.
772.149 -1339.95 0.
827.745 -1209.02 0.
348.221 -1323.67 0.
358.113 -1304.45 0.
368.003 -1285.23 0.
686.569 -1092.61 0.
743.933 -959.837 0.
801.296 -827.061 0.
1038.06 -779.047 0.
943.552 -993.069 0.
849.045 -1207.09 0.
283.482 -1344.47 0.
376.298 -1134.4 0.
931.917 -726.967 0.
-44.6879 -1119.97 0.
-33.1816 -1089.85 0.
609.334 -826.318 0.
539.199 -981.837 0.
469.066 -1137.36 0.
-121.759 -1408.02 0.
-62.4746 -1267.13 0.
-3.19034 -1126.23 0.
-14.9876 -1085.81 0.
-6.38883 -1066.2 0.
2.20984 -1046.59 0.
84.0774 -969.839 0.
110.671 -906.937 0.
41.1894 -868.328 0.
144.955 -628.541 0.
248.72 -388.753 0.
103.37 -347.469 0.
63.9003 -439.711 0.
24.4302 -531.953 0.
221.999 -506.027 0.
197.923 -561.167 0.
173.848 -616.306 0.
163.906 -657.681 0.
153.901 -685.956 0.
69.1331 -774.985 0.
-217.579 -792.498 0.
-82.896 -474.85 0.
506.067 -47.855 0.
391.188 -312.544 0.
276.307 -577.232 0.
5.19272 -810.849 0.
15.8726 -785.75 0.
26.5524 -760.651 0.
-123.198 -804.923 0.
-115.404 -788.697 0.
-107.61 -772.471 0.
138.336 -742.51 0.
93.029 -851.373 0.
63.7287 -944.576 0.
56.4086 -961.445 0.
49.0877 -978.314 0.
381.316 -848.622 0.
381.146 -848.113 0.
380.976 -847.604 0.
1.59282 -1059.53 0.
-42.5547 -1168.4 0.
-86.7025 -1277.26 0.
118.955 -1295.07 0.
62.3144 -1426.47 0.
142.922 -1499.31 0.
143.388 -1503.7 0.
134.347 -1522.01 0.
58.4588 -1532.81 0.
138.207 -1344.06 0.
217.955 -1155.32 0.
651.496 -916.52 0.
612.125 -1006.47 0.
572.754 -1096.41 0.
302.407 -1212.78 0.
324.928 -1159.38 0.
347.448 -1105.98 0.
1083.34 -767.591 0.
1089.78 -748.107 0.
746.246 -877.176 0.
712.232 -957.992 0.
678.218 -1038.81 0.
150.357 -1268.76 0.
220.558 -1108.43 0.
290.758 -948.089 0.
642.438 -743.424 0.
639.621 -749.917 0.
636.802 -756.41 0.
790.988 -636.966 0.
827.797 -552.946 0.
-472.514 -1041.18 0.
973.813 -569.622 0.
893.488 -753.028 0.
197.877 -1154.84 0.
215.925 -1107.73 0.
233.972 -1060.61 0.
273.127 -1087.12 0.
209.087 -1241.87 0.
145.047 -1396.61 0.
501.484 -1344.32 0.
456.696 -1447.72 0.
411.909 -1551.11 0.
617.701 -1374.34 0.
673.983 -1244.07 0.
540.679 -1210.4 0.
549.739 -1190.79 0.
558.797 -1171.17 0.
485.003 -1150.06 0.
541.398 -1016.48 0.
597.792 -882.904 0.
774.66 -859.282 0.
679.541 -1072.89 0.
584.422 -1286.49 0.
316.425 -1300.9 0.
407.737 -1089.99 0.
734.847 -777.407 0.
150.755 -1003.54 0.
162.934 -974.03 0.
379.48 -894.264 0.
310.09 -1050.47 0.
240.702 -1206.67 0.
-64.9412 -1351.54 0.
-5.05143 -1211.32 0.
54.8386 -1071.1 0.
31.6978 -1033.22 0.
41.0407 -1014.5 0.
50.3836 -995.778 0.
40.6026 -957.49 0.
67.7103 -894.554 0.
253.964 -745.009 0.
357.415 -504.282 0.
460.866 -263.555 0.
-13.2585 -366.312 0.
-52.6512 -458.832 0.
-92.0439 -551.352 0.
-72.3495 -599.513 0.
-96.2386 -655.444 0.
-120.127 -711.375 0.
272.075 -580.103 0.
261.375 -609.403 0.
-33.8491 -730.928 0.
355.602 787.174 0.
105.083 197.737 0.
572.613 36.1216 0.
135.962 -985.194 0.
846.157 669.232 0.
498.74 708.698 0.
-49.5599 -573.04 0.
139.645 -132.96 0.
222.191 -141.873 0.
-139.22 -984.41 0.
383.292 235.969 0.
540.98 64.3905 0.
176.092 -786.086 0.
687.748 361.387 0.
813.271 653.622 0.
229.596 -709.496 0.
188.938 -1002.08 0.
546.117 -166.042 0.
494.044 -284.888 0.
-1.98928 -702.913 0.
340.182 94.5317 0.
527.244 530.099 0.
727.109 271.604 0.
563.192 -114.267 0.
-56.5867 -1066.8 0.
366.999 -1160.06 0.
1003.13 326.381 0.
441.971 -203.923 0.
290.299 -556.446 0.
366.813 -376.222 0.
1575.54 1060.23 0.
1019.95 -235.28 0.
1280.25 373.168 0.
830.604 423.846 0.
606.87 -97.7887 0.
477.03 -400.484 0.
1733.69 550.445 0.
1595.58 233.885 0.
747.036 -713.769 0.
929.426 -286.124 0.
875.224 -410.387 0.
416.095 -439.761 0.
601.286 -8.71835 0.
513.062 -214.897 0.
353.159 -1048.1 0.
541.097 -613.632 0.
634.376 -399.519 0.
1085.61 -442.116 0.
1373.84 229.716 0.
51.3434 -503.036 0.
1059.57 -214.743 0.
1003.63 -337.607 0.
329.398 -417.701 0.
210.987 -687.272 0.
469.441 -76.5211 0.
434.851 -729.474 0.
771.691 58.0374 0.
1000.59 593.586 0.
833.693 -241.189 0.
722.242 -497.969 0.
934.407 -0.35173 0.
987.191 -197.343 0.
1466.96 929.087 0.
1684.93 1107.83 0.
1075.64 -307.242 0.
1311.95 250.899 0.
409.907 -910.955 0.
707.1 -217.899 0.
612.93 -438.02 0.
775.34 -298.463 0.
938.403 85.5253 0.
608.853 -681.007 0.
1179.55 669.767 0.
848.227 -99.4289 0.
672.859 308.726 0.
832.308 239.885 0.
138.014 -1375.78 0.
714.461 357.239 0.
328.36 -546.336 0.
541.821 -50.5962 0.
237.107 -719.451 0.
547.838 0.278276 0.
552.515 6.50037 0.
604.373 247.708 0.
494.029 -6.74574 0.
455.188 -94.1273 0.
730.307 758.94 0.
476.868 165.78 0.
376.466 -817.246 0.
786.525 142.987 0.
477.037 -576.543 0.
-334.003 -855.59 0.
-177.981 -488.601 0.
-37.6975 -158.922 0.
-160.061 -235.323 0.
-447.636 -906.851 0.
-394.266 -780.528 0.
307.908 -650.279 0.
512.569 -171.226 0.
70.408 -635.442 0.
-111.38 -667.95 0.
-167.597 -802.67 0.
-168.085 -896.358 0.
-153.44 -863.132 0.
-138.797 -829.908 0.
69.7137 -685.741 0.
116.377 -579.63 0.
163.041 -473.518 0.
63.1637 -642.047 0.
-55.3346 -918.019 0.
-173.833 -1193.99 0.
-93.7314 -1164.28 0.
-86.9439 -1144.35 0.
72.0494 -1064.3 0.
95.4009 -1009.37 0.
118.753 -954.45 0.
127.431 -928.698 0.
105.166 -982.878 0.
82.9021 -1037.06 0.
-60.8072 -1068.16 0.
-19.7367 -968.138 0.
21.3338 -868.115 0.
292.792 -831.859 0.
230.807 -979.372 0.
579.147 -949.973 0.
455.689 -862.713 0.
528.117 -691.104 0.
235.957 -762.237 0.
92.2766 -1097.88 0.
-51.4037 -1433.52 0.
548.43 -1321.91 0.
564.254 -1285.79 0.
580.078 -1249.67 0.
149.695 -1335.22 0.
212.526 -1184.74 0.
275.356 -1034.25 0.
835.939 -853.477 0.
787.653 -958.403 0.
400.121 -1190.5 0.
465.024 -1039.06 0.
529.925 -887.614 0.
133.237 -1016.64 0.
65.6079 -1174.54 0.
-2.02056 -1332.43 0.
331.407 -1071.85 0.
505.355 -671.555 0.
679.304 -271.253 0.
1013.64 -213.058 0.
902.126 -466.193 0.
-839.736 -1417.26 0.
772.292 -664.516 0.
803.384 -589.714 0.
267.983 -786.22 0.
236.665 -858.264 0.
205.347 -930.308 0.
332.161 -889.688 0.
351.516 -839.808 0.
370.871 -789.928 0.
455.264 -765.189 0.
433.066 -814.813 0.
410.868 -864.438 0.
694.445 -811.102 0.
660.334 -893.668 0.
491.227 -1028.07 0.
467.23 -1081.6 0.
443.232 -1135.12 0.
247.19 -1261.12 0.
233.459 -1294.59 0.
219.728 -1328.06 0.
334.672 -1225.45 0.
390.531 -1093.39 0.
446.39 -961.335 0.
578.721 -974.992 0.
519.059 -1113.63 0.
698.902 -1149.96 0.
10.9876 -1408.61 0.
28.2689 -1364.97 0.
87.4104 -1271.97 0.
175.594 -1064.61 0.
263.779 -857.248 0.
345.741 -683.264 0.
398.083 -563.219 0.
450.425 -443.173 0.
269.1 -495.511 0.
267.445 -501.16 0.
265.79 -506.81 0.
26.7845 -735.652 0.
-41.9159 -899.058 0.
171.307 -932.187 0.
130.123 -1026.94 0.
88.9386 -1121.69 0.
-528.973 -1341.12 0.
-398.03 -1036.35 0.
-267.089 -731.582 0.
-5.93168 -527.29 0.
-10.767 -538.088 0.
-15.6019 -548.887 0.
233.966 -469.087 0.
211.03 -520.332 0.
164.157 -566.513 0.
95.5743 -548.617 0.
39.1477 -682.891 0.
-567.008 -1034.94 0.
-552.693 -1001 0.
-538.379 -967.064 0.
292.598 -558.41 0.
339.482 -452.71 0.
386.366 -347.008 0.
146.762 -576.865 0.
28.2956 -852.833 0.
-90.1708 -1128.8 0.
-213.779 -1184.18 0.
-206.708 -1164.31 0.
77.5798 -1032.96 0.
100.283 -977.383 0.
122.987 -921.803 0.
34.9465 -936.174 0.
12.8106 -990.789 0.
-9.32493 -1045.4 0.
76.7392 -977.138 0.
118.172 -877.365 0.
159.605 -777.592 0.
358.56 -770.613 0.
296.377 -918.215 0.
909.752 -775.205 0.
422.866 -844.511 0.
495.807 -673.12 0.
293.856 -707.043 0.
149.435 -1041.63 0.
5.01417 -1376.21 0.
558.614 -1285.89 0.
574.424 -1249.52 0.
590.234 -1213.14 0.
257.55 -1258.1 0.
320.927 -1108.01 0.
384.304 -957.926 0.
485.843 -971.599 0.
436.943 -1075.35 0.
242.159 -1228.85 0.
307.089 -1077.36 0.
372.019 -925.868 0.
108.607 -998.472 0.
41.2215 -1156.57 0.
-26.1641 -1314.67 0.
331.124 -1039.05 0.
505.348 -639.328 0.
679.574 -239.602 0.
819.168 -263.973 0.
707.952 -517.375 0.
-1561.96 -1694.52 0.
670.14 -675.949 0.
700.598 -600.678 0.
410.95 -694.832 0.
379.396 -767.013 0.
347.841 -839.193 0.
304.182 -869.652 0.
323.128 -820.041 0.
342.074 -770.43 0.
283.676 -809.738 0.
261.09 -858.503 0.
238.504 -907.268 0.
676.293 -787.031 0.
642.955 -870.307 0.
169.501 -1132.25 0.
146.373 -1186.81 0.
123.246 -1241.36 0.
247.93 -1227.57 0.
234.919 -1261.75 0.
221.91 -1295.94 0.
300.338 -1210.03 0.
355.386 -1077.3 0.
410.434 -944.563 0.
730.387 -876.242 0.
671.353 -1015.57 0.
1158.67 -921.485 0.
-111.993 -1430.66 0.
-94.1183 -1387.78 0.
188.088 -1196.99 0.
276.263 -989.308 0.
364.438 -781.624 0.
475.558 -598.538 0.
528.178 -478.574 0.
580.799 -358.611 0.
269.909 -460.774 0.
268.913 -467.173 0.
267.917 -473.573 0.
-29.9477 -725.777 0.
-98.6413 -888.626 0.
-6.9991 -978.714 0.
-48.2483 -1073.28 0.
-89.4986 -1167.84 0.
-491.952 -1292.97 0.
-361.522 -988.066 0.
-231.092 -683.159 0.
352.044 -343.619 0.
347.247 -355.077 0.
342.449 -366.535 0.
62.7973 -512.312 0.
39.5605 -563.65 0.
364.729 63.0968 0.
353.912 -185.393 0.
278.182 -357.087 0.
-599.178 -841.563 0.
-624.522 -902.574 0.
-649.867 -963.586 0.
275.884 -599.704 0.
286.436 -574.945 0.
296.985 -550.186 0.
209.291 -546.963 0.
228.834 -500.569 0.
248.377 -454.175 0.
-65.094 -687.09 0.
-121.247 -818.838 0.
119.613 -795.915 0.
172.346 -672.385 0.
225.078 -548.856 0.
217.972 -547.945 0.
97.299 -822.467 0.
-23.3735 -1096.99 0.
16.2108 -1112.86 0.
86.524 -947.878 0.
156.837 -782.901 0.
372.178 -714.201 0.
331.898 -805.828 0.
840.806 -662.009 0.
378.365 -840.07 0.
389.138 -813.862 0.
258.767 -842.235 0.
308.508 -729.807 0.
358.25 -617.377 0.
796.419 -425.678 0.
729.039 -581.658 0.
661.658 -737.638 0.
388.341 -905.483 0.
389.247 -903.425 0.
390.152 -901.368 0.
453.386 -845.187 0.
469.804 -811.18 0.
363.11 -837.688 0.
344.895 -878.417 0.
326.68 -919.145 0.
50.2412 -1011.29 0.
129.445 -826.257 0.
208.648 -641.226 0.
465.598 -546.652 0.
388.446 -723.359 0.
311.294 -900.066 0.
596.535 -651.827 0.
704.824 -400.016 0.
-2053.74 -1377.6 0.
794.473 -167.079 0.
791.638 -178.582 0.
553.603 -304.258 0.
529.459 -369.653 0.
505.315 -435.049 0.
398.418 -585.577 0.
309.587 -798.825 0.
220.754 -1012.07 0.
144.668 -1035.2 0.
194.374 -923.671 0.
244.079 -812.142 0.
563.032 -850.671 0.
450.149 -1105.8 0.
-83.0792 -1480.08 0.
75.5469 -1108.41 0.
234.173 -736.745 0.
565.294 -445.396 0.
489.951 -623.028 0.
414.607 -800.66 0.
272.088 -969.616 0.
231.07 -1067.96 0.
190.052 -1166.29 0.
710.009 -775.057 0.
835.113 -485.493 0.
354.597 -453.438 0.
262.408 -735.847 0.
135.298 -1033.6 0.
228.23 -1189.33 0.
214.807 -1221.1 0.
201.384 -1252.86 0.
83.8196 -1295.69 0.
100.083 -1254.14 0.
116.346 -1212.59 0.
-17.6198 -1213.85 0.
20.522 -1119.06 0.
58.6637 -1024.26 0.
-236.473 -1047.37 0.
-182.634 -923.935 0.
31.1941 -718.472 0.
129.886 -489.265 0.
228.577 -260.057 0.
-16.5997 -319.335 0.
-124.533 -567.803 0.
-232.467 -816.27 0.
161.096 -731.374 0.
159.477 -736.286 0.
157.859 -741.198 0.
-75.2996 -520.411 0.
136.916 -24.6425 0.
195.889 17.3158 0.
410.336 -129.877 0.
335.274 -301.952 0.
-463.626 -751.538 0.
-488.484 -812.882 0.
-513.343 -874.226 0.
97.8305 -641.079 0.
109.341 -617.374 0.
120.85 -593.668 0.
272.556 -489.201 0.
291.868 -442.78 0.
311.181 -396.358 0.
-65.8041 -655.526 0.
-121.866 -787.026 0.
7.62472 -813.309 0.
59.4719 -688.923 0.
111.319 -564.538 0.
364.867 -456.912 0.
243.989 -731.029 0.
123.111 -1005.15 0.
-89.3453 -1126.11 0.
-18.8447 -961.443 0.
51.6557 -796.779 0.
326.26 -702.455 0.
286.508 -794.877 0.
357.808 -839.077 0.
340.891 -823.777 0.
351.872 -797.672 0.
291.695 -796.907 0.
342.25 -684.798 0.
392.805 -572.688 0.
506.294 -518.6 0.
439.223 -675.011 0.
372.15 -831.422 0.
249.722 -933.805 0.
250.712 -932.074 0.
251.703 -930.343 0.
627.109 -739.825 0.
643.248 -705.289 0.
439.676 -774.171 0.
421.934 -814.624 0.
404.191 -855.075 0.
-30.636 -1016.51 0.
48.146 -831.25 0.
126.928 -645.994 0.
305.977 -583.217 0.
230.273 -761.548 0.
154.568 -939.88 0.
688.681 -579.178 0.
797.349 -327.486 0.
-2413.72 -1499.38 0.
703.312 -174.359 0.
700.31 -185.525 0.
394.665 -341.075 0.
369.558 -405.581 0.
344.452 -470.087 0.
404.02 -555.115 0.
314.334 -767.557 0.
224.648 -980 0.
255.371 -958.759 0.
303.825 -846.075 0.
352.277 -733.39 0.
403.659 -888.736 0.
291.231 -1144.25 0.
27.0053 -1400.32 0.
185.163 -1027.95 0.
343.321 -655.59 0.
546.613 -423.475 0.
470.217 -600.324 0.
393.82 -777.172 0.
22.5743 -1045.38 0.
-18.2016 -1143.53 0.
-58.9765 -1241.68 0.
444.264 -856.851 0.
568.624 -566.332 0.
791.195 -237.186 0.
604.47 -559.902 0.
477.219 -857.603 0.
250.512 -1148.87 0.
236.729 -1180.02 0.
222.947 -1211.18 0.
-240.028 -1404.61 0.
-223.419 -1362.94 0.
-206.811 -1321.27 0.
96.0877 -1131.03 0.
134.456 -1036.72 0.
172.824 -942.405 0.
-309.423 -1048.64 0.
-255.918 -924.866 0.
68.1411 -673.118 0.
166.42 -443.491 0.
264.699 -213.864 0.
100.778 -235.33 0.
-7.50323 -483.538 0.
-115.784 -731.744 0.
-206.538 -859.528 0.
-207.62 -864.973 0.
-208.701 -870.418 0.
-203.1 -544.554 0.
9.47242 -48.9968 0.
52.0491 -262.138 0.
603.081 286.047 0.
43.5215 -1017.61 0.
-681.709 -1503.29 0.
327.923 857.383 0.
312.375 825.844 0.
647.385 1005.04 0.
126.814 -206.927 0.
-65.0078 -651.548 0.
643.155 294.848 0.
455.422 -143.9 0.
538.95 49.7676 0.
134.264 -155.548 0.
-232.568 -1013.02 0.
472.593 522.227 0.
387.628 322.744 0.
151.131 -229.22 0.
789.346 284.051 0.
919.443 588.86 0.
890.419 522.267 0.
187.239 -249.118 0.
249.302 -108.55 0.
155.313 -332.39 0.
771.596 439.913 0.
797.199 502.569 0.
1539.13 628.284 0.
565.781 -184.75 0.
797.699 355.713 0.
817.888 387.129 0.
446.023 -483.504 0.
497.718 -364.692 0.
794.271 732.188 0.
970.348 1145.34 0.
368.324 -255.637 0.
739.881 494.456 0.
967.796 1030.43 0.
464.375 -140.356 0.
1404.25 773.632 0.
946.879 -304.374 0.
523.131 -697.25 0.
300.513 -1220.9 0.
612.259 -497.908 0.
422.882 224.782 0.
428.493 239.904 0.
156.809 -391.928 0.
311.996 -238.942 0.
416.565 8.20587 0.
304.529 -249.949 0.
920.355 -197.533 0.
1237.73 540.783 0.
-6007.6 -1299.08 0.
1252.49 1332.89 0.
987.47 710.618 0.
332.325 -149.136 0.
182.351 -504.836 0.
194.42 -482.621 0.
464.026 -393.646 0.
238.879 -920.839 0.
531.59 -239.617 0.
1026.99 652.834 0.
845.352 224.436 0.
120.033 -1472.25 0.
-46.2098 -1605.44 0.
605.005 -80.2719 0.
666.575 -79.0908 0.
565.722 -311.436 0.
932.6 549.226 0.
679.833 -41.7709 0.
466.137 -538.354 0.
704.042 18.4922 0.
19.6124 -552.202 0.
520.785 617.626 0.
38.164 -509.43 0.
434.508 -340.889 0.
854.144 645.736 0.
987.856 543.942 0.
1439.05 760.426 0.
974.481 -320.739 0.
835.605 203.122 0.
736.874 -30.5765 0.
530.76 -514.667 0.
-350.439 -1016.48 0.
-164.087 -576.923 0.
164.312 195.058 0.
1186.9 1236.86 0.
723.818 151.877 0.
58.6193 -1404.02 0.
-123.639 -444.803 0.
392.516 764.362 0.
404.166 82.0053 0.
913.047 1267.98 0.
558.951 440.331 0.
231.481 -113.081 0.
283.276 8.33619 0.
96.9478 -427.05 0.
-422.841 -656.867 0.
1.81271 338.546 0.
-101.859 100.648 0.
492.002 1335.11 0.
-192.686 -267.004 0.
-477.104 -731.005 0.
52.7818 -388.465 0.
82.0572 -317.165 0.
94.781 -284.465 0.
83.1009 -309.051 0.
71.4205 -333.635 0.
33.8007 -406.778 0.
-39.1391 -574.71 0.
-112.079 -742.641 0.
173.078 -613.715 0.
224.308 -495.102 0.
275.54 -376.488 0.
35.5345 -420.888 0.
64.1838 -355.722 0.
104.388 -320.817 0.
-62.1869 -714.082 0.
-228.762 -1107.35 0.
-110.877 -1201.81 0.
9.47562 -923.673 0.
129.827 -645.539 0.
200.825 -617.336 0.
89.1146 -880.42 0.
-22.5944 -1143.5 0.
54.8666 -1078.34 0.
118.751 -928.861 0.
528.556 -631.332 0.
381.588 -728.687 0.
364.161 -769.913 0.
126.557 -882.521 0.
137.098 -856.809 0.
147.638 -831.098 0.
73.0216 -851.771 0.
86.494 -821.986 0.
99.9656 -792.202 0.
200.652 -860.499 0.
97.9924 -1097.87 0.
-4.66705 -1335.24 0.
697.097 -943.454 0.
769.091 -781.195 0.
231.047 -879.369 0.
311.358 -694.328 0.
391.67 -509.286 0.
69.5316 -561.67 0.
40.143 -630.948 0.
10.7543 -700.226 0.
71.4322 -702.605 0.
67.299 -708.055 0.
63.1658 -713.506 0.
872.136 -182.976 0.
998.029 110.52 0.
-2959.88 -1347.92 0.
469.941 -181.254 0.
311.21 -551.985 0.
63.6231 -872.788 0.
104.349 -778.335 0.
145.074 -683.882 0.
464.104 -527.611 0.
441.675 -580.83 0.
419.246 -634.05 0.
149.918 -723.744 0.
187.092 -640.891 0.
224.265 -558.038 0.
454.542 -399.257 0.
481.212 -336.517 0.
501.436 -319.363 0.
346.086 -681.489 0.
190.736 -1043.62 0.
219.41 -1187.43 0.
273.87 -1062.15 0.
328.33 -936.86 0.
-87.9093 -1052.34 0.
-69.8921 -1008.15 0.
-51.8758 -963.964 0.
320.395 -870.159 0.
264.47 -995.405 0.
1129.7 -723.626 0.
539.941 -864.005 0.
598.061 -725.18 0.
142.908 -817.905 0.
190.973 -710.45 0.
239.039 -602.994 0.
-49.3862 -712.893 0.
-85.5363 -795.847 0.
-121.687 -878.801 0.
229.666 -668.12 0.
289.702 -531.497 0.
349.737 -394.873 0.
-90.6875 -558.012 0.
-80.1999 -531.664 0.
-112.038 -521.187 0.
-106.02 -505.255 0.
-100.001 -489.322 0.
184.596 -374.034 0.
171.636 -405.945 0.
158.675 -437.856 0.
-215.351 -546.72 0.
-160.546 -416.718 0.
-105.74 -286.715 0.
-242.261 -539.146 0.
-379.658 -861.437 0.
-203.906 -587.086 0.
-250.726 -489.103 0.
-221.534 -417.646 0.
424.089 -111.094 0.
413.384 -136.576 0.
402.678 -162.056 0.
39.3578 -372.105 0.
-32.7654 -540.492 0.
-104.889 -708.879 0.
90.7563 -615.456 0.
141.956 -496.6 0.
193.156 -377.744 0.
71.0899 -373.098 0.
99.5372 -307.858 0.
112.114 -288.026 0.
-55.3419 -680.764 0.
-222.797 -1073.5 0.
-413.055 -1300.7 0.
-293.175 -1022.63 0.
-173.296 -744.567 0.
426.218 -489.58 0.
314.329 -752.489 0.
202.441 -1015.4 0.
-7.13443 -1074.05 0.
56.8379 -924.123 0.
-386.247 -991.848 0.
452.375 -668.654 0.
435.183 -710.021 0.
-38.7832 -922.549 0.
-27.7698 -897.13 0.
-16.757 -871.711 0.
31.7672 -839.252 0.
45.1858 -808.985 0.
58.6037 -778.719 0.
275.88 -796.607 0.
173.455 -1034.88 0.
71.0304 -1273.14 0.
745.559 -890.969 0.
816.842 -728.383 0.
-19.1838 -956.458 0.
61.1147 -771.599 0.
141.413 -586.739 0.
69.8634 -530.662 0.
40.1562 -600.065 0.
10.4489 -669.468 0.
32.5405 -688.002 0.
28.499 -694.068 0.
24.4577 -700.135 0.
818.875 -174.209 0.
945.032 119.09 0.
-3763.34 -1659.68 0.
323.926 -211.434 0.
165.673 -582.508 0.
128.709 -813.2 0.
169.536 -719.082 0.
210.363 -624.964 0.
552.695 -457.462 0.
530.406 -511.486 0.
508.117 -565.511 0.
-190.424 -836.841 0.
-153.091 -754.398 0.
-115.757 -671.957 0.
453.974 -367.615 0.
480.976 -305.434 0.
436.508 -315.293 0.
281.308 -677.892 0.
126.109 -1040.49 0.
278.558 -1130.67 0.
332.844 -1005.88 0.
387.13 -881.098 0.
59.7682 -957.239 0.
77.6184 -913.983 0.
95.4677 -870.727 0.
473.747 -772.892 0.
417.556 -898.222 0.
883.637 -798.847 0.
305.851 -932.916 0.
364.055 -793.641 0.
-155.338 -916.318 0.
-107.197 -808.144 0.
-59.0558 -699.969 0.
179.819 -584.244 0.
143.408 -666.354 0.
106.998 -748.463 0.
72.2666 -705.819 0.
132.141 -569.015 0.
192.014 -432.211 0.
28.111 -474.653 0.
39.6494 -449.329 0.
-417.629 -619.373 0.
-411.801 -603.641 0.
-405.972 -587.908 0.
282.496 -301.662 0.
269.193 -333.677 0.
255.89 -365.692 0.
-0.266384 -422.723 0.
54.725 -292.855 0.
109.717 -162.988 0.
-141.482 -465.716 0.
-279.118 -787.279 0.
-578.663 -585.466 0.
-269.209 -474.906 0.
-283.617 -511.573 0.
316.904 -286.378 0.
286.481 -352.894 0.
256.058 -419.409 0.
-56.4435 -616.953 0.
-96.3907 -707.312 0.
-136.337 -797.672 0.
-120.544 -833.238 0.
-137.994 -870.787 0.
-155.445 -908.335 0.
-81.8278 -876.521 0.
-73.7766 -862.123 0.
-110.331 -854.49 0.
-61.8692 -742.177 0.
-13.4074 -629.864 0.
-159.443 -623.505 0.
-138.746 -574.886 0.
-118.047 -526.267 0.
457.993 -280.262 0.
443.227 -312.698 0.
428.461 -345.134 0.
141.359 -538.828 0.
87.5662 -662.552 0.
190.491 -717.493 0.
387.558 -645.553 0.
377.485 -662.48 0.
-2.31351 -820.349 0.
22.3477 -760.546 0.
47.0094 -700.743 0.
124.859 -547.278 0.
241.604 -274.386 0.
358.35 -1.49323 0.
664.655 117.965 0.
596.26 -42.3496 0.
527.865 -202.665 0.
952.988 -262.863 0.
816.851 -578.487 0.
-332.856 -1281.87 0.
-232.618 -1044.86 0.
-132.38 -807.861 0.
145.503 -531.984 0.
195.134 -419.463 0.
244.766 -306.941 0.
153.571 -359.613 0.
103.899 -474.64 0.
54.2269 -589.667 0.
557.975 -526.667 0.
476.031 -719.715 0.
254.48 -971.364 0.
67.398 -801.415 0.
196.908 -496.133 0.
405.929 -277.409 0.
254.714 -628.38 0.
103.499 -979.351 0.
144.348 -980.575 0.
307.37 -597.713 0.
470.393 -214.852 0.
-134.205 -422.726 0.
-177.011 -520.006 0.
-219.816 -617.286 0.
321.023 -665.051 0.
166.103 -1025.58 0.
-97.4067 -1369.84 0.
10.3763 -1120.32 0.
118.159 -870.807 0.
435.759 -604.427 0.
444.8 -583.205 0.
453.841 -561.983 0.
119.964 -787.67 0.
26.5166 -1008.5 0.
-66.931 -1229.32 0.
458.484 -973.934 0.
512.534 -851.184 0.
363.243 -811.781 0.
348.055 -466.692 0.
534.518 -34.8229 0.
222.837 40.7939 0.
78.1064 -296.391 0.
-66.624 -633.577 0.
181.268 -626.085 0.
242.036 -486.078 0.
302.804 -346.07 0.
127.837 -444.224 0.
80.4501 -552.976 0.
33.0638 -661.728 0.
77.8921 -518.047 0.
154.194 -338.823 0.
-371.038 -449.848 0.
-430.382 -597.04 0.
-489.727 -744.233 0.
131.394 -530.169 0.
182.563 -416.273 0.
233.73 -302.378 0.
63.5022 -411.343 0.
-4.24815 -573.354 0.
-71.9978 -735.366 0.
-262.865 -758.295 0.
-206.261 -628.731 0.
184.364 -230.796 0.
-23.0532 -338.565 0.
-37.66 -374.379 0.
-58.3181 -416.587 0.
-88.2552 -483.23 0.
-118.191 -549.871 0.
-9.47407 -564.798 0.
-49.2944 -655.216 0.
-89.1143 -745.635 0.
-295.986 -877.391 0.
-312.352 -916.233 0.
-328.719 -955.076 0.
80.8834 -773.591 0.
89.1139 -759.757 0.
-35.5012 -791.388 0.
13.0308 -679.051 0.
61.5629 -566.713 0.
84.0616 -486.893 0.
104.828 -438.747 0.
125.596 -390.601 0.
116.987 -395.439 0.
102.358 -427.771 0.
87.7286 -460.103 0.
36.3035 -551.341 0.
-17.7196 -674.436 0.
682.057 -472.458 0.
162.382 -711.902 0.
153.094 -729.292 0.
159.821 -719.007 0.
185.017 -659.248 0.
210.214 -599.488 0.
122.743 -518.365 0.
239.186 -245.369 0.
355.628 27.6261 0.
609.281 124.672 0.
540.44 -35.521 0.
471.598 -195.714 0.
790.091 -301.219 0.
654.032 -617.076 0.
-490.772 -1316.72 0.
-390.207 -1080.25 0.
-289.643 -843.786 0.
361.318 -408.847 0.
410.806 -296.972 0.
460.296 -185.097 0.
183.425 -314.433 0.
133.422 -429.395 0.
83.418 -544.358 0.
390.087 -567.023 0.
308.005 -760.068 0.
-767.304 -1377.58 0.
205.01 -710.923 0.
334.479 -405.872 0.
507.749 -204.262 0.
356.436 -555.547 0.
205.124 -906.832 0.
-382.427 -1172.32 0.
-219.016 -790.54 0.
-55.604 -408.758 0.
-52.0753 -354.524 0.
-93.9048 -452.347 0.
-135.734 -550.171 0.
348.195 -621.555 0.
193.672 -982.606 0.
-202.451 -1382.17 0.
-94.5808 -1132.84 0.
13.2893 -883.511 0.
233.237 -659.695 0.
241.821 -638.262 0.
250.406 -616.83 0.
-27.7051 -820.311 0.
-121.723 -1041.43 0.
-215.74 -1262.54 0.
519.384 -917.823 0.
572.702 -794.891 0.
725.717 -623.023 0.
237.961 -480.579 0.
424.417 -49.0604 0.
472.071 177.87 0.
327.281 -159.401 0.
182.489 -496.673 0.
36.4896 -654.608 0.
97.4025 -514.523 0.
158.316 -374.436 0.
178.681 -390.301 0.
131.808 -499.211 0.
84.9347 -608.121 0.
158.772 -450.76 0.
235.06 -271.473 0.
-90.6898 -298.298 0.
-150.538 -445.147 0.
-210.388 -591.998 0.
-48.819 -578.921 0.
1.90194 -464.486 0.
52.622 -350.052 0.
27.881 -394.607 0.
-39.3611 -556.881 0.
-106.602 -719.156 0.
-325.755 -755.305 0.
-268.781 -626.264 0.
-175.314 104.113 0.
-37.1433 -793.636 0.
662.041 832.629 0.
-51.1789 338.852 0.
-393.368 -456.555 0.
-318.728 -279.038 0.
-398.96 -1532.79 0.
285.458 67.0475 0.
5.32629 -582.936 0.
81.3086 365.372 0.
17.1782 217.019 0.
85.1399 377.076 0.
923.419 908.127 0.
789.012 596.873 0.
202.97 -348.169 0.
592.913 560.029 0.
273.953 -185.576 0.
340.673 -326.722 0.
463.791 -37.6658 0.
347.45 -308.599 0.
-33.2159 -54.862 0.
129.153 320.693 0.
102.042 254.121 0.
-501.999 -1564.95 0.
-191.884 -841.341 0.
-246.497 -548.766 0.
193.219 -184.228 0.
300.377 67.1215 0.
363.945 -524.249 0.
429.681 -372.104 0.
521.513 -158.691 0.
396.691 153.271 0.
-41.474 -868.43 0.
-93.136 -988.418 0.
1108.89 1416.25 0.
872.412 862.162 0.
406.513 -226.421 0.
817.688 105.912 0.
341.624 -1004.76 0.
-708.278 -1480.01 0.
-418.301 -805.743 0.
-395.037 -753.578 0.
667.009 -75.2433 0.
641.329 -139.139 0.
500.234 -472.013 0.
270.756 -135.223 0.
532.661 474.019 0.
42.946 -670.493 0.
494.941 39.9539 0.
479.669 0.0126074 0.
-315.828 -1062.42 0.
397.301 -482.296 0.
271.818 -775.607 0.
338.959 -770.543 0.
591.418 -182.166 0.
815.22 340.078 0.
-162.457 386.593 0.
-211.785 269.413 0.
-597.505 -632.266 0.
-332.713 -1131.38 0.
-33.3341 -434.017 0.
207.561 125.825 0.
599 -65.4117 0.
500.889 -297.357 0.
-0.545677 -669.957 0.
-63.3179 -821.241 0.
277.225 -29.8282 0.
686.981 816.506 0.
119.031 -504.58 0.
-239.455 -1336.6 0.
-422.883 -1435.5 0.
350.511 370.115 0.
545.603 826.93 0.
303.084 -1510.19 0.
589.311 -837.522 0.
-113.558 -555.226 0.
482.401 333.672 0.
3.59709 -782.48 0.
572.581 -20.0993 0.
588.641 12.0602 0.
529.858 -130.436 0.
221.235 94.2355 0.
520.391 788.502 0.
93.6825 -211.012 0.
476.338 242.122 0.
812.104 1024.27 0.
472.26 228.283 0.
396.592 -19.7153 0.
254.599 -346.045 0.
78.7112 -407.02 0.
399.429 343.304 0.
576.891 759.25 0.
-191.769 -550.436 0.
-195.094 -557.206 0.
124.48 189.411 0.
578.974 981.707 0.
241.852 200.437 0.
363.556 488.718 0.
-92.2166 -62.2528 0.
125.087 442.119 0.
-816.298 -988.736 0.
-69.4366 -579.621 0.
3.85557 -410.588 0.
-223.079 -427.289 0.
-294.946 -593.709 0.
-366.812 -760.13 0.
-218.68 -666.004 0.
-89.115 -362.795 0.
40.4484 -59.5861 0.
31.1354 -81.5536 0.
-55.268 -279.968 0.
-141.671 -478.381 0.
138.484 -451.746 0.
91.6811 -557.27 0.
-66.3605 -703.009 0.
-31.5226 -621.67 0.
3.31457 -540.33 0.
314.168 -357.554 0.
313.221 -355.146 0.
312.275 -352.739 0.
-93.9856 -553.787 0.
-126.547 -629.404 0.
-159.106 -705.021 0.
-88.3537 -611.61 0.
-28.1077 -471.372 0.
-229.499 -443.012 0.
237.369 -268.787 0.
215.392 -320.71 0.
278.013 -346.912 0.
250.843 -411.922 0.
223.673 -476.933 0.
188.094 -599.46 0.
95.1854 -817.947 0.
2.27741 -1036.43 0.
-59.357 -1025.38 0.
17.5171 -846.428 0.
94.3907 -667.48 0.
429.22 -358.412 0.
517.642 -153.036 0.
-42.5572 -261.28 0.
-140.951 -488.137 0.
-239.345 -714.994 0.
286.184 -606.153 0.
293.8 -587.63 0.
301.416 -569.108 0.
130.423 -525.022 0.
239.51 -274.434 0.
348.598 -23.8455 0.
421.504 -14.1909 0.
374.44 -126.162 0.
-1369.57 -967.78 0.
384.334 -316.892 0.
333.019 -440.168 0.
383.103 -496.845 0.
386.026 -489.3 0.
388.948 -481.754 0.
-655.417 -923.462 0.
-647.643 -904.271 0.
-639.869 -885.079 0.
-181.369 -678.328 0.
-182.466 -676.21 0.
-183.564 -674.092 0.
244.981 -412.012 0.
291.67 -304.285 0.
86.5064 -317.903 0.
82.3734 -331.522 0.
78.2406 -345.142 0.
317.045 -306.313 0.
226.923 -519.008 0.
136.801 -731.703 0.
-176.692 -929.659 0.
-150.599 -874.234 0.
-124.506 -818.809 0.
543.172 -404.348 0.
621.803 -224.477 0.
860.823 20.5346 0.
133.318 -592.685 0.
-26.2931 -964.598 0.
39.357 -1114.68 0.
171.847 -807.43 0.
304.336 -500.185 0.
-111.831 -553.579 0.
-122.123 -576.44 0.
-132.416 -599.3 0.
194.388 -410.008 0.
233.936 -317.638 0.
273.484 -225.268 0.
89.2555 -300.364 0.
86.0826 -304.403 0.
152.08 -279.978 0.
142.273 -303.764 0.
132.468 -327.55 0.
-116.966 -466.696 0.
-144.821 -533.809 0.
-172.675 -600.923 0.
-78.1315 -577.396 0.
-67.4812 -548.688 0.
-56.8306 -519.98 0.
-308.143 -659.129 0.
-333.066 -716.977 0.
-6.24814 -608.377 0.
-207.647 -606.25 0.
-134.499 -436.895 0.
-13.4428 -307.787 0.
-85.6417 -473.831 0.
-157.84 -639.876 0.
-433.875 -726.038 0.
-303.94 -423.296 0.
-174.006 -120.554 0.
219.959 30.2755 0.
134.025 -169.301 0.
48.0902 -368.875 0.
-95.3864 -518.878 0.
-141.41 -625.51 0.
-192.068 -723.049 0.
-156.882 -642.197 0.
-121.697 -561.345 0.
315.201 -324.664 0.
314.337 -322.146 0.
313.474 -319.628 0.
108.179 -437.728 0.
76.1562 -513.873 0.
44.134 -590.018 0.
-64.5334 -569.656 0.
-3.00796 -430.003 0.
-727.206 -626.316 0.
349.675 -188.309 0.
328.345 -240.52 0.
96.4521 -392.529 0.
69.7954 -457.494 0.
43.1381 -522.459 0.
341.769 -503.138 0.
248.689 -721.489 0.
155.609 -939.84 0.
-193.328 -1053.44 0.
-116.634 -874.493 0.
-39.9402 -695.551 0.
210.75 -417.703 0.
299.278 -213.206 0.
149.53 -147.788 0.
50.226 -374.812 0.
-49.0783 -601.835 0.
111.435 -650.051 0.
118.345 -631.731 0.
125.256 -613.411 0.
182.43 -473.045 0.
290.404 -221.563 0.
398.378 29.9189 0.
377.778 -1.24889 0.
330.445 -113.453 0.
-2374.16 -1367.12 0.
298.431 -323.739 0.
247.037 -447.419 0.
304.966 -495.047 0.
308.554 -488.456 0.
312.142 -481.864 0.
-547.762 -847.376 0.
-539.411 -828.882 0.
-531.061 -810.387 0.
-223.725 -662.827 0.
-224.281 -661.055 0.
-224.837 -659.284 0.
8.8387 -482.203 0.
55.7462 -374.855 0.
26.2178 -310.248 0.
22.5898 -325.007 0.
18.9622 -339.766 0.
474.1 -206.24 0.
384.29 -419.771 0.
294.48 -633.303 0.
-119.231 -872.201 0.
-93.0276 -816.958 0.
-66.8242 -761.716 0.
270.295 -491.97 0.
348.404 -311.943 0.
775.124 16.265 0.
213.325 -525.585 0.
53.6615 -897.708 0.
-23.7079 -1109.15 0.
109.313 -802.696 0.
242.334 -496.242 0.
-165.464 -542.802 0.
-175.812 -565.62 0.
-186.159 -588.439 0.
207.105 -373.785 0.
246.759 -281.218 0.
286.414 -188.652 0.
-122.321 -359.903 0.
-124.582 -364.209 0.
188.336 -231.892 0.
179.64 -256.395 0.
170.944 -280.899 0.
-50.0373 -404.926 0.
-77.7346 -471.853 0.
-105.432 -538.781 0.
-47.3082 -531.969 0.
-36.3178 -503.484 0.
-25.3269 -474.998 0.
-244.257 -602.275 0.
-269.805 -659.983 0.
-1062.98 -596.693 0.
-129.606 -409.367 0.
-261.404 -717.34 0.
-183.241 -827.43 0.
-50.0472 -520.808 0.
83.1464 -214.184 0.
-209.143 -218.32 0.
-238.863 -283.243 0.
-268.584 -348.165 0.
84.4824 -169.2 0.
125.085 -77.4105 0.
165.689 14.379 0.
-114.79 -190.092 0.
-177.18 -332.164 0.
-119.445 -400.952 0.
-67.9011 -279.368 0.
-16.357 -157.783 0.
446.728 69.8203 0.
392.193 -58.1597 0.
337.657 -186.14 0.
294.606 -229.577 0.
320.694 -169.36 0.
346.782 -109.144 0.
34.7173 -340.086 0.
-45.3849 -522.887 0.
-63.0135 -678.9 0.
180.162 -479.765 0.
229.359 -357.497 0.
88.6066 -328.015 0.
85.8419 -331.642 0.
83.078 -335.27 0.
426.734 -244.295 0.
367.383 -380.262 0.
308.032 -516.229 0.
60.9775 -452.236 0.
221.278 -73.4991 0.
381.577 305.237 0.
375.961 203.669 0.
297.097 18.3734 0.
182.169 -175.296 0.
132.081 -298.922 0.
81.9943 -422.55 0.
-4.1923 -490.411 0.
54.9084 -355.178 0.
114.01 -219.944 0.
322.875 -76.191 0.
329.138 -62.6489 0.
335.4 -49.1073 0.
391.031 -19.2755 0.
393.278 -10.4218 0.
-1665.5 -885.922 0.
404.635 -187.163 0.
304.324 -420.674 0.
149.069 -575.71 0.
292.534 -241.129 0.
436 93.4517 0.
-251.699 -148.372 0.
-370.984 -428.078 0.
-490.269 -707.785 0.
-166.407 -592.334 0.
-118.755 -483.607 0.
-71.1031 -374.879 0.
-31.5726 -250.104 0.
20.7054 -124.547 0.
193.021 18.1749 0.
84.5064 -228.044 0.
-24.008 -474.261 0.
292.842 -502.092 0.
250.712 -597.969 0.
208.581 -693.847 0.
-35.5287 -659.907 0.
124.954 -282.551 0.
285.437 94.8034 0.
393.43 12.3439 0.
264.046 -288.35 0.
584.317 -391.406 0.
176.084 -427.725 0.
250.067 -254.868 0.
290.938 -116.946 0.
302.273 -86.415 0.
313.607 -55.8846 0.
43.78 -133.885 0.
82.1059 -44.004 0.
120.433 45.8758 0.
363.66 93.477 0.
301.884 -49.0036 0.
240.107 -191.484 0.
-231.705 -482.283 0.
-276.645 -588.79 0.
80.3749 -505.498 0.
115.164 -422.214 0.
149.953 -338.929 0.
-15.4409 -379.391 0.
-33.3299 -422.533 0.
-51.219 -465.674 0.
-39.4914 -407.652 0.
17.1011 -272.139 0.
73.6936 -136.626 0.
-75.4414 -406.892 0.
-229.985 -765.965 0.
604.652 150.152 0.
25.1394 -311.464 0.
-106.859 -619.193 0.
-228.304 -817.021 0.
-95.067 -510.494 0.
38.17 -203.965 0.
48.2769 -74.6842 0.
18.6165 -139.864 0.
-11.0445 -205.044 0.
-197.851 -261.371 0.
-157.933 -168.876 0.
-118.015 -76.3808 0.
-235.869 -209.712 0.
-297.841 -351.658 0.
-125.906 -373.809 0.
-74.2424 -252.401 0.
-22.579 -130.992 0.
390.007 78.5775 0.
336.032 -49.5591 0.
282.057 -177.696 0.
355.737 -172.148 0.
382.382 -111.993 0.
409.028 -51.8383 0.
42.3656 -307.063 0.
-38.6476 -488.631 0.
308.647 -485.812 0.
-8.12535 -527.71 0.
41.3729 -405.613 0.
219.318 -243.632 0.
216.163 -246.597 0.
213.009 -249.562 0.
231.172 -295.378 0.
171.874 -431.629 0.
112.576 -567.879 0.
229.962 -347.326 0.
390.535 31.0653 0.
551.108 409.456 0.
386.451 241.408 0.
307.306 55.927 0.
150.167 -156.807 0.
99.401 -280.465 0.
48.6354 -404.124 0.
-240.66 -559.325 0.
-182.472 -423.923 0.
-124.283 -288.521 0.
227.14 -87.4167 0.
233.182 -73.7456 0.
239.225 -60.075 0.
484.497 52.4968 0.
486.992 60.8497 0.
-915.095 -532.389 0.
660.769 -45.6197 0.
560.635 -279.101 0.
-41.4973 -622.821 0.
102.577 -288.933 0.
246.652 44.9552 0.
-339.47 -155.536 0.
-459.233 -435.062 0.
-578.996 -714.587 0.
-15.9774 -494.963 0.
31.2926 -385.571 0.
78.5629 -276.178 0.
-90.8807 -247.277 0.
-38.5127 -121.721 0.
324.625 107.13 0.
216.203 -139.604 0.
107.781 -386.338 0.
28.859 -582.99 0.
-13.5164 -679.026 0.
-55.8924 -775.062 0.
-87.6515 -651.929 0.
73.5045 -274.952 0.
234.66 102.026 0.
481.641 82.2555 0.
352.63 -218.948 0.
699.424 -312.484 0.
-80.6218 -506.404 0.
-7.41037 -332.154 0.
112.286 -164.003 0.
124.428 -133.953 0.
136.571 -103.905 0.
205.661 -33.2447 0.
245.127 55.8535 0.
284.593 144.951 0.
276.258 90.0514 0.
214.627 -52.5094 0.
152.997 -195.07 0.
-132.017 -407.607 0.
-177.079 -514.248 0.
96.6821 -468.365 0.
131.521 -384.878 0.
166.36 -301.392 0.
5.16998 -340.082 0.
-13.0788 -382.68 0.
-31.3277 -425.278 0.
-147.377 -422.675 0.
-90.8977 -287.071 0.
-34.4184 -151.467 0.
87.2079 -308.205 0.
-66.4799 -668.464 0.
82.5224 838.058 0.
168.061 -235.419 0.
294.561 59.3731 0.
-107.83 -434.04 0.
83.0671 20.1827 0.
298.289 528.578 0.
256.261 -51.0666 0.
346.98 164.403 0.
437.65 379.573 0.
-90.1405 554.143 0.
-315.616 27.3954 0.
-723.335 -923.425 0.
-339.16 -187.607 0.
-216.297 98.7242 0.
-360.045 -892.025 0.
-167.586 -438.159 0.
-184.609 -472.653 0.
191.6 -252.539 0.
467.623 388.063 0.
333.866 73.0258 0.
376.906 -217.809 0.
401.004 -160.284 0.
353.996 -269.273 0.
11.9346 -358.838 0.
197.031 77.315 0.
-119.646 -654.648 0.
107.237 125.78 0.
-346.386 -934.905 0.
-79.2275 -1161.82 0.
725.518 720.126 0.
510.161 222.383 0.
-249.023 -1009.81 0.
279.122 223.125 0.
131.756 -120.564 0.
525.964 45.597 0.
477.6 -66.504 0.
624.286 276.66 0.
549.607 641.59 0.
507.051 540.3 0.
79.9561 -226.251 0.
39.4787 -318.946 0.
281.929 248.54 0.
-66.3178 333.701 0.
-188.951 46.7135 0.
-485.816 -646.882 0.
363.988 448.129 0.
68.3724 -243.559 0.
-75.6524 -581.351 0.
341.794 -428.263 0.
883.682 833.052 0.
-155.892 476.604 0.
1034.75 392.64 0.
856.037 -24.0812 0.
-282.15 -798.012 0.
-624.401 -1593.76 0.
-179.196 -552.187 0.
-36.2556 741.829 0.
-101.671 590.194 0.
-388.334 -77.746 0.
195.405 -251.683 0.
106.749 -460.033 0.
-12.6375 -740.215 0.
-243.153 -461.053 0.
121.32 390.905 0.
703.088 771.033 0.
510.198 321.764 0.
445.97 172.789 0.
-57.0738 -249.424 0.
-322.166 -874.453 0.
-83.72 -324.009 0.
414.587 650.544 0.
318.717 425.708 0.
272.114 316.212 0.
-50.5281 -1303.29 0.
618.385 263.383 0.
-23.1708 -225.644 0.
-76.9274 18.3562 0.
-79.7062 9.95871 0.
-128.488 -359.953 0.
-270.828 -691.604 0.
-111.172 -318.925 0.
811.124 1099.34 0.
238.828 -233.966 0.
254.919 -195.297 0.
162.957 26.9114 0.
123.512 -67.1627 0.
169.079 36.7119 0.
237.405 293.517 0.
224.522 267.003 0.
408.728 262.694 0.
20.9476 -639.88 0.
435.616 327.724 0.
171.672 38.4114 0.
333.557 420.086 0.
-251.91 -942.249 0.
-28.3055 86.672 0.
-38.038 63.2281 0.
37.6697 236.96 0.
347.286 31.704 0.
431.045 226.087 0.
-206.772 -133.027 0.
109.898 -26.4319 0.
100.511 -47.2402 0.
-93.7476 -129.355 0.
-80.0788 -93.7253 0.
-66.4115 -58.0946 0.
-56.2137 -146.808 0.
-180.937 -440.688 0.
-305.66 -734.567 0.
-498.538 -793.119 0.
-415.651 -601.901 0.
-332.764 -410.683 0.
-456.273 -340.049 0.
-391.163 -189.446 0.
189.194 150.527 0.
68.4289 -130.144 0.
-52.3372 -410.815 0.
136.605 -464.363 0.
172.083 -382.796 0.
207.562 -301.229 0.
225.328 -184.15 0.
297.701 -10.0359 0.
370.073 164.077 0.
123.561 106.171 0.
140.107 138.566 0.
563.638 345.175 0.
42.0764 -96.0171 0.
-71.2533 -365.106 0.
191.714 -425.887 0.
181.835 -450.615 0.
171.956 -475.344 0.
-14.3038 -481.951 0.
93.4144 -232.759 0.
201.133 16.4327 0.
316.665 20.3404 0.
225.413 -196.04 0.
134.161 -412.422 0.
32.4575 -486.832 0.
31.1904 -490.564 0.
-117.662 -538.306 0.
-24.9105 -321.364 0.
67.8417 -104.423 0.
-69.3827 -63.1658 0.
-95.085 -124.042 0.
-120.787 -184.919 0.
261.888 -82.1668 0.
220.415 -181.829 0.
178.941 -281.493 0.
313.174 -285.962 0.
282.768 -357.569 0.
422.9 -356.607 0.
583.907 -31.3607 0.
717.738 282.975 0.
-42.0616 114.266 0.
-156.61 -145.306 0.
-271.158 -404.876 0.
-376.439 -521.711 0.
-320.1 -394.563 0.
-263.762 -267.414 0.
287.323 -99.1852 0.
208.256 -283.699 0.
129.188 -468.212 0.
-296.602 -731.606 0.
-337.285 -825.414 0.
-63.2112 -770.568 0.
-29.8341 -692.651 0.
3.54252 -614.734 0.
-129.528 -542.187 0.
3.6167 -236.146 0.
136.761 69.8959 0.
-21.4523 -49.6975 0.
-173.709 -401.584 0.
-325.966 -753.471 0.
324.19 -302.466 0.
480.01 62.4745 0.
15.2216 162.999 0.
-203.313 -109.474 0.
-292.724 -325.224 0.
-11.8256 -339.409 0.
-12.0121 -342.73 0.
-12.1977 -346.051 0.
150.939 -287.837 0.
142.987 -307.538 0.
135.036 -327.24 0.
-124.52 -402.128 0.
-85.8802 -311.981 0.
-47.2405 -221.833 0.
-143.494 -173.738 0.
-98.3982 -65.0935 0.
444.394 218.344 0.
320.33 -73.8671 0.
196.264 -366.078 0.
-294.816 -651.24 0.
-169.042 -356.723 0.
-43.2678 -62.2068 0.
2.0309 -2.64917 0.
-58.3798 -149.028 0.
-118.791 -295.407 0.
131.312 56.5329 0.
315.474 482.42 0.
-335.886 -151.564 0.
-57.1824 -67.5734 0.
-66.3908 -88.1441 0.
-223.149 -153.044 0.
-208.29 -118.308 0.
-193.433 -83.5701 0.
-368.144 -246.517 0.
-491.449 -541.078 0.
-614.755 -835.638 0.
-273.388 -666.131 0.
-190.727 -474.982 0.
-108.067 -283.832 0.
-501.499 -327.166 0.
-436.481 -177.133 0.
336.051 245.815 0.
215.748 -35.4365 0.
95.4439 -316.689 0.
197.82 -407.612 0.
233.261 -325.448 0.
268.701 -243.284 0.
33.9097 -235.353 0.
106.594 -60.8022 0.
179.279 113.748 0.
35.3495 98.7913 0.
51.7397 131.399 0.
944.496 538.783 0.
99.9605 -39.4964 0.
-13.3153 -308.761 0.
157.632 -408.119 0.
147.37 -432.642 0.
137.108 -457.166 0.
17.6424 -436.439 0.
125.031 -187.399 0.
232.42 61.6409 0.
94.0768 -43.4256 0.
3.91986 -260.79 0.
-86.2374 -478.156 0.
10.3457 -464.502 0.
10.2484 -469.096 0.
-181.611 -533.155 0.
-88.4539 -316.683 0.
4.70413 -100.213 0.
162.589 70.7365 0.
137.065 9.70506 0.
111.541 -51.3264 0.
438.97 24.4913 0.
397.467 -74.9897 0.
355.964 -174.471 0.
223.447 -292.684 0.
193.224 -364.473 0.
-456.41 -703.201 0.
254.835 -140.852 0.
388.289 173.843 0.
-210.432 74.1376 0.
-324.825 -185.442 0.
-439.217 -445.021 0.
-106.147 -374.803 0.
-50.0323 -247.378 0.
6.08155 -119.953 0.
338.432 -44.6147 0.
258.728 -228.542 0.
179.024 -412.469 0.
-202.057 -660.213 0.
-243.706 -752.72 0.
-175.97 -789.031 0.
-143.387 -710.471 0.
-110.803 -631.911 0.
-44.7739 -476.862 0.
87.927 -170.492 0.
220.628 135.878 0.
-177.439 -86.6692 0.
-329.579 -438.313 0.
-481.72 -789.957 0.
272.844 -292.68 0.
429.134 72.1379 0.
748.723 507.009 0.
-271.562 -107.349 0.
-360.792 -323.052 0.
137.709 -244.156 0.
138.381 -248.141 0.
139.054 -252.126 0.
86.613 -283.529 0.
79.1974 -303.335 0.
71.7819 -323.142 0.
-236.499 -419.361 0.
-197.668 -329.434 0.
-158.837 -239.508 0.
-347.832 -228.835 0.
-302.209 -120.802 0.
528.126 285.703 0.
403.291 -5.92004 0.
278.455 -297.543 0.
-485.981 -703.351 0.
-360.149 -408.54 0.
-234.318 -113.729 0.
102.658 73.0076 0.
41.8885 -73.4467 0.
-18.8816 -219.902 0.
-127.791 -26.3133 0.
55.961 399.159 0.
-246.353 -814.263 0.
-310.731 -602.492 0.
-168.96 -270.535 0.
-200.988 -83.3046 0.
-218.54 -119.244 0.
-236.092 -155.184 0.
-428.043 -189.649 0.
-352.075 -8.77192 0.
-276.108 172.105 0.
159.707 331.204 0.
94.0414 179.787 0.
28.3749 28.3695 0.
-437.716 -181.574 0.
-432.755 -166.53 0.
330.386 163.371 0.
288.22 65.3217 0.
246.056 -32.7279 0.
273.864 -41.3917 0.
331.272 93.0007 0.
388.68 227.393 0.
65.4911 108.049 0.
36.8788 36.8106 0.
8.26658 -34.4291 0.
39.0063 -33.0043 0.
37.3835 -36.1484 0.
1339.35 517.998 0.
83.4744 -51.3191 0.
67.7791 -85.916 0.
255.857 -34.7838 0.
243.065 -64.5859 0.
230.273 -94.3888 0.
149.923 -110.398 0.
186.358 -29.6222 0.
222.794 51.1531 0.
-82.7367 -161.888 0.
-169.316 -362.155 0.
-255.895 -562.422 0.
-100.59 -586.301 0.
-142.386 -683.741 0.
-342.154 -826.863 0.
-242.269 -589.943 0.
-142.385 -353.025 0.
200.2 -46.7842 0.
238.181 48.2445 0.
276.161 143.273 0.
489.074 153.451 0.
379.422 -99.7402 0.
269.77 -352.931 0.
139.855 -380.906 0.
189.885 -263.406 0.
-1184.8 -756.13 0.
26.7596 -213.862 0.
40.7579 -183.724 0.
-435.341 -367.642 0.
-432.561 -362.212 0.
-429.782 -356.783 0.
126.112 -126.4 0.
114.453 -151.405 0.
102.795 -176.41 0.
343.122 -17.488 0.
393.607 98.1694 0.
444.092 213.827 0.
54.382 -58.7267 0.
-12.6692 -218.63 0.
-54.8405 -343.189 0.
-8.1711 -238.193 0.
38.4985 -133.197 0.
132.439 -86.5894 0.
56.766 -262.239 0.
-18.9067 -437.888 0.
-376.463 -579.323 0.
-301.592 -406.538 0.
-226.721 -233.752 0.
87.699 -205.619 0.
-5.5872 -416.012 0.
817.877 -237.143 0.
-252.07 -430.281 0.
-114.801 -106.875 0.
330.963 266.934 0.
276.258 145.289 0.
221.554 23.6442 0.
90.235 -93.6278 0.
79.5528 -119.367 0.
68.8709 -145.106 0.
-206.305 -212.428 0.
-158.309 -100.49 0.
-110.313 11.447 0.
-284.673 -28.4858 0.
-268.326 7.55943 0.
519.413 369.898 0.
509.466 347.825 0.
499.52 325.752 0.
-337.988 -82.6459 0.
-396.686 -220.434 0.
-455.384 -358.221 0.
-20.7659 -225.153 0.
-23.8321 -229.592 0.
-26.8978 -234.031 0.
-287.405 -400.421 0.
-320.437 -477.314 0.
98.0627 -635.698 0.
-160.295 -506.064 0.
-18.0979 -174.348 0.
-68.4438 5.07885 0.
-85.2716 -30.5962 0.
-102.1 -66.2713 0.
-306.356 -105.554 0.
-229.433 75.1942 0.
-152.51 255.942 0.
-20.1548 283.819 0.
-85.5735 132.156 0.
-150.993 -19.508 0.
-363.566 -115.802 0.
-357.524 -102.185 0.
286.621 175.265 0.
244.293 77.0754 0.
201.967 -21.1152 0.
49.2504 -104.26 0.
106.976 29.8344 0.
164.701 163.929 0.
26.3138 121.127 0.
-3.08431 51.2867 0.
-32.4822 -18.5541 0.
289.515 102.416 0.
288.014 98.9925 0.
408.761 148.334 0.
28.3181 -40.6985 0.
12.4895 -75.4348 0.
174.167 -39.0805 0.
160.643 -68.6199 0.
147.121 -98.1597 0.
138.894 -83.1412 0.
174.971 -2.26939 0.
211.049 78.6022 0.
-122.188 -147.711 0.
-208.131 -348.678 0.
-294.075 -549.645 0.
-204.03 -599.062 0.
-245.204 -696.737 0.
-339.641 -792.964 0.
-239.624 -556.268 0.
-139.606 -319.573 0.
200.449 -14.6831 0.
238.241 80.182 0.
276.034 175.047 0.
322.439 110.913 0.
212.89 -142.421 0.
103.342 -395.754 0.
155.575 -339.492 0.
206.453 -222.459 0.
-609.893 -477.7 0.
-96.9522 -234.838 0.
-83.1173 -204.131 0.
-292.051 -274.475 0.
-288.777 -269.607 0.
-285.503 -264.739 0.
194.24 -62.9385 0.
183.87 -89.0008 0.
173.5 -115.063 0.
303.937 -2.98423 0.
354.814 113.156 0.
405.691 229.296 0.
-7.68912 -53.224 0.
-73.8018 -213.602 0.
-70.8605 -318.312 0.
-23.9002 -213.26 0.
23.0603 -108.207 0.
100.923 -66.7392 0.
26.3599 -243.489 0.
-48.2034 -420.238 0.
-155.639 -452.329 0.
-80.4564 -279.934 0.
-5.27375 -107.539 0.
-373.663 -370.845 0.
-465.95 -581.844 0.
-479.852 -762.319 0.
244.469 -185.764 0.
381.66 138.237 0.
126.545 211.215 0.
72.1427 89.3114 0.
17.741 -32.5929 0.
-7.91482 -105.111 0.
-18.0853 -131.173 0.
-28.2555 -157.236 0.
-200.541 -175.834 0.
-151.786 -64.4732 0.
-103.03 46.8875 0.
-108.052 78.1853 0.
-91.9104 114.325 0.
367.41 338.014 0.
357.99 315.498 0.
348.572 292.982 0.
-400.717 -80.167 0.
-459.84 -217.392 0.
-518.964 -354.615 0.
-74.9382 -216.409 0.
-77.4396 -221.247 0.
-79.9405 -226.086 0.
-34.3094 -260.092 0.
-67.6241 -337.279 0.
905.526 396.944 0.
36.7007 -319.9 0.
117.114 -130.881 0.
334.985 717.773 0.
10.1058 -33.0481 0.
393.104 867.785 0.
68.9994 548.624 0.
-376.954 -486.148 0.
-293.019 -285.326 0.
-457.095 -356.053 0.
-587.532 -659.791 0.
-554.367 -581.997 0.
-106.441 361.344 0.
-139.977 288.124 0.
-58.3944 -516.285 0.
231.644 159.26 0.
265.997 238.645 0.
-103.522 -11.8804 0.
-199.854 -235.77 0.
-99.2034 -1.49196 0.
-9.14631 129.434 0.
-50.0803 33.0769 0.
-314.572 -585.49 0.
544.081 260.403 0.
413.907 -42.3943 0.
-961.148 -896.217 0.
-422.753 -958.482 0.
-373.838 -836.768 0.
-222.705 -778.664 0.
305.213 459.86 0.
-51.3157 -363.447 0.
-30.67 -425.414 0.
386.187 552.47 0.
144.708 -5.62224 0.
90.1968 433.713 0.
17.4547 266.441 0.
231.849 769.369 0.
-78.7903 -67.0033 0.
283.08 772.334 0.
466.018 1118.69 0.
295.921 719.578 0.
-36.0143 -57.1026 0.
234.655 113.409 0.
450.974 615.97 0.
168.556 -44.9883 0.
103.603 -66.4551 0.
51.2034 -179.834 0.
-53.4953 -414.967 0.
148.162 -350.177 0.
480.512 420.44 0.
-1801.35 807.087 0.
16.7548 305.696 0.
-269.285 -362.317 0.
58.7753 306.363 0.
104.56 414.211 0.
46.4176 279.103 0.
341.44 162.224 0.
550.716 655.002 0.
237.167 -71.7552 0.
-127.437 -901.748 0.
-66.253 -753.441 0.
423.418 394.691 0.
-119.777 -180.304 0.
72.2898 272.026 0.
-36.8265 -178.751 0.
-287.39 -765.268 0.
-282.517 -755.553 0.
-20.6927 -251.128 0.
120.7 78.1888 0.
630.064 1265.41 0.
218.198 22.4898 0.
-151.77 -846.953 0.
359.007 339.819 0.
-586.52 58.8752 0.
-363.541 581.429 0.
-51.0448 -363.84 0.
806.114 199.113 0.
546.203 -395.692 0.
75.1647 501.648 0.
307.747 1052.18 0.
-458.209 -726.468 0.
83.8236 318.705 0.
439.69 1152.09 0.
-95.2748 -92.6058 0.
-506.535 -872.918 0.
-370.878 -556.843 0.
218.199 817.251 0.
141.491 361.212 0.
20.69 79.045 0.
202.265 276.489 0.
157.299 173.043 0.
-57.517 -327.324 0.
-901.629 -1106.27 0.
-226.377 466.9 0.
-528.814 -241.24 0.
-98.6671 -133.455 0.
-103.549 -146.78 0.
-109.708 -161.48 0.
414.767 367.637 0.
101.136 -365.444 0.
-99.4314 160.115 0.
491.678 268.417 0.
371.534 -10.6219 0.
-270.592 -422.485 0.
-194.013 -243.792 0.
-117.435 -65.0994 0.
-201.432 -43.0802 0.
-227.515 -103.782 0.
-253.599 -164.483 0.
-656.586 -358.75 0.
-665.071 -375.499 0.
-673.557 -392.248 0.
-297.628 -187.211 0.
-279.295 -133.792 0.
-14.4328 26.3053 0.
18.3616 104.771 0.
51.1571 183.237 0.
-127.738 159.654 0.
-111.606 200.606 0.
-95.4746 241.557 0.
229.746 235.578 0.
76.8082 -127.767 0.
-76.1308 -491.114 0.
183.881 -338.386 0.
258.644 -163.672 0.
-12.7485 -136.144 0.
91.5545 -17.985 0.
129.161 72.7178 0.
83.1893 94.4763 0.
32.9419 -22.6883 0.
-17.3046 -139.852 0.
-3.82354 -140.387 0.
50.5713 -4.63257 0.
104.966 131.121 0.
-187.874 -10.7902 0.
-230.676 -108.415 0.
-273.478 -206.04 0.
-97.1734 -161.435 0.
-114.155 -199.801 0.
-137.977 -222.702 0.
-61.1657 -46.5108 0.
15.6453 129.681 0.
179.178 232.475 0.
88.5441 12.6341 0.
-2.08991 -207.208 0.
37.9294 -270.925 0.
33.0601 -282.911 0.
28.1911 -294.896 0.
498.003 140.899 0.
658.627 513.642 0.
-670.698 249.008 0.
168.664 519.207 0.
121.819 410.046 0.
-221.502 142.177 0.
-353.872 -164.447 0.
-486.242 -471.071 0.
52.2052 -331.762 0.
110.519 -189.28 0.
168.833 -46.7982 0.
294.141 96.3293 0.
331.447 186.9 0.
368.753 277.471 0.
-122.181 -164.657 0.
-266.404 -497.579 0.
-235.83 -681.226 0.
-10.4305 -156.067 0.
214.969 369.092 0.
83.5794 487.879 0.
-86.6702 90.4577 0.
-256.917 -306.964 0.
214.21 -190.916 0.
270.947 -60.0842 0.
327.683 70.7474 0.
-339.903 -347.047 0.
-445.252 -591.511 0.
-554.967 -830.718 0.
44.6229 -454.367 0.
109.284 -304.435 0.
-489.536 -436.049 0.
-417.982 -267.215 0.
-346.428 -98.381 0.
80.2657 103.343 0.
16.8118 -38.5301 0.
-46.642 -180.402 0.
-20.0505 -64.9804 0.
92.6432 199.294 0.
205.337 463.568 0.
-50.2723 280.332 0.
-107.281 148.279 0.
92.7696 132.6 0.
78.0348 102.253 0.
63.2995 71.9057 0.
-461.046 -130.193 0.
-399.318 8.73671 0.
-337.59 147.667 0.
-36.922 231.677 0.
-125.695 26.3381 0.
-214.468 -179 0.
148.242 -71.2877 0.
138.507 -91.192 0.
1276.4 780.178 0.
759.253 414.087 0.
639.504 134.881 0.
-396.645 -445.81 0.
-318.983 -267.048 0.
-241.322 -88.286 0.
-195.071 -7.12578 0.
-218.917 -68.2337 0.
-242.766 -129.341 0.
-889.831 -427.768 0.
-898.164 -444.067 0.
-906.498 -460.367 0.
-223.074 -125.012 0.
-205.627 -70.8568 0.
-234.174 -36.4221 0.
-201.414 42.0808 0.
-168.653 120.583 0.
-235.088 141.858 0.
-219.448 183.443 0.
-203.809 225.028 0.
482.602 377.57 0.
331.522 13.8922 0.
180.441 -349.788 0.
74.4762 -353.383 0.
149.786 -178.427 0.
-991.594 -523.964 0.
247.531 80.073 0.
284.028 171.744 0.
24.6396 97.641 0.
-27.3143 -18.4124 0.
-79.2673 -134.465 0.
-112.221 -159.135 0.
-58.5527 -23.0584 0.
-4.88424 113.017 0.
-278.849 -17.1052 0.
-321.102 -115.876 0.
-363.355 -214.647 0.
-55.9053 -108.442 0.
-71.5129 -148.013 0.
-154.361 -199.66 0.
-77.5629 -23.1715 0.
-0.765334 153.318 0.
63.4296 213.138 0.
-27.8814 -6.21669 0.
-119.192 -225.572 0.
87.4698 -218.011 0.
82.8292 -229.452 0.
78.1887 -240.892 0.
691.621 258.444 0.
853.831 630.163 0.
-528.76 342.02 0.
269.012 593.886 0.
222.126 484.865 0.
-469.326 67.3082 0.
-601.549 -239.149 0.
-733.772 -545.606 0.
-17.7517 -328.664 0.
41.1134 -186.427 0.
99.9792 -44.1899 0.
306.241 132.402 0.
342.319 224.303 0.
378.396 316.204 0.
-113.258 -131.65 0.
-257.584 -463.986 0.
-195.925 -632.204 0.
29.7516 -107.082 0.
255.428 418.04 0.
-167.193 414.05 0.
-336.282 16.2762 0.
-505.37 -381.498 0.
345.768 -101.099 0.
402.293 30.2087 0.
458.818 161.516 0.
190.213 -90.0024 0.
83.5799 -333.499 0.
-256.101 -671.061 0.
-529.267 -669.06 0.
-465.551 -518.549 0.
-665.821 -482.395 0.
-594.167 -313.321 0.
-522.513 -144.246 0.
202.574 186.817 0.
139.378 45.3725 0.
76.1813 -96.0709 0.
168.259 47.0544 0.
281.09 311.732 0.
393.921 576.409 0.
-224.433 236.984 0.
-281.548 104.742 0.
45.5423 143.235 0.
30.6047 113.175 0.
15.6666 83.1159 0.
-416.004 -79.9919 0.
-354.054 58.6565 0.
-292.104 197.306 0.
-140.485 219.972 0.
-229.234 14.9246 0.
-317.982 -190.123 0.
71.305 -75.6292 0.
60.4902 -94.1365 0.
