# vtk DataFile Version 2.0
test grain
ASCII
DATASET UNSTRUCTURED_GRID
POINTS 5000 float
0.499887 0.00100182 0.
0.501888 0.00100165 0.
0.503888 0.00100149 0.
0.505889 0.00100134 0.
0.507889 0.00100126 0.
0.509889 0.00100117 0.
0.511889 0.00100095 0.
0.51389 0.0010005 0.
0.515891 0.00100005 0.
0.517892 0.00100011 0.
0.519893 0.00100046 0.
0.521894 0.00100082 0.
0.523893 0.00100086 0.
0.525893 0.00100083 0.
0.527893 0.00100086 0.
0.529891 0.00100139 0.
0.53189 0.00100193 0.
0.533889 0.00100203 0.
0.535889 0.0010011 0.
0.537888 0.00100018 0.
0.539888 0.00100002 0.
0.541887 0.0010006 0.
0.543887 0.00100118 0.
0.545886 0.00100138 0.
0.547885 0.00100142 0.
0.549884 0.00100147 0.
0.551879 0.0010019 0.
0.553874 0.00100234 0.
0.555869 0.00100264 0.
0.557866 0.0010023 0.
0.559863 0.00100196 0.
0.561858 0.00100191 0.
0.563853 0.00100229 0.
0.565848 0.00100267 0.
0.567843 0.00100219 0.
0.569838 0.00100118 0.
0.571833 0.00100017 0.
0.573821 0.00100129 0.
0.575809 0.0010028 0.
0.577797 0.00100431 0.
0.579781 0.00100493 0.
0.581766 0.00100555 0.
0.583749 0.00100591 0.
0.585729 0.00100552 0.
0.587709 0.00100513 0.
0.589686 0.00100391 0.
0.591661 0.00100198 0.
0.593636 0.00100005 0.
0.595724 0.00100016 0.
0.597861 0.00100065 0.
0.600002 0.00100113 0.
0.602137 0.00100062 0.
0.604271 0.00100012 0.
0.606358 0.00100007 0.
0.608335 0.00100203 0.
0.610312 0.001004 0.
0.61229 0.00100511 0.
0.614271 0.00100534 0.
0.616251 0.00100557 0.
0.618235 0.00100556 0.
0.62022 0.00100549 0.
0.622205 0.00100542 0.
0.624189 0.00100471 0.
0.626173 0.00100397 0.
0.628159 0.00100313 0.
0.630155 0.00100182 0.
0.63215 0.00100051 0.
0.634146 0.00100001 0.
0.636143 0.00100081 0.
0.638141 0.00100161 0.
0.640137 0.00100198 0.
0.642134 0.00100208 0.
0.64413 0.00100217 0.
0.646125 0.00100233 0.
0.648119 0.00100252 0.
0.650114 0.0010027 0.
0.652112 0.00100221 0.
0.65411 0.00100172 0.
0.656109 0.00100119 0.
0.658108 0.0010006 0.
0.660108 0.00100001 0.
0.662109 0.00100015 0.
0.66411 0.00100102 0.
0.666112 0.00100189 0.
0.668111 0.00100214 0.
0.670109 0.00100215 0.
0.672107 0.00100217 0.
0.674107 0.00100166 0.
0.676106 0.0010011 0.
0.678105 0.00100067 0.
0.680106 0.00100095 0.
0.682106 0.00100124 0.
0.684106 0.00100138 0.
0.686105 0.00100127 0.
0.688105 0.00100117 0.
0.690105 0.00100116 0.
0.692105 0.00100125 0.
0.694105 0.00100134 0.
0.696105 0.00100152 0.
0.698104 0.00100171 0.
0.49989 0.00300547 0.
0.50189 0.00300494 0.
0.50389 0.00300446 0.
0.505889 0.00300402 0.
0.507889 0.00300377 0.
0.509889 0.00300353 0.
0.511889 0.00300284 0.
0.51389 0.00300149 0.
0.515891 0.00300014 0.
0.517892 0.00300031 0.
0.519894 0.00300139 0.
0.521895 0.00300247 0.
0.523894 0.00300258 0.
0.525893 0.0030025 0.
0.527893 0.00300257 0.
0.529891 0.00300418 0.
0.53189 0.00300579 0.
0.533889 0.00300609 0.
0.535887 0.00300331 0.
0.537885 0.00300053 0.
0.539885 0.00300007 0.
0.541888 0.00300181 0.
0.54389 0.00300355 0.
0.54589 0.00300413 0.
0.547888 0.00300428 0.
0.549886 0.00300441 0.
0.551881 0.00300569 0.
0.553876 0.00300702 0.
0.555871 0.0030079 0.
0.557867 0.00300688 0.
0.559863 0.00300586 0.
0.561859 0.00300575 0.
0.563854 0.00300688 0.
0.56585 0.00300802 0.
0.567845 0.00300655 0.
0.569841 0.00300354 0.
0.571837 0.00300052 0.
0.573826 0.00300386 0.
0.575814 0.00300842 0.
0.577802 0.00301292 0.
0.579788 0.00301479 0.
0.581774 0.00301667 0.
0.583759 0.00301772 0.
0.585739 0.00301656 0.
0.587719 0.00301539 0.
0.589699 0.00301169 0.
0.591679 0.0030059 0.
0.59366 0.00300011 0.
0.595744 0.00300046 0.
0.597871 0.00300193 0.
0.600002 0.0030034 0.
0.602127 0.00300186 0.
0.604252 0.00300031 0.
0.606335 0.00300015 0.
0.608316 0.00300607 0.
0.610298 0.00301199 0.
0.612279 0.00301531 0.
0.61426 0.00301601 0.
0.616241 0.0030167 0.
0.618226 0.00301667 0.
0.620213 0.00301647 0.
0.622199 0.00301626 0.
0.624185 0.00301415 0.
0.62617 0.00301191 0.
0.628157 0.00300938 0.
0.630151 0.00300546 0.
0.632145 0.00300154 0.
0.634141 0.00300002 0.
0.63614 0.00300243 0.
0.638138 0.00300484 0.
0.640136 0.00300596 0.
0.642132 0.00300624 0.
0.644129 0.00300652 0.
0.646124 0.003007 0.
0.648118 0.00300756 0.
0.650113 0.0030081 0.
0.652109 0.00300663 0.
0.654105 0.00300516 0.
0.656103 0.00300356 0.
0.658108 0.0030018 0.
0.660112 0.00300003 0.
0.662114 0.00300045 0.
0.664114 0.00300306 0.
0.666113 0.00300567 0.
0.668111 0.00300642 0.
0.670109 0.00300646 0.
0.672107 0.00300651 0.
0.674106 0.00300498 0.
0.676105 0.0030033 0.
0.678105 0.00300201 0.
0.680105 0.00300286 0.
0.682105 0.00300371 0.
0.684105 0.00300413 0.
0.686105 0.00300381 0.
0.688105 0.00300348 0.
0.690105 0.0030035 0.
0.692105 0.00300377 0.
0.694104 0.00300403 0.
0.696104 0.00300457 0.
0.698104 0.00300514 0.
0.499892 0.00500911 0.
0.501891 0.00500823 0.
0.503891 0.00500743 0.
0.50589 0.00500672 0.
0.50789 0.0050063 0.
0.509889 0.00500588 0.
0.51189 0.00500474 0.
0.513891 0.00500249 0.
0.515892 0.00500024 0.
0.517893 0.00500052 0.
0.519894 0.00500231 0.
0.521896 0.00500412 0.
0.523895 0.00500429 0.
0.525894 0.00500417 0.
0.527892 0.00500427 0.
0.529891 0.00500695 0.
0.53189 0.00500963 0.
0.533888 0.00501015 0.
0.535885 0.00500553 0.
0.537882 0.00500091 0.
0.539883 0.00500013 0.
0.541888 0.00500302 0.
0.543894 0.00500592 0.
0.545893 0.00500689 0.
0.54789 0.00500713 0.
0.549887 0.00500736 0.
0.551883 0.00500947 0.
0.553878 0.00501169 0.
0.555873 0.00501315 0.
0.557868 0.00501146 0.
0.559864 0.00500976 0.
0.56186 0.00500959 0.
0.563856 0.00501148 0.
0.565852 0.00501338 0.
0.567848 0.00501091 0.
0.569845 0.00500589 0.
0.571841 0.00500087 0.
0.573831 0.00500645 0.
0.575819 0.00501404 0.
0.577807 0.00502153 0.
0.579795 0.00502465 0.
0.581783 0.00502776 0.
0.583769 0.00502949 0.
0.585749 0.00502757 0.
0.587729 0.00502567 0.
0.589712 0.00501944 0.
0.591698 0.00500975 0.
0.593684 0.00500012 0.
0.595763 0.00500074 0.
0.597881 0.00500349 0.
0.600002 0.00500659 0.
0.602118 0.00500337 0.
0.604234 0.0050005 0.
0.606312 0.00500018 0.
0.608297 0.00501003 0.
0.610283 0.00501992 0.
0.612267 0.00502551 0.
0.614249 0.00502665 0.
0.616231 0.00502778 0.
0.618217 0.00502776 0.
0.620206 0.00502742 0.
0.622194 0.0050271 0.
0.624181 0.00502357 0.
0.626167 0.00501985 0.
0.628155 0.00501564 0.
0.630148 0.0050091 0.
0.632141 0.00500257 0.
0.634136 0.00500004 0.
0.636136 0.00500405 0.
0.638136 0.00500806 0.
0.640134 0.00500993 0.
0.642131 0.0050104 0.
0.644127 0.00501087 0.
0.646122 0.00501165 0.
0.648117 0.0050126 0.
0.650112 0.00501351 0.
0.652106 0.00501106 0.
0.6541 0.00500861 0.
0.656098 0.00500593 0.
0.658107 0.005003 0.
0.660117 0.00500005 0.
0.66212 0.00500077 0.
0.664117 0.00500511 0.
0.666114 0.00500944 0.
0.668112 0.00501068 0.
0.670109 0.00501077 0.
0.672107 0.00501085 0.
0.674106 0.00500829 0.
0.676105 0.00500551 0.
0.678104 0.00500336 0.
0.680104 0.00500477 0.
0.682104 0.00500618 0.
0.684104 0.00500687 0.
0.686105 0.00500632 0.
0.688105 0.00500578 0.
0.690105 0.00500584 0.
0.692104 0.00500629 0.
0.694103 0.00500673 0.
0.696104 0.00500763 0.
0.698104 0.00500857 0.
0.499893 0.00701173 0.
0.501893 0.00701121 0.
0.503892 0.00701079 0.
0.505892 0.00701039 0.
0.507892 0.00701001 0.
0.509892 0.00700964 0.
0.511892 0.00700919 0.
0.513893 0.00700854 0.
0.515893 0.00700791 0.
0.517894 0.00700808 0.
0.519895 0.00700876 0.
0.521895 0.00700944 0.
0.523895 0.00701013 0.
0.525894 0.00701079 0.
0.527893 0.00701151 0.
0.529892 0.00701308 0.
0.531891 0.00701466 0.
0.53389 0.00701573 0.
0.535888 0.00701547 0.
0.537886 0.00701522 0.
0.539887 0.0070149 0.
0.541889 0.00701458 0.
0.543892 0.00701428 0.
0.545891 0.00701417 0.
0.547889 0.00701409 0.
0.549886 0.00701402 0.
0.551883 0.00701567 0.
0.553879 0.00701741 0.
0.555875 0.00701882 0.
0.557872 0.00701875 0.
0.559868 0.00701868 0.
0.561865 0.00701904 0.
0.563862 0.00701998 0.
0.565858 0.00702093 0.
0.567854 0.00702108 0.
0.56985 0.00702073 0.
0.571846 0.0070204 0.
0.573837 0.00702504 0.
0.575826 0.00703068 0.
0.577816 0.00703616 0.
0.579806 0.00703761 0.
0.581797 0.00703906 0.
0.583786 0.00703963 0.
0.585774 0.00703786 0.
0.587761 0.00703611 0.
0.58975 0.00702705 0.
0.591741 0.00701103 0.
0.593732 0.00699511 0.
0.595801 0.00701311 0.
0.5979 0.00704446 0.
0.600001 0.00707653 0.
0.602098 0.00704463 0.
0.604196 0.00701345 0.
0.606263 0.00699602 0.
0.608254 0.00701263 0.
0.610245 0.00702931 0.
0.612235 0.00703773 0.
0.614223 0.00703801 0.
0.616211 0.00703828 0.
0.618201 0.00703795 0.
0.620192 0.00703743 0.
0.622183 0.00703692 0.
0.624172 0.00703261 0.
0.626162 0.00702808 0.
0.628152 0.007024 0.
0.630147 0.00702247 0.
0.632141 0.00702096 0.
0.634136 0.00702002 0.
0.636134 0.00701985 0.
0.638132 0.0070197 0.
0.640129 0.00701966 0.
0.642126 0.00701976 0.
0.644123 0.00701985 0.
0.646119 0.00701962 0.
0.648116 0.00701935 0.
0.650112 0.00701913 0.
0.652109 0.00701924 0.
0.654105 0.00701935 0.
0.656104 0.00701965 0.
0.658108 0.00702058 0.
0.660112 0.00702152 0.
0.662113 0.00702145 0.
0.664111 0.00702018 0.
0.666109 0.00701892 0.
0.668108 0.00701772 0.
0.670107 0.00701659 0.
0.672106 0.00701547 0.
0.674105 0.00701348 0.
0.676104 0.00701142 0.
0.678103 0.00700969 0.
0.680103 0.00700992 0.
0.682103 0.00701015 0.
0.684103 0.00701027 0.
0.686103 0.00701015 0.
0.688104 0.00701004 0.
0.690103 0.0070102 0.
0.692103 0.00701054 0.
0.694103 0.00701088 0.
0.696103 0.00701175 0.
0.698102 0.00701273 0.
0.499895 0.00901425 0.
0.501894 0.00901418 0.
0.503894 0.00901414 0.
0.505894 0.00901405 0.
0.507894 0.00901373 0.
0.509895 0.00901341 0.
0.511895 0.00901363 0.
0.513895 0.0090146 0.
0.515895 0.00901558 0.
0.517895 0.00901563 0.
0.519895 0.00901519 0.
0.521895 0.00901476 0.
0.523895 0.00901597 0.
0.525894 0.0090174 0.
0.527893 0.00901873 0.
0.529893 0.00901921 0.
0.531893 0.00901969 0.
0.533892 0.00902131 0.
0.535892 0.00902542 0.
0.537891 0.00902954 0.
0.539891 0.00902967 0.
0.54189 0.00902615 0.
0.543889 0.00902265 0.
0.545888 0.00902145 0.
0.547887 0.00902106 0.
0.549885 0.00902068 0.
0.551883 0.00902187 0.
0.55388 0.00902313 0.
0.555878 0.00902448 0.
0.557875 0.00902604 0.
0.559873 0.0090276 0.
0.56187 0.00902848 0.
0.563867 0.00902848 0.
0.565864 0.00902848 0.
0.56786 0.00903124 0.
0.569856 0.00903557 0.
0.571851 0.00903992 0.
0.573843 0.00904364 0.
0.575833 0.00904733 0.
0.577824 0.00905078 0.
0.579817 0.00905057 0.
0.581811 0.00905037 0.
0.583804 0.00904977 0.
0.585799 0.00904816 0.
0.587794 0.00904656 0.
0.589789 0.00903448 0.
0.591785 0.00901211 0.
0.59378 0.00898985 0.
0.595838 0.00902628 0.
0.597919 0.00908583 0.
0.600001 0.00914647 0.
0.602079 0.00908627 0.
0.604158 0.00902717 0.
0.606215 0.00899162 0.
0.608211 0.00901503 0.
0.610207 0.00903853 0.
0.612203 0.00904997 0.
0.614197 0.00904939 0.
0.616191 0.0090488 0.
0.618185 0.00904814 0.
0.620178 0.00904743 0.
0.622172 0.00904673 0.
0.624164 0.00904166 0.
0.626157 0.00903633 0.
0.62815 0.00903236 0.
0.630145 0.00903583 0.
0.63214 0.00903933 0.
0.634136 0.00903999 0.
0.636131 0.00903566 0.
0.638127 0.00903134 0.
0.640124 0.0090294 0.
0.642122 0.00902912 0.
0.644119 0.00902883 0.
0.646117 0.00902759 0.
0.648115 0.00902613 0.
0.650112 0.00902475 0.
0.652111 0.00902742 0.
0.654111 0.00903009 0.
0.65611 0.00903337 0.
0.658108 0.00903816 0.
0.660107 0.00904296 0.
0.662106 0.00904216 0.
0.664105 0.00903528 0.
0.666104 0.00902842 0.
0.668104 0.00902475 0.
0.670105 0.00902242 0.
0.672105 0.00902009 0.
0.674104 0.00901867 0.
0.676104 0.00901733 0.
0.678103 0.00901602 0.
0.680102 0.00901507 0.
0.682102 0.00901412 0.
0.684102 0.00901367 0.
0.686102 0.00901399 0.
0.688102 0.0090143 0.
0.690102 0.00901457 0.
0.692102 0.0090148 0.
0.694102 0.00901503 0.
0.696102 0.00901589 0.
0.698101 0.0090169 0.
0.499896 0.0110173 0.
0.501896 0.0110173 0.
0.503896 0.0110172 0.
0.505896 0.0110171 0.
0.507896 0.0110167 0.
0.509896 0.0110164 0.
0.511896 0.0110168 0.
0.513896 0.0110184 0.
0.515896 0.01102 0.
0.517896 0.0110201 0.
0.519896 0.0110193 0.
0.521896 0.0110186 0.
0.523896 0.0110198 0.
0.525895 0.0110214 0.
0.527895 0.0110228 0.
0.529894 0.0110231 0.
0.531894 0.0110233 0.
0.533894 0.0110252 0.
0.535894 0.0110304 0.
0.537895 0.0110357 0.
0.539894 0.011036 0.
0.541892 0.0110318 0.
0.54389 0.0110276 0.
0.545889 0.011026 0.
0.547888 0.0110253 0.
0.549887 0.0110247 0.
0.551885 0.0110258 0.
0.553883 0.011027 0.
0.555882 0.0110285 0.
0.55788 0.0110307 0.
0.559878 0.0110329 0.
0.561876 0.0110341 0.
0.563873 0.011034 0.
0.565871 0.0110339 0.
0.567868 0.0110375 0.
0.569864 0.0110432 0.
0.57186 0.0110489 0.
0.573854 0.0110523 0.
0.575847 0.0110553 0.
0.57784 0.011058 0.
0.579836 0.0110567 0.
0.581832 0.0110553 0.
0.583829 0.0110536 0.
0.585829 0.0110508 0.
0.587829 0.0110482 0.
0.58983 0.0110356 0.
0.59183 0.0110133 0.
0.593831 0.010991 0.
0.595878 0.011029 0.
0.597941 0.011088 0.
0.600003 0.0111461 0.
0.602061 0.011089 0.
0.60412 0.0110311 0.
0.606165 0.0109942 0.
0.608166 0.0110172 0.
0.610168 0.01104 0.
0.612169 0.0110519 0.
0.614168 0.0110525 0.
0.616167 0.0110532 0.
0.618164 0.011053 0.
0.62016 0.0110525 0.
0.622156 0.011052 0.
0.624151 0.0110471 0.
0.626147 0.0110418 0.
0.628142 0.0110382 0.
0.630138 0.0110432 0.
0.632135 0.0110482 0.
0.634131 0.0110493 0.
0.636126 0.0110439 0.
0.638122 0.0110384 0.
0.640119 0.0110357 0.
0.642117 0.011035 0.
0.644115 0.0110343 0.
0.646113 0.0110325 0.
0.648112 0.0110305 0.
0.65011 0.0110286 0.
0.65211 0.0110324 0.
0.65411 0.0110362 0.
0.65611 0.0110406 0.
0.658107 0.0110461 0.
0.660104 0.0110517 0.
0.662102 0.0110506 0.
0.664102 0.0110422 0.
0.666101 0.0110339 0.
0.668102 0.0110293 0.
0.670103 0.0110264 0.
0.672104 0.0110234 0.
0.674103 0.0110222 0.
0.676103 0.0110212 0.
0.678102 0.01102 0.
0.680102 0.0110188 0.
0.682101 0.0110175 0.
0.684101 0.0110169 0.
0.686101 0.0110172 0.
0.688101 0.0110175 0.
0.690101 0.0110178 0.
0.692101 0.0110182 0.
0.694101 0.0110185 0.
0.696101 0.0110193 0.
0.6981 0.0110202 0.
0.499898 0.013021 0.
0.501898 0.0130205 0.
0.503897 0.0130199 0.
0.505897 0.0130194 0.
0.507897 0.013019 0.
0.509897 0.0130186 0.
0.511897 0.0130188 0.
0.513897 0.01302 0.
0.515897 0.0130212 0.
0.517898 0.0130214 0.
0.519898 0.0130211 0.
0.521899 0.0130208 0.
0.523898 0.0130217 0.
0.525898 0.0130227 0.
0.527897 0.0130237 0.
0.529897 0.0130247 0.
0.531896 0.0130256 0.
0.533896 0.0130273 0.
0.535896 0.0130306 0.
0.537896 0.0130339 0.
0.539896 0.0130342 0.
0.541895 0.0130316 0.
0.543895 0.0130291 0.
0.545894 0.0130278 0.
0.547893 0.0130269 0.
0.549892 0.013026 0.
0.55189 0.0130275 0.
0.553888 0.0130291 0.
0.555887 0.0130307 0.
0.557885 0.0130326 0.
0.559883 0.0130346 0.
0.561882 0.0130359 0.
0.56388 0.0130366 0.
0.565878 0.0130372 0.
0.567877 0.0130399 0.
0.569874 0.0130438 0.
0.571872 0.0130476 0.
0.573869 0.0130513 0.
0.575865 0.013055 0.
0.577862 0.0130582 0.
0.579861 0.0130561 0.
0.58186 0.0130541 0.
0.583861 0.0130512 0.
0.585864 0.0130463 0.
0.587868 0.0130413 0.
0.589873 0.0130307 0.
0.591879 0.0130148 0.
0.593885 0.0129988 0.
0.595919 0.0130208 0.
0.597963 0.013055 0.
0.600006 0.0130888 0.
0.602044 0.013057 0.
0.604083 0.0130247 0.
0.606113 0.0130041 0.
0.60812 0.0130193 0.
0.610128 0.0130344 0.
0.612133 0.0130439 0.
0.614135 0.0130477 0.
0.616138 0.0130515 0.
0.618138 0.0130527 0.
0.620137 0.0130528 0.
0.622136 0.013053 0.
0.624134 0.013049 0.
0.626131 0.0130446 0.
0.628129 0.0130414 0.
0.630126 0.0130446 0.
0.632123 0.0130479 0.
0.634121 0.0130485 0.
0.636119 0.0130447 0.
0.638116 0.0130409 0.
0.640114 0.0130386 0.
0.642113 0.0130374 0.
0.644111 0.0130362 0.
0.646109 0.0130344 0.
0.648108 0.0130325 0.
0.650106 0.0130308 0.
0.652105 0.0130343 0.
0.654105 0.0130378 0.
0.656104 0.0130414 0.
0.658103 0.0130449 0.
0.660102 0.0130483 0.
0.662102 0.0130473 0.
0.664102 0.0130413 0.
0.666102 0.0130353 0.
0.668102 0.0130314 0.
0.670102 0.0130284 0.
0.672102 0.0130254 0.
0.674102 0.0130241 0.
0.676101 0.0130229 0.
0.678101 0.0130218 0.
0.680101 0.013021 0.
0.682101 0.0130203 0.
0.6841 0.0130198 0.
0.6861 0.0130197 0.
0.6881 0.0130196 0.
0.690099 0.01302 0.
0.6921 0.0130206 0.
0.6941 0.0130212 0.
0.6961 0.0130219 0.
0.6981 0.0130226 0.
0.4999 0.0150248 0.
0.501899 0.0150238 0.
0.503898 0.0150227 0.
0.505898 0.0150217 0.
0.507897 0.0150212 0.
0.509897 0.0150207 0.
0.511897 0.0150208 0.
0.513898 0.0150215 0.
0.515898 0.0150223 0.
0.517899 0.0150227 0.
0.5199 0.0150229 0.
0.521901 0.015023 0.
0.5239 0.0150235 0.
0.5259 0.0150241 0.
0.527899 0.0150247 0.
0.529899 0.0150263 0.
0.531898 0.0150279 0.
0.533898 0.0150294 0.
0.535898 0.0150308 0.
0.537898 0.0150322 0.
0.539898 0.0150324 0.
0.541899 0.0150315 0.
0.543899 0.0150306 0.
0.545898 0.0150296 0.
0.547897 0.0150285 0.
0.549896 0.0150274 0.
0.551895 0.0150292 0.
0.553893 0.0150311 0.
0.555892 0.015033 0.
0.55789 0.0150346 0.
0.559889 0.0150362 0.
0.561888 0.0150377 0.
0.563887 0.0150391 0.
0.565886 0.0150405 0.
0.567885 0.0150423 0.
0.569885 0.0150443 0.
0.571885 0.0150464 0.
0.573884 0.0150503 0.
0.575884 0.0150546 0.
0.577883 0.0150583 0.
0.579886 0.0150556 0.
0.581888 0.0150529 0.
0.583892 0.0150488 0.
0.585899 0.0150416 0.
0.587906 0.0150345 0.
0.589916 0.015026 0.
0.591927 0.0150163 0.
0.593939 0.0150067 0.
0.595961 0.015012 0.
0.597985 0.015022 0.
0.60001 0.015032 0.
0.602028 0.0150249 0.
0.604046 0.0150179 0.
0.606062 0.0150142 0.
0.608075 0.0150215 0.
0.610087 0.0150289 0.
0.612097 0.015036 0.
0.614103 0.0150428 0.
0.616109 0.0150497 0.
0.618112 0.0150523 0.
0.620114 0.0150531 0.
0.622116 0.0150539 0.
0.624116 0.0150508 0.
0.626116 0.0150473 0.
0.628115 0.0150445 0.
0.630114 0.015046 0.
0.632112 0.0150475 0.
0.634112 0.0150477 0.
0.636111 0.0150455 0.
0.638111 0.0150434 0.
0.64011 0.0150415 0.
0.642108 0.0150398 0.
0.644106 0.0150381 0.
0.646105 0.0150363 0.
0.648103 0.0150346 0.
0.650102 0.015033 0.
0.6521 0.0150362 0.
0.654099 0.0150394 0.
0.656099 0.0150422 0.
0.6581 0.0150436 0.
0.660101 0.015045 0.
0.662101 0.015044 0.
0.664101 0.0150403 0.
0.666102 0.0150366 0.
0.668101 0.0150334 0.
0.670101 0.0150304 0.
0.6721 0.0150274 0.
0.6741 0.0150259 0.
0.6761 0.0150247 0.
0.678099 0.0150235 0.
0.6801 0.0150233 0.
0.6821 0.0150231 0.
0.6841 0.0150227 0.
0.686099 0.0150222 0.
0.688098 0.0150218 0.
0.690098 0.0150221 0.
0.692098 0.0150231 0.
0.694098 0.015024 0.
0.696099 0.0150246 0.
0.698099 0.0150251 0.
0.499901 0.017027 0.
0.5019 0.0170259 0.
0.5039 0.0170248 0.
0.505899 0.0170237 0.
0.507899 0.0170234 0.
0.509898 0.0170231 0.
0.511899 0.0170231 0.
0.513899 0.0170234 0.
0.5159 0.0170238 0.
0.5179 0.0170239 0.
0.519901 0.017024 0.
0.521902 0.0170241 0.
0.523901 0.0170249 0.
0.525901 0.0170257 0.
0.527901 0.0170265 0.
0.5299 0.0170278 0.
0.5319 0.0170292 0.
0.5339 0.0170304 0.
0.5359 0.0170315 0.
0.537901 0.0170325 0.
0.539901 0.0170326 0.
0.541901 0.0170318 0.
0.543901 0.017031 0.
0.5459 0.0170302 0.
0.5479 0.0170295 0.
0.549899 0.0170288 0.
0.551898 0.0170306 0.
0.553896 0.0170326 0.
0.555895 0.0170344 0.
0.557894 0.0170358 0.
0.559893 0.0170371 0.
0.561892 0.0170384 0.
0.563892 0.0170396 0.
0.565891 0.0170408 0.
0.567891 0.0170425 0.
0.569892 0.0170444 0.
0.571892 0.0170464 0.
0.573893 0.0170497 0.
0.575894 0.0170531 0.
0.577895 0.0170561 0.
0.579898 0.0170528 0.
0.581902 0.0170495 0.
0.583906 0.017045 0.
0.585913 0.0170374 0.
0.587921 0.0170299 0.
0.589929 0.0170218 0.
0.591939 0.0170133 0.
0.593949 0.0170048 0.
0.595967 0.0170083 0.
0.597987 0.0170154 0.
0.600007 0.0170225 0.
0.602023 0.0170184 0.
0.604038 0.0170143 0.
0.606053 0.0170126 0.
0.608063 0.0170189 0.
0.610073 0.0170252 0.
0.612081 0.0170317 0.
0.614088 0.0170384 0.
0.616094 0.0170452 0.
0.618098 0.0170486 0.
0.620102 0.0170506 0.
0.622105 0.0170527 0.
0.624106 0.0170499 0.
0.626107 0.0170468 0.
0.628107 0.0170442 0.
0.630107 0.0170454 0.
0.632106 0.0170465 0.
0.634106 0.0170467 0.
0.636106 0.0170452 0.
0.638106 0.0170438 0.
0.640105 0.0170425 0.
0.642105 0.0170414 0.
0.644104 0.0170402 0.
0.646102 0.0170383 0.
0.6481 0.0170363 0.
0.650099 0.0170343 0.
0.652098 0.0170368 0.
0.654097 0.0170392 0.
0.656096 0.0170414 0.
0.658097 0.0170428 0.
0.660098 0.0170443 0.
0.662099 0.0170436 0.
0.664099 0.0170406 0.
0.6661 0.0170376 0.
0.6681 0.0170349 0.
0.670099 0.0170323 0.
0.672099 0.0170297 0.
0.674098 0.0170281 0.
0.676098 0.0170265 0.
0.678098 0.0170252 0.
0.680098 0.0170251 0.
0.682098 0.017025 0.
0.684099 0.0170247 0.
0.686098 0.0170241 0.
0.688097 0.0170235 0.
0.690097 0.0170239 0.
0.692097 0.0170249 0.
0.694097 0.0170259 0.
0.696098 0.0170266 0.
0.698098 0.0170272 0.
0.499902 0.0190294 0.
0.501901 0.019028 0.
0.503901 0.0190268 0.
0.5059 0.0190258 0.
0.5079 0.0190257 0.
0.5099 0.0190256 0.
0.5119 0.0190254 0.
0.513901 0.0190253 0.
0.515901 0.0190252 0.
0.517902 0.0190251 0.
0.519902 0.0190252 0.
0.521903 0.0190253 0.
0.523903 0.0190262 0.
0.525902 0.0190273 0.
0.527902 0.0190283 0.
0.529902 0.0190294 0.
0.531902 0.0190305 0.
0.533902 0.0190315 0.
0.535903 0.0190322 0.
0.537903 0.0190329 0.
0.539903 0.0190328 0.
0.541903 0.019032 0.
0.543903 0.0190313 0.
0.545903 0.0190309 0.
0.547902 0.0190305 0.
0.549902 0.0190302 0.
0.551901 0.0190321 0.
0.553899 0.019034 0.
0.555898 0.0190358 0.
0.557898 0.0190369 0.
0.559897 0.019038 0.
0.561897 0.0190391 0.
0.563897 0.0190401 0.
0.565897 0.0190411 0.
0.567897 0.0190427 0.
0.569899 0.0190445 0.
0.5719 0.0190464 0.
0.573902 0.019049 0.
0.575904 0.0190517 0.
0.577907 0.0190538 0.
0.579911 0.01905 0.
0.581916 0.0190462 0.
0.583921 0.0190411 0.
0.585928 0.0190331 0.
0.587935 0.0190252 0.
0.589943 0.0190176 0.
0.591951 0.0190103 0.
0.59396 0.019003 0.
0.595973 0.0190045 0.
0.597988 0.0190087 0.
0.600004 0.019013 0.
0.602017 0.0190118 0.
0.604031 0.0190106 0.
0.606043 0.0190109 0.
0.608051 0.0190162 0.
0.610059 0.0190214 0.
0.612066 0.0190273 0.
0.614073 0.019034 0.
0.616079 0.0190407 0.
0.618084 0.019045 0.
0.620089 0.0190482 0.
0.622094 0.0190514 0.
0.624096 0.0190491 0.
0.626098 0.0190462 0.
0.628099 0.0190439 0.
0.6301 0.0190447 0.
0.6321 0.0190455 0.
0.634101 0.0190457 0.
0.636101 0.0190449 0.
0.638101 0.0190442 0.
0.640101 0.0190435 0.
0.642101 0.019043 0.
0.644101 0.0190424 0.
0.646099 0.0190403 0.
0.648098 0.019038 0.
0.650096 0.0190357 0.
0.652095 0.0190374 0.
0.654094 0.019039 0.
0.656094 0.0190406 0.
0.658095 0.0190421 0.
0.660096 0.0190435 0.
0.662097 0.0190431 0.
0.664097 0.0190409 0.
0.666098 0.0190386 0.
0.668098 0.0190364 0.
0.670098 0.0190342 0.
0.672098 0.0190321 0.
0.674097 0.0190302 0.
0.676096 0.0190285 0.
0.678096 0.0190269 0.
0.680096 0.0190269 0.
0.682097 0.0190269 0.
0.684097 0.0190266 0.
0.686097 0.0190259 0.
0.688096 0.0190253 0.
0.690096 0.0190257 0.
0.692096 0.0190267 0.
0.694097 0.0190278 0.
0.696097 0.0190286 0.
0.698097 0.0190294 0.
0.499903 0.021032 0.
0.501903 0.0210305 0.
0.503902 0.0210292 0.
0.505902 0.0210281 0.
0.507902 0.0210278 0.
0.509902 0.0210275 0.
0.511902 0.0210272 0.
0.513903 0.0210268 0.
0.515903 0.0210264 0.
0.517903 0.0210262 0.
0.519904 0.0210263 0.
0.521904 0.0210263 0.
0.523904 0.0210272 0.
0.525904 0.0210282 0.
0.527904 0.0210292 0.
0.529904 0.0210303 0.
0.531904 0.0210313 0.
0.533904 0.0210321 0.
0.535905 0.0210326 0.
0.537906 0.0210332 0.
0.539906 0.021033 0.
0.541906 0.0210324 0.
0.543906 0.0210317 0.
0.545906 0.0210314 0.
0.547906 0.0210313 0.
0.549906 0.0210311 0.
0.551905 0.021033 0.
0.553904 0.0210349 0.
0.555903 0.0210366 0.
0.557903 0.0210375 0.
0.559903 0.0210383 0.
0.561903 0.0210392 0.
0.563903 0.02104 0.
0.565904 0.0210407 0.
0.567905 0.021042 0.
0.569906 0.0210437 0.
0.571908 0.0210454 0.
0.573911 0.0210471 0.
0.575914 0.0210488 0.
0.577918 0.02105 0.
0.579923 0.0210459 0.
0.581928 0.0210418 0.
0.583933 0.0210366 0.
0.58594 0.021029 0.
0.587946 0.0210215 0.
0.589953 0.0210146 0.
0.59196 0.0210082 0.
0.593967 0.0210017 0.
0.595978 0.021002 0.
0.59799 0.0210043 0.
0.600002 0.0210066 0.
0.602013 0.0210073 0.
0.604025 0.021008 0.
0.606036 0.0210096 0.
0.608042 0.021014 0.
0.610049 0.0210184 0.
0.612055 0.0210238 0.
0.614061 0.0210302 0.
0.616067 0.0210366 0.
0.618073 0.0210412 0.
0.620078 0.021045 0.
0.622083 0.0210488 0.
0.624086 0.0210471 0.
0.626088 0.0210448 0.
0.628091 0.021043 0.
0.630092 0.0210437 0.
0.632093 0.0210445 0.
0.634094 0.0210449 0.
0.636094 0.0210444 0.
0.638095 0.021044 0.
0.640095 0.0210437 0.
0.642096 0.0210436 0.
0.644097 0.0210435 0.
0.646095 0.0210415 0.
0.648094 0.0210391 0.
0.650092 0.0210369 0.
0.652091 0.0210379 0.
0.654091 0.021039 0.
0.656091 0.02104 0.
0.658092 0.0210413 0.
0.660093 0.0210426 0.
0.662094 0.0210424 0.
0.664095 0.0210407 0.
0.666095 0.021039 0.
0.668096 0.0210372 0.
0.670096 0.0210356 0.
0.672096 0.0210339 0.
0.674095 0.021032 0.
0.676094 0.0210302 0.
0.678094 0.0210285 0.
0.680094 0.0210285 0.
0.682095 0.0210284 0.
0.684096 0.0210282 0.
0.686095 0.0210278 0.
0.688095 0.0210274 0.
0.690095 0.0210278 0.
0.692095 0.0210287 0.
0.694095 0.0210296 0.
0.696095 0.0210306 0.
0.698096 0.0210316 0.
0.499904 0.0230346 0.
0.501904 0.0230333 0.
0.503904 0.023032 0.
0.505904 0.0230307 0.
0.507904 0.0230299 0.
0.509905 0.0230291 0.
0.511905 0.0230284 0.
0.513905 0.0230279 0.
0.515905 0.0230273 0.
0.517905 0.0230272 0.
0.519906 0.0230272 0.
0.521907 0.0230273 0.
0.523907 0.0230279 0.
0.525907 0.0230286 0.
0.527908 0.0230293 0.
0.529907 0.0230304 0.
0.531907 0.0230315 0.
0.533908 0.0230324 0.
0.535908 0.0230329 0.
0.537908 0.0230334 0.
0.539909 0.0230333 0.
0.541909 0.0230327 0.
0.543909 0.0230322 0.
0.545909 0.0230319 0.
0.547909 0.0230317 0.
0.54991 0.0230315 0.
0.551909 0.0230334 0.
0.553909 0.0230352 0.
0.555909 0.0230369 0.
0.557909 0.0230375 0.
0.559909 0.0230381 0.
0.56191 0.0230387 0.
0.563911 0.0230392 0.
0.565912 0.0230396 0.
0.567913 0.0230406 0.
0.569915 0.0230419 0.
0.571916 0.0230433 0.
0.57392 0.0230439 0.
0.575924 0.0230445 0.
0.577928 0.0230447 0.
0.579933 0.0230405 0.
0.581938 0.0230364 0.
0.583943 0.0230315 0.
0.585949 0.023025 0.
0.587955 0.0230186 0.
0.58996 0.0230126 0.
0.591967 0.0230069 0.
0.593973 0.0230011 0.
0.595982 0.0230008 0.
0.597991 0.023002 0.
0.600001 0.0230032 0.
0.602011 0.0230048 0.
0.604021 0.0230064 0.
0.60603 0.0230085 0.
0.608036 0.0230123 0.
0.610042 0.0230161 0.
0.612047 0.023021 0.
0.614053 0.023027 0.
0.616058 0.0230331 0.
0.618063 0.0230375 0.
0.620067 0.0230412 0.
0.622072 0.023045 0.
0.624075 0.023044 0.
0.626078 0.0230425 0.
0.628081 0.0230414 0.
0.630083 0.0230425 0.
0.632085 0.0230435 0.
0.634086 0.0230441 0.
0.636087 0.0230436 0.
0.638087 0.0230432 0.
0.640088 0.0230432 0.
0.642089 0.0230433 0.
0.64409 0.0230435 0.
0.64609 0.0230419 0.
0.648089 0.0230398 0.
0.650087 0.0230379 0.
0.652087 0.0230384 0.
0.654087 0.0230389 0.
0.656087 0.0230396 0.
0.658088 0.0230406 0.
0.66009 0.0230416 0.
0.662091 0.0230414 0.
0.664091 0.0230401 0.
0.666092 0.0230388 0.
0.668092 0.0230375 0.
0.670093 0.0230363 0.
0.672093 0.0230351 0.
0.674093 0.0230334 0.
0.676092 0.0230317 0.
0.678091 0.0230301 0.
0.680092 0.0230298 0.
0.682093 0.0230296 0.
0.684093 0.0230295 0.
0.686093 0.0230297 0.
0.688093 0.0230299 0.
0.690093 0.0230303 0.
0.692093 0.0230308 0.
0.694094 0.0230313 0.
0.696094 0.0230324 0.
0.698095 0.0230337 0.
0.499906 0.0250373 0.
0.501906 0.0250361 0.
0.503906 0.0250347 0.
0.505907 0.0250334 0.
0.507907 0.025032 0.
0.509907 0.0250306 0.
0.511907 0.0250296 0.
0.513907 0.0250289 0.
0.515907 0.0250283 0.
0.517908 0.0250281 0.
0.519908 0.0250282 0.
0.521909 0.0250282 0.
0.523909 0.0250286 0.
0.52591 0.025029 0.
0.527911 0.0250294 0.
0.529911 0.0250306 0.
0.531911 0.0250318 0.
0.533911 0.0250328 0.
0.535911 0.0250332 0.
0.537911 0.0250336 0.
0.539911 0.0250336 0.
0.541912 0.0250331 0.
0.543913 0.0250326 0.
0.545913 0.0250324 0.
0.547913 0.0250322 0.
0.549913 0.025032 0.
0.551914 0.0250337 0.
0.553915 0.0250355 0.
0.555916 0.0250371 0.
0.557916 0.0250375 0.
0.559916 0.0250379 0.
0.561917 0.0250382 0.
0.563918 0.0250384 0.
0.56592 0.0250386 0.
0.567922 0.0250392 0.
0.569923 0.0250402 0.
0.571925 0.0250411 0.
0.573929 0.0250408 0.
0.575934 0.0250402 0.
0.577939 0.0250393 0.
0.579944 0.0250352 0.
0.581949 0.025031 0.
0.583954 0.0250264 0.
0.585958 0.0250211 0.
0.587963 0.0250157 0.
0.589968 0.0250106 0.
0.591973 0.0250056 0.
0.593978 0.0250005 0.
0.595985 0.0249995 0.
0.597993 0.0249997 0.
0.6 0.0249999 0.
0.602009 0.0250023 0.
0.604017 0.0250048 0.
0.606025 0.0250074 0.
0.60803 0.0250106 0.
0.610035 0.0250138 0.
0.61204 0.0250182 0.
0.614044 0.0250238 0.
0.616049 0.0250295 0.
0.618053 0.0250338 0.
0.620057 0.0250375 0.
0.622061 0.0250412 0.
0.624064 0.0250409 0.
0.626068 0.0250402 0.
0.628071 0.0250398 0.
0.630074 0.0250412 0.
0.632076 0.0250425 0.
0.634078 0.0250433 0.
0.636079 0.0250429 0.
0.63808 0.0250425 0.
0.640082 0.0250426 0.
0.642083 0.025043 0.
0.644084 0.0250435 0.
0.646084 0.0250422 0.
0.648083 0.0250405 0.
0.650083 0.0250388 0.
0.652083 0.0250389 0.
0.654083 0.0250389 0.
0.656083 0.0250391 0.
0.658085 0.0250398 0.
0.660086 0.0250405 0.
0.662087 0.0250404 0.
0.664088 0.0250395 0.
0.666088 0.0250386 0.
0.668089 0.0250378 0.
0.67009 0.0250371 0.
0.672091 0.0250364 0.
0.67409 0.0250348 0.
0.67609 0.0250332 0.
0.678089 0.0250317 0.
0.68009 0.0250312 0.
0.682091 0.0250308 0.
0.684091 0.0250308 0.
0.686091 0.0250316 0.
0.688091 0.0250324 0.
0.690091 0.0250328 0.
0.692092 0.0250328 0.
0.694092 0.0250329 0.
0.696093 0.0250342 0.
0.698094 0.0250357 0.
0.499908 0.0270388 0.
0.501908 0.0270376 0.
0.503908 0.0270363 0.
0.505909 0.0270349 0.
0.507909 0.0270331 0.
0.509909 0.0270313 0.
0.511909 0.02703 0.
0.51391 0.0270294 0.
0.51591 0.0270288 0.
0.51791 0.0270285 0.
0.519911 0.0270283 0.
0.521911 0.027028 0.
0.523912 0.0270287 0.
0.525912 0.0270295 0.
0.527913 0.0270302 0.
0.529913 0.0270311 0.
0.531913 0.027032 0.
0.533913 0.0270327 0.
0.535914 0.0270329 0.
0.537914 0.0270331 0.
0.539915 0.0270331 0.
0.541915 0.0270328 0.
0.543916 0.0270325 0.
0.545917 0.0270323 0.
0.547917 0.027032 0.
0.549918 0.0270317 0.
0.551918 0.0270334 0.
0.553919 0.0270352 0.
0.555919 0.0270366 0.
0.55792 0.0270368 0.
0.559921 0.0270369 0.
0.561922 0.0270371 0.
0.563923 0.0270374 0.
0.565925 0.0270376 0.
0.567927 0.0270377 0.
0.569929 0.0270378 0.
0.571931 0.0270379 0.
0.573935 0.0270376 0.
0.57594 0.0270372 0.
0.577945 0.0270366 0.
0.57995 0.0270323 0.
0.581954 0.0270281 0.
0.583959 0.0270236 0.
0.585963 0.0270188 0.
0.587968 0.0270139 0.
0.589972 0.0270094 0.
0.591977 0.0270052 0.
0.593981 0.027001 0.
0.595987 0.0269998 0.
0.597994 0.0269994 0.
0.6 0.026999 0.
0.602008 0.0270012 0.
0.604015 0.0270034 0.
0.606021 0.0270059 0.
0.608026 0.027009 0.
0.61003 0.0270121 0.
0.612035 0.0270162 0.
0.614039 0.0270214 0.
0.616044 0.0270266 0.
0.618048 0.0270306 0.
0.620052 0.0270341 0.
0.622056 0.0270377 0.
0.62406 0.0270379 0.
0.626063 0.0270378 0.
0.628067 0.0270379 0.
0.630069 0.0270391 0.
0.632072 0.0270403 0.
0.634074 0.0270411 0.
0.636075 0.027041 0.
0.638076 0.0270409 0.
0.640078 0.0270412 0.
0.642079 0.0270417 0.
0.644081 0.0270422 0.
0.646081 0.0270412 0.
0.648081 0.0270398 0.
0.65008 0.0270385 0.
0.652081 0.0270386 0.
0.654081 0.0270387 0.
0.656081 0.027039 0.
0.658083 0.0270394 0.
0.660084 0.0270399 0.
0.662085 0.0270399 0.
0.664086 0.0270393 0.
0.666086 0.0270387 0.
0.668087 0.0270381 0.
0.670088 0.0270374 0.
0.672088 0.0270368 0.
0.674088 0.0270352 0.
0.676087 0.0270335 0.
0.678087 0.027032 0.
0.680088 0.0270319 0.
0.682088 0.0270317 0.
0.684089 0.027032 0.
0.686089 0.0270328 0.
0.688089 0.0270337 0.
0.690089 0.0270341 0.
0.69209 0.0270342 0.
0.69409 0.0270344 0.
0.696091 0.0270359 0.
0.698091 0.0270377 0.
0.499909 0.0290403 0.
0.50191 0.0290391 0.
0.50391 0.0290379 0.
0.505911 0.0290365 0.
0.507911 0.0290343 0.
0.509911 0.029032 0.
0.511911 0.0290305 0.
0.513912 0.0290299 0.
0.515913 0.0290294 0.
0.517913 0.0290289 0.
0.519913 0.0290283 0.
0.521914 0.0290278 0.
0.523914 0.0290288 0.
0.525915 0.0290299 0.
0.527915 0.029031 0.
0.529915 0.0290316 0.
0.531916 0.0290322 0.
0.533916 0.0290327 0.
0.535916 0.0290326 0.
0.537917 0.0290326 0.
0.539918 0.0290325 0.
0.541919 0.0290325 0.
0.54392 0.0290324 0.
0.54592 0.0290321 0.
0.547921 0.0290318 0.
0.549922 0.0290315 0.
0.551922 0.0290331 0.
0.553922 0.0290348 0.
0.555922 0.0290361 0.
0.557924 0.029036 0.
0.559926 0.0290359 0.
0.561927 0.029036 0.
0.563929 0.0290363 0.
0.56593 0.0290366 0.
0.567932 0.0290362 0.
0.569934 0.0290354 0.
0.571937 0.0290346 0.
0.573941 0.0290344 0.
0.575946 0.0290343 0.
0.577951 0.0290338 0.
0.579955 0.0290295 0.
0.58196 0.0290252 0.
0.583964 0.0290208 0.
0.585968 0.0290164 0.
0.587973 0.0290121 0.
0.589977 0.0290083 0.
0.59198 0.0290049 0.
0.593984 0.0290015 0.
0.595989 0.029 0.
0.597995 0.0289991 0.
0.600001 0.0289981 0.
0.602007 0.0290001 0.
0.604013 0.0290021 0.
0.606018 0.0290043 0.
0.608022 0.0290074 0.
0.610025 0.0290104 0.
0.612029 0.0290143 0.
0.614034 0.0290189 0.
0.616039 0.0290236 0.
0.618043 0.0290274 0.
0.620047 0.0290308 0.
0.622051 0.0290342 0.
0.624055 0.029035 0.
0.626059 0.0290354 0.
0.628063 0.029036 0.
0.630065 0.0290371 0.
0.632067 0.0290382 0.
0.634069 0.029039 0.
0.63607 0.0290392 0.
0.638072 0.0290394 0.
0.640074 0.0290398 0.
0.642075 0.0290404 0.
0.644077 0.0290409 0.
0.646078 0.0290402 0.
0.648078 0.0290391 0.
0.650078 0.0290381 0.
0.652078 0.0290384 0.
0.654079 0.0290386 0.
0.65608 0.0290389 0.
0.658081 0.0290391 0.
0.660082 0.0290393 0.
0.662083 0.0290393 0.
0.664084 0.029039 0.
0.666085 0.0290388 0.
0.668085 0.0290383 0.
0.670085 0.0290378 0.
0.672086 0.0290372 0.
0.674086 0.0290356 0.
0.676085 0.0290338 0.
0.678085 0.0290324 0.
0.680086 0.0290325 0.
0.682086 0.0290327 0.
0.684086 0.0290332 0.
0.686087 0.0290341 0.
0.688087 0.029035 0.
0.690087 0.0290354 0.
0.692088 0.0290356 0.
0.694089 0.0290358 0.
0.696089 0.0290375 0.
0.698089 0.0290396 0.
0.499911 0.0310419 0.
0.501912 0.0310405 0.
0.503913 0.0310392 0.
0.505913 0.0310377 0.
0.507913 0.0310355 0.
0.509913 0.0310332 0.
0.511914 0.0310315 0.
0.513915 0.0310308 0.
0.515915 0.0310302 0.
0.517916 0.0310295 0.
0.519916 0.0310289 0.
0.521917 0.0310283 0.
0.523917 0.0310291 0.
0.525918 0.0310302 0.
0.527918 0.0310312 0.
0.529918 0.0310317 0.
0.531918 0.0310321 0.
0.533919 0.0310323 0.
0.53592 0.0310322 0.
0.537921 0.031032 0.
0.539921 0.0310319 0.
0.541922 0.031032 0.
0.543923 0.0310321 0.
0.545924 0.0310318 0.
0.547925 0.0310314 0.
0.549925 0.031031 0.
0.551926 0.0310325 0.
0.553926 0.031034 0.
0.555927 0.0310353 0.
0.557929 0.0310351 0.
0.55993 0.0310349 0.
0.561932 0.0310349 0.
0.563934 0.031035 0.
0.565935 0.0310351 0.
0.567937 0.0310343 0.
0.56994 0.0310331 0.
0.571943 0.0310319 0.
0.573947 0.0310315 0.
0.575952 0.0310312 0.
0.577956 0.0310306 0.
0.57996 0.0310266 0.
0.581964 0.0310226 0.
0.583968 0.0310186 0.
0.585972 0.0310147 0.
0.587977 0.0310107 0.
0.58998 0.0310074 0.
0.591983 0.0310044 0.
0.593986 0.0310015 0.
0.595991 0.0309999 0.
0.597996 0.0309986 0.
0.600001 0.0309973 0.
0.602006 0.0309992 0.
0.604011 0.0310011 0.
0.606016 0.0310032 0.
0.608019 0.0310061 0.
0.610022 0.031009 0.
0.612026 0.0310125 0.
0.61403 0.0310167 0.
0.616034 0.0310208 0.
0.618038 0.0310244 0.
0.620042 0.0310278 0.
0.622046 0.0310312 0.
0.62405 0.0310324 0.
0.626054 0.0310334 0.
0.628058 0.0310343 0.
0.63006 0.0310353 0.
0.632062 0.0310362 0.
0.634064 0.031037 0.
0.636066 0.0310375 0.
0.638067 0.031038 0.
0.640069 0.0310386 0.
0.642071 0.0310393 0.
0.644072 0.03104 0.
0.646073 0.0310392 0.
0.648074 0.0310381 0.
0.650075 0.0310371 0.
0.652075 0.0310376 0.
0.654076 0.0310382 0.
0.656077 0.0310386 0.
0.658077 0.0310387 0.
0.660078 0.0310387 0.
0.662079 0.0310388 0.
0.66408 0.0310388 0.
0.666082 0.0310388 0.
0.668082 0.0310384 0.
0.670082 0.0310379 0.
0.672083 0.0310375 0.
0.674083 0.031036 0.
0.676083 0.0310343 0.
0.678083 0.031033 0.
0.680083 0.0310334 0.
0.682084 0.0310339 0.
0.684084 0.0310345 0.
0.686084 0.0310353 0.
0.688085 0.0310361 0.
0.690085 0.0310367 0.
0.692086 0.0310372 0.
0.694086 0.0310377 0.
0.696086 0.0310398 0.
0.698086 0.0310422 0.
0.499914 0.0330435 0.
0.501914 0.0330419 0.
0.503915 0.0330403 0.
0.505916 0.0330386 0.
0.507916 0.0330367 0.
0.509916 0.0330348 0.
0.511917 0.0330332 0.
0.513918 0.0330322 0.
0.515918 0.0330312 0.
0.517919 0.0330305 0.
0.519919 0.0330299 0.
0.52192 0.0330293 0.
0.52392 0.0330298 0.
0.52592 0.0330304 0.
0.527921 0.0330309 0.
0.529921 0.0330313 0.
0.531922 0.0330316 0.
0.533923 0.0330318 0.
0.535923 0.0330315 0.
0.537924 0.0330313 0.
0.539925 0.0330313 0.
0.541926 0.0330314 0.
0.543927 0.0330316 0.
0.545928 0.0330312 0.
0.547928 0.0330307 0.
0.549929 0.0330301 0.
0.55193 0.0330315 0.
0.553931 0.0330329 0.
0.555932 0.033034 0.
0.557934 0.0330339 0.
0.559935 0.0330338 0.
0.561937 0.0330336 0.
0.563939 0.0330333 0.
0.565941 0.0330329 0.
0.567943 0.033032 0.
0.569946 0.0330309 0.
0.571948 0.0330297 0.
0.573953 0.0330289 0.
0.575957 0.0330281 0.
0.577961 0.0330271 0.
0.579965 0.0330238 0.
0.581968 0.0330205 0.
0.583972 0.0330171 0.
0.585975 0.0330135 0.
0.587979 0.0330099 0.
0.589982 0.0330067 0.
0.591986 0.0330039 0.
0.593989 0.0330011 0.
0.595993 0.0329994 0.
0.597997 0.032998 0.
0.600001 0.0329967 0.
0.602005 0.0329986 0.
0.60401 0.0330005 0.
0.606015 0.0330025 0.
0.608018 0.0330052 0.
0.61002 0.0330078 0.
0.612024 0.0330109 0.
0.614027 0.0330145 0.
0.616031 0.0330181 0.
0.618034 0.0330217 0.
0.620037 0.0330252 0.
0.622041 0.0330287 0.
0.624045 0.0330302 0.
0.626048 0.0330316 0.
0.628052 0.0330328 0.
0.630054 0.0330336 0.
0.632057 0.0330345 0.
0.634059 0.0330352 0.
0.63606 0.0330359 0.
0.638062 0.0330366 0.
0.640064 0.0330375 0.
0.642065 0.0330383 0.
0.644067 0.0330392 0.
0.646068 0.0330382 0.
0.648069 0.0330368 0.
0.650071 0.0330355 0.
0.652071 0.0330365 0.
0.654072 0.0330375 0.
0.656072 0.0330382 0.
0.658073 0.0330382 0.
0.660074 0.0330382 0.
0.662075 0.0330383 0.
0.664076 0.0330385 0.
0.666077 0.0330387 0.
0.668078 0.0330384 0.
0.670079 0.033038 0.
0.67208 0.0330376 0.
0.67408 0.0330363 0.
0.67608 0.033035 0.
0.67808 0.0330339 0.
0.680081 0.0330345 0.
0.682081 0.0330352 0.
0.684082 0.0330358 0.
0.686082 0.0330364 0.
0.688083 0.033037 0.
0.690083 0.0330379 0.
0.692083 0.033039 0.
0.694084 0.0330401 0.
0.696083 0.0330425 0.
0.698083 0.0330452 0.
0.499916 0.0350452 0.
0.501917 0.0350432 0.
0.503918 0.0350413 0.
0.505918 0.0350395 0.
0.507919 0.0350379 0.
0.509919 0.0350364 0.
0.51192 0.0350349 0.
0.513921 0.0350335 0.
0.515921 0.0350322 0.
0.517922 0.0350314 0.
0.519923 0.0350309 0.
0.521923 0.0350304 0.
0.523923 0.0350304 0.
0.525923 0.0350305 0.
0.527923 0.0350306 0.
0.529924 0.0350309 0.
0.531925 0.0350311 0.
0.533926 0.0350312 0.
0.535927 0.0350309 0.
0.537928 0.0350306 0.
0.539929 0.0350306 0.
0.54193 0.0350308 0.
0.543931 0.0350311 0.
0.545931 0.0350306 0.
0.547932 0.03503 0.
0.549933 0.0350293 0.
0.551935 0.0350305 0.
0.553936 0.0350318 0.
0.555938 0.0350328 0.
0.557939 0.0350327 0.
0.55994 0.0350327 0.
0.561941 0.0350324 0.
0.563944 0.0350316 0.
0.565946 0.0350308 0.
0.567949 0.0350298 0.
0.569952 0.0350287 0.
0.571954 0.0350276 0.
0.573958 0.0350263 0.
0.575962 0.035025 0.
0.577966 0.0350236 0.
0.579969 0.035021 0.
0.581973 0.0350184 0.
0.583976 0.0350156 0.
0.585978 0.0350123 0.
0.587981 0.035009 0.
0.589984 0.0350061 0.
0.591988 0.0350033 0.
0.593991 0.0350006 0.
0.595994 0.0349989 0.
0.597997 0.0349975 0.
0.6 0.034996 0.
0.602005 0.0349979 0.
0.604009 0.0349998 0.
0.606013 0.0350018 0.
0.608016 0.0350042 0.
0.610019 0.0350066 0.
0.612021 0.0350094 0.
0.614024 0.0350124 0.
0.616027 0.0350155 0.
0.61803 0.0350189 0.
0.620033 0.0350225 0.
0.622036 0.0350261 0.
0.624039 0.0350281 0.
0.626043 0.0350298 0.
0.628046 0.0350313 0.
0.630049 0.035032 0.
0.632051 0.0350327 0.
0.634054 0.0350335 0.
0.636055 0.0350344 0.
0.638057 0.0350354 0.
0.640059 0.0350364 0.
0.64206 0.0350374 0.
0.644061 0.0350385 0.
0.646063 0.0350373 0.
0.648065 0.0350356 0.
0.650067 0.0350339 0.
0.652067 0.0350353 0.
0.654068 0.0350367 0.
0.656068 0.0350378 0.
0.658069 0.0350378 0.
0.66007 0.0350378 0.
0.662071 0.0350379 0.
0.664072 0.0350383 0.
0.666073 0.0350386 0.
0.668074 0.0350384 0.
0.670075 0.0350381 0.
0.672077 0.0350377 0.
0.674077 0.0350367 0.
0.676077 0.0350356 0.
0.678077 0.0350348 0.
0.680078 0.0350356 0.
0.682079 0.0350365 0.
0.684079 0.0350371 0.
0.68608 0.0350375 0.
0.688081 0.0350379 0.
0.690081 0.0350391 0.
0.692081 0.0350408 0.
0.694081 0.0350424 0.
0.69608 0.0350452 0.
0.69808 0.0350482 0.
0.499919 0.0370458 0.
0.50192 0.0370441 0.
0.503921 0.0370424 0.
0.505921 0.0370408 0.
0.507922 0.037039 0.
0.509923 0.0370373 0.
0.511923 0.0370357 0.
0.513923 0.0370345 0.
0.515924 0.0370332 0.
0.517924 0.0370324 0.
0.519925 0.0370317 0.
0.521925 0.037031 0.
0.523926 0.0370309 0.
0.525926 0.0370309 0.
0.527926 0.0370309 0.
0.529927 0.0370309 0.
0.531928 0.0370309 0.
0.533929 0.0370307 0.
0.53593 0.0370302 0.
0.537931 0.0370298 0.
0.539932 0.0370297 0.
0.541933 0.03703 0.
0.543933 0.0370303 0.
0.545934 0.0370299 0.
0.547935 0.0370294 0.
0.549936 0.0370288 0.
0.551937 0.0370297 0.
0.553939 0.0370307 0.
0.55594 0.0370314 0.
0.557942 0.0370313 0.
0.559943 0.0370311 0.
0.561945 0.0370306 0.
0.563947 0.0370297 0.
0.56595 0.0370288 0.
0.567952 0.0370276 0.
0.569955 0.0370264 0.
0.571957 0.0370252 0.
0.573961 0.037024 0.
0.575965 0.0370229 0.
0.577969 0.0370215 0.
0.579972 0.037019 0.
0.581975 0.0370165 0.
0.583978 0.0370138 0.
0.585981 0.0370108 0.
0.587983 0.0370078 0.
0.589986 0.0370052 0.
0.591989 0.0370029 0.
0.593992 0.0370006 0.
0.595995 0.0369992 0.
0.597998 0.036998 0.
0.600001 0.0369968 0.
0.602005 0.0369982 0.
0.604008 0.0369997 0.
0.606011 0.0370014 0.
0.608014 0.0370039 0.
0.610016 0.0370063 0.
0.612019 0.0370089 0.
0.614022 0.0370115 0.
0.616025 0.0370142 0.
0.618028 0.0370174 0.
0.62003 0.037021 0.
0.622033 0.0370245 0.
0.624036 0.0370264 0.
0.62604 0.037028 0.
0.628043 0.0370296 0.
0.630046 0.0370306 0.
0.632048 0.0370316 0.
0.634051 0.0370326 0.
0.636052 0.0370334 0.
0.638054 0.0370342 0.
0.640056 0.0370352 0.
0.642057 0.0370364 0.
0.644059 0.0370375 0.
0.646061 0.0370367 0.
0.648062 0.0370354 0.
0.650064 0.0370341 0.
0.652064 0.0370351 0.
0.654065 0.0370361 0.
0.656066 0.0370369 0.
0.658067 0.0370371 0.
0.660068 0.0370372 0.
0.662069 0.0370375 0.
0.66407 0.037038 0.
0.666071 0.0370386 0.
0.668072 0.0370385 0.
0.670073 0.0370383 0.
0.672074 0.0370381 0.
0.674074 0.0370371 0.
0.676074 0.037036 0.
0.678075 0.0370352 0.
0.680075 0.0370357 0.
0.682076 0.0370363 0.
0.684076 0.037037 0.
0.686077 0.0370381 0.
0.688078 0.0370392 0.
0.690078 0.0370406 0.
0.692079 0.0370422 0.
0.694079 0.0370439 0.
0.696079 0.0370463 0.
0.698078 0.0370488 0.
0.499923 0.0390463 0.
0.501923 0.039045 0.
0.503924 0.0390435 0.
0.505925 0.039042 0.
0.507925 0.0390401 0.
0.509926 0.0390382 0.
0.511926 0.0390366 0.
0.513926 0.0390354 0.
0.515926 0.0390343 0.
0.517927 0.0390333 0.
0.519927 0.0390325 0.
0.521927 0.0390316 0.
0.523928 0.0390314 0.
0.525929 0.0390313 0.
0.52793 0.0390312 0.
0.52993 0.0390309 0.
0.531931 0.0390306 0.
0.533932 0.0390302 0.
0.535933 0.0390296 0.
0.537934 0.0390289 0.
0.539935 0.0390288 0.
0.541935 0.0390292 0.
0.543936 0.0390295 0.
0.545937 0.0390293 0.
0.547938 0.0390288 0.
0.549938 0.0390282 0.
0.55194 0.0390289 0.
0.553941 0.0390296 0.
0.555943 0.0390301 0.
0.557944 0.0390298 0.
0.559946 0.0390295 0.
0.561948 0.0390289 0.
0.563951 0.0390278 0.
0.565953 0.0390268 0.
0.567956 0.0390255 0.
0.569958 0.0390242 0.
0.571961 0.0390228 0.
0.573964 0.0390218 0.
0.575968 0.0390207 0.
0.577972 0.0390195 0.
0.579975 0.039017 0.
0.581977 0.0390146 0.
0.58398 0.0390121 0.
0.585983 0.0390093 0.
0.587985 0.0390066 0.
0.589988 0.0390044 0.
0.591991 0.0390025 0.
0.593993 0.0390007 0.
0.595996 0.0389995 0.
0.597999 0.0389985 0.
0.600002 0.0389974 0.
0.602004 0.0389985 0.
0.604006 0.0389996 0.
0.606009 0.039001 0.
0.608011 0.0390035 0.
0.610014 0.0390061 0.
0.612017 0.0390084 0.
0.61402 0.0390106 0.
0.616023 0.0390128 0.
0.618026 0.0390159 0.
0.620028 0.0390194 0.
0.62203 0.0390228 0.
0.624034 0.0390246 0.
0.626037 0.0390262 0.
0.628041 0.0390278 0.
0.630043 0.0390292 0.
0.632046 0.0390305 0.
0.634048 0.0390317 0.
0.63605 0.0390323 0.
0.638051 0.039033 0.
0.640053 0.039034 0.
0.642055 0.0390353 0.
0.644057 0.0390366 0.
0.646058 0.0390361 0.
0.648059 0.0390352 0.
0.650061 0.0390342 0.
0.652062 0.0390349 0.
0.654063 0.0390355 0.
0.656064 0.0390361 0.
0.658065 0.0390363 0.
0.660066 0.0390366 0.
0.662067 0.0390371 0.
0.664067 0.0390378 0.
0.666068 0.0390385 0.
0.668069 0.0390387 0.
0.67007 0.0390386 0.
0.672071 0.0390385 0.
0.674071 0.0390375 0.
0.676072 0.0390364 0.
0.678072 0.0390356 0.
0.680073 0.0390358 0.
0.682073 0.0390361 0.
0.684074 0.0390369 0.
0.686074 0.0390387 0.
0.688075 0.0390406 0.
0.690076 0.0390422 0.
0.692077 0.0390437 0.
0.694077 0.0390453 0.
0.696077 0.0390473 0.
0.698077 0.0390495 0.
0.499926 0.0410476 0.
0.501927 0.0410461 0.
0.503927 0.0410446 0.
0.505928 0.041043 0.
0.507929 0.0410412 0.
0.509929 0.0410393 0.
0.511929 0.0410377 0.
0.513929 0.0410362 0.
0.515929 0.0410348 0.
0.51793 0.0410337 0.
0.51993 0.0410329 0.
0.52193 0.0410321 0.
0.523931 0.0410318 0.
0.525932 0.0410315 0.
0.527933 0.0410313 0.
0.529934 0.0410309 0.
0.531935 0.0410305 0.
0.533935 0.04103 0.
0.535936 0.0410291 0.
0.537937 0.0410282 0.
0.539938 0.0410281 0.
0.541938 0.0410285 0.
0.543939 0.0410289 0.
0.54594 0.0410287 0.
0.547941 0.0410283 0.
0.549941 0.0410279 0.
0.551943 0.0410282 0.
0.553944 0.0410287 0.
0.555946 0.0410288 0.
0.557948 0.0410282 0.
0.559949 0.0410277 0.
0.561952 0.0410269 0.
0.563954 0.0410258 0.
0.565956 0.0410248 0.
0.567959 0.0410235 0.
0.569961 0.041022 0.
0.571964 0.0410206 0.
0.573967 0.0410196 0.
0.575971 0.0410187 0.
0.577974 0.0410176 0.
0.579977 0.0410152 0.
0.581979 0.0410128 0.
0.583982 0.0410105 0.
0.585984 0.041008 0.
0.587987 0.0410056 0.
0.589989 0.0410036 0.
0.591992 0.0410019 0.
0.593994 0.0410002 0.
0.595996 0.0409994 0.
0.597999 0.0409988 0.
0.600002 0.0409982 0.
0.602004 0.0409989 0.
0.604006 0.0409996 0.
0.606008 0.0410006 0.
0.60801 0.0410029 0.
0.610012 0.0410051 0.
0.612015 0.0410073 0.
0.614018 0.0410094 0.
0.616021 0.0410116 0.
0.618024 0.0410145 0.
0.620026 0.0410179 0.
0.622028 0.0410212 0.
0.624031 0.0410229 0.
0.626034 0.0410243 0.
0.628038 0.0410259 0.
0.63004 0.0410276 0.
0.632043 0.0410292 0.
0.634045 0.0410306 0.
0.636046 0.0410311 0.
0.638048 0.0410317 0.
0.64005 0.0410327 0.
0.642052 0.041034 0.
0.644054 0.0410353 0.
0.646055 0.0410351 0.
0.648056 0.0410344 0.
0.650058 0.0410338 0.
0.652059 0.0410342 0.
0.65406 0.0410347 0.
0.656061 0.0410351 0.
0.658062 0.0410355 0.
0.660063 0.041036 0.
0.662064 0.0410367 0.
0.664065 0.0410376 0.
0.666065 0.0410385 0.
0.668066 0.0410387 0.
0.670067 0.0410387 0.
0.672068 0.0410386 0.
0.674068 0.0410378 0.
0.676069 0.0410368 0.
0.678069 0.041036 0.
0.68007 0.0410363 0.
0.68207 0.0410365 0.
0.684071 0.0410375 0.
0.686071 0.0410395 0.
0.688072 0.0410416 0.
0.690073 0.0410434 0.
0.692074 0.041045 0.
0.694074 0.0410465 0.
0.696074 0.0410487 0.
0.698074 0.041051 0.
0.49993 0.0430494 0.
0.501931 0.0430475 0.
0.503931 0.0430457 0.
0.505932 0.0430439 0.
0.507932 0.0430423 0.
0.509932 0.0430408 0.
0.511932 0.043039 0.
0.513933 0.0430369 0.
0.515933 0.0430347 0.
0.517933 0.0430336 0.
0.519934 0.043033 0.
0.521934 0.0430324 0.
0.523935 0.043032 0.
0.525936 0.0430316 0.
0.527938 0.0430312 0.
0.529938 0.0430309 0.
0.531938 0.0430305 0.
0.533939 0.0430299 0.
0.535939 0.0430288 0.
0.53794 0.0430277 0.
0.53994 0.0430275 0.
0.541941 0.0430279 0.
0.543942 0.0430284 0.
0.545943 0.0430283 0.
0.547944 0.0430279 0.
0.549945 0.0430276 0.
0.551946 0.0430277 0.
0.553948 0.0430278 0.
0.555949 0.0430276 0.
0.557951 0.0430266 0.
0.559953 0.0430256 0.
0.561955 0.0430246 0.
0.563957 0.0430237 0.
0.565959 0.0430229 0.
0.567961 0.0430216 0.
0.569964 0.04302 0.
0.571966 0.0430185 0.
0.573969 0.0430176 0.
0.575973 0.0430167 0.
0.577976 0.0430158 0.
0.579978 0.0430135 0.
0.581981 0.0430113 0.
0.583983 0.0430091 0.
0.585985 0.0430069 0.
0.587988 0.0430047 0.
0.58999 0.0430028 0.
0.591991 0.0430011 0.
0.593993 0.0429993 0.
0.595996 0.0429989 0.
0.597998 0.042999 0.
0.600001 0.042999 0.
0.602004 0.0429993 0.
0.604006 0.0429996 0.
0.606008 0.0430002 0.
0.60801 0.0430019 0.
0.610011 0.0430036 0.
0.612014 0.0430056 0.
0.614017 0.043008 0.
0.61602 0.0430105 0.
0.618022 0.0430134 0.
0.620024 0.0430165 0.
0.622026 0.0430196 0.
0.624029 0.0430211 0.
0.626031 0.0430224 0.
0.628034 0.0430238 0.
0.630037 0.0430258 0.
0.632039 0.0430277 0.
0.634042 0.0430292 0.
0.636043 0.0430297 0.
0.638045 0.0430302 0.
0.640047 0.0430312 0.
0.642048 0.0430323 0.
0.64405 0.0430335 0.
0.646051 0.0430335 0.
0.648053 0.0430332 0.
0.650055 0.0430329 0.
0.652055 0.0430332 0.
0.654056 0.0430335 0.
0.656057 0.0430339 0.
0.658058 0.0430347 0.
0.660059 0.0430354 0.
0.66206 0.0430363 0.
0.664061 0.0430374 0.
0.666062 0.0430384 0.
0.668063 0.0430386 0.
0.670064 0.0430385 0.
0.672064 0.0430384 0.
0.674065 0.0430378 0.
0.676065 0.0430371 0.
0.678066 0.0430366 0.
0.680067 0.0430371 0.
0.682067 0.0430376 0.
0.684068 0.0430386 0.
0.686068 0.0430405 0.
0.688069 0.0430424 0.
0.690069 0.0430442 0.
0.69207 0.043046 0.
0.69407 0.0430477 0.
0.69607 0.0430504 0.
0.69807 0.0430534 0.
0.499933 0.0450513 0.
0.501934 0.0450489 0.
0.503935 0.0450467 0.
0.505935 0.0450447 0.
0.507935 0.0450435 0.
0.509935 0.0450422 0.
0.511935 0.0450403 0.
0.513936 0.0450375 0.
0.515936 0.0450347 0.
0.517937 0.0450334 0.
0.519938 0.0450331 0.
0.521938 0.0450328 0.
0.523939 0.0450323 0.
0.525941 0.0450317 0.
0.527942 0.0450312 0.
0.529942 0.0450308 0.
0.531942 0.0450305 0.
0.533942 0.0450298 0.
0.535942 0.0450285 0.
0.537943 0.0450272 0.
0.539943 0.0450269 0.
0.541944 0.0450274 0.
0.543945 0.0450279 0.
0.545946 0.0450278 0.
0.547948 0.0450276 0.
0.549949 0.0450273 0.
0.55195 0.0450271 0.
0.553951 0.0450269 0.
0.555952 0.0450264 0.
0.557954 0.045025 0.
0.559956 0.0450235 0.
0.561958 0.0450224 0.
0.56396 0.0450217 0.
0.565961 0.045021 0.
0.567964 0.0450196 0.
0.569966 0.045018 0.
0.571969 0.0450163 0.
0.573972 0.0450155 0.
0.575975 0.0450148 0.
0.577978 0.045014 0.
0.57998 0.0450119 0.
0.581982 0.0450097 0.
0.583984 0.0450076 0.
0.585986 0.0450058 0.
0.587989 0.0450039 0.
0.58999 0.0450021 0.
0.591991 0.0450003 0.
0.593993 0.0449984 0.
0.595995 0.0449985 0.
0.597998 0.0449992 0.
0.6 0.0449998 0.
0.602003 0.0449997 0.
0.604006 0.0449996 0.
0.606008 0.0449998 0.
0.608009 0.0450009 0.
0.61001 0.045002 0.
0.612012 0.0450038 0.
0.614015 0.0450066 0.
0.616018 0.0450093 0.
0.61802 0.0450122 0.
0.620022 0.0450151 0.
0.622024 0.0450179 0.
0.624026 0.0450193 0.
0.626028 0.0450204 0.
0.628031 0.0450217 0.
0.630033 0.045024 0.
0.632036 0.0450262 0.
0.634039 0.0450278 0.
0.63604 0.0450283 0.
0.638042 0.0450288 0.
0.640043 0.0450297 0.
0.642044 0.0450307 0.
0.644045 0.0450318 0.
0.646047 0.045032 0.
0.648049 0.045032 0.
0.650052 0.045032 0.
0.652052 0.0450322 0.
0.654053 0.0450324 0.
0.656053 0.0450328 0.
0.658054 0.0450338 0.
0.660055 0.0450348 0.
0.662056 0.0450359 0.
0.664058 0.0450371 0.
0.666059 0.0450383 0.
0.66806 0.0450386 0.
0.67006 0.0450384 0.
0.672061 0.0450382 0.
0.674061 0.0450378 0.
0.676062 0.0450374 0.
0.678063 0.0450372 0.
0.680064 0.0450379 0.
0.682064 0.0450387 0.
0.684064 0.0450398 0.
0.686065 0.0450415 0.
0.688066 0.0450432 0.
0.690066 0.045045 0.
0.692066 0.0450469 0.
0.694066 0.0450489 0.
0.696066 0.0450522 0.
0.698066 0.0450558 0.
0.499937 0.0470516 0.
0.501937 0.0470494 0.
0.503937 0.0470473 0.
0.505937 0.0470454 0.
0.507937 0.047044 0.
0.509938 0.0470427 0.
0.511938 0.0470406 0.
0.513939 0.0470377 0.
0.51594 0.0470349 0.
0.51794 0.0470335 0.
0.519941 0.047033 0.
0.521941 0.0470324 0.
0.523942 0.047032 0.
0.525943 0.0470315 0.
0.527944 0.0470311 0.
0.529944 0.0470306 0.
0.531945 0.0470301 0.
0.533945 0.0470294 0.
0.535945 0.0470284 0.
0.537946 0.0470275 0.
0.539946 0.047027 0.
0.541947 0.047027 0.
0.543948 0.047027 0.
0.545949 0.0470267 0.
0.547951 0.0470263 0.
0.549952 0.0470259 0.
0.551953 0.0470259 0.
0.553954 0.0470258 0.
0.555955 0.0470255 0.
0.557957 0.0470239 0.
0.559959 0.0470223 0.
0.561961 0.0470211 0.
0.563963 0.0470204 0.
0.565964 0.0470196 0.
0.567966 0.0470184 0.
0.569969 0.047017 0.
0.571971 0.0470156 0.
0.573974 0.0470143 0.
0.575976 0.0470131 0.
0.577979 0.0470118 0.
0.579981 0.0470099 0.
0.581983 0.0470081 0.
0.583985 0.0470064 0.
0.585987 0.0470051 0.
0.587989 0.0470038 0.
0.589991 0.0470025 0.
0.591992 0.047001 0.
0.593993 0.0469996 0.
0.595995 0.0469991 0.
0.597997 0.0469989 0.
0.6 0.0469987 0.
0.602003 0.046999 0.
0.604006 0.0469994 0.
0.606008 0.047 0.
0.608009 0.0470012 0.
0.61001 0.0470025 0.
0.612012 0.0470042 0.
0.614014 0.0470066 0.
0.616016 0.047009 0.
0.618018 0.0470116 0.
0.62002 0.0470142 0.
0.622022 0.0470167 0.
0.624024 0.0470182 0.
0.626026 0.0470194 0.
0.628029 0.0470208 0.
0.630031 0.0470227 0.
0.632034 0.0470245 0.
0.634036 0.047026 0.
0.636038 0.0470268 0.
0.638039 0.0470275 0.
0.640041 0.0470286 0.
0.642042 0.0470297 0.
0.644044 0.0470309 0.
0.646045 0.0470311 0.
0.648047 0.0470311 0.
0.650048 0.047031 0.
0.652049 0.0470315 0.
0.654049 0.0470319 0.
0.65605 0.0470324 0.
0.658051 0.0470333 0.
0.660052 0.0470341 0.
0.662053 0.047035 0.
0.664055 0.047036 0.
0.666056 0.0470369 0.
0.668057 0.0470375 0.
0.670058 0.0470378 0.
0.672059 0.0470382 0.
0.674059 0.0470382 0.
0.67606 0.0470381 0.
0.67806 0.0470382 0.
0.68006 0.0470389 0.
0.682061 0.0470397 0.
0.684061 0.0470407 0.
0.686062 0.0470421 0.
0.688062 0.0470435 0.
0.690062 0.0470454 0.
0.692063 0.0470478 0.
0.694063 0.0470501 0.
0.696063 0.0470534 0.
0.698064 0.0470569 0.
0.49994 0.049052 0.
0.501939 0.0490499 0.
0.503939 0.049048 0.
0.505939 0.0490461 0.
0.50794 0.0490446 0.
0.50994 0.0490431 0.
0.511941 0.0490409 0.
0.513942 0.049038 0.
0.515943 0.049035 0.
0.517943 0.0490335 0.
0.519944 0.0490328 0.
0.521944 0.0490321 0.
0.523945 0.0490317 0.
0.525946 0.0490313 0.
0.527947 0.049031 0.
0.529947 0.0490303 0.
0.531947 0.0490297 0.
0.533948 0.049029 0.
0.535948 0.0490284 0.
0.537949 0.0490277 0.
0.539949 0.0490272 0.
0.54195 0.0490266 0.
0.543951 0.049026 0.
0.545953 0.0490255 0.
0.547954 0.0490251 0.
0.549955 0.0490246 0.
0.551956 0.0490247 0.
0.553957 0.0490248 0.
0.555958 0.0490245 0.
0.55796 0.0490229 0.
0.559962 0.0490212 0.
0.561964 0.0490198 0.
0.563965 0.049019 0.
0.565967 0.0490182 0.
0.567969 0.0490172 0.
0.569971 0.049016 0.
0.571973 0.0490148 0.
0.573975 0.0490131 0.
0.575978 0.0490114 0.
0.57798 0.0490096 0.
0.579982 0.049008 0.
0.581984 0.0490065 0.
0.583986 0.0490052 0.
0.585988 0.0490045 0.
0.58799 0.0490037 0.
0.589992 0.0490029 0.
0.591992 0.0490018 0.
0.593993 0.0490008 0.
0.595995 0.0489997 0.
0.597997 0.0489986 0.
0.599999 0.0489976 0.
0.602003 0.0489984 0.
0.604006 0.0489992 0.
0.606009 0.0490001 0.
0.60801 0.0490015 0.
0.61001 0.0490029 0.
0.612012 0.0490046 0.
0.614013 0.0490067 0.
0.616015 0.0490087 0.
0.618016 0.049011 0.
0.620019 0.0490133 0.
0.622021 0.0490156 0.
0.624023 0.049017 0.
0.626025 0.0490184 0.
0.628027 0.0490198 0.
0.630029 0.0490214 0.
0.632031 0.0490229 0.
0.634033 0.0490242 0.
0.636035 0.0490252 0.
0.638037 0.0490263 0.
0.640039 0.0490275 0.
0.64204 0.0490288 0.
0.644042 0.0490301 0.
0.646043 0.0490302 0.
0.648044 0.0490301 0.
0.650045 0.04903 0.
0.652046 0.0490307 0.
0.654046 0.0490314 0.
0.656047 0.0490321 0.
0.658048 0.0490327 0.
0.660049 0.0490334 0.
0.66205 0.0490341 0.
0.664052 0.0490348 0.
0.666053 0.0490355 0.
0.668054 0.0490364 0.
0.670055 0.0490373 0.
0.672056 0.0490382 0.
0.674057 0.0490386 0.
0.676057 0.0490389 0.
0.678057 0.0490392 0.
0.680057 0.0490399 0.
0.682058 0.0490407 0.
0.684058 0.0490415 0.
0.686058 0.0490426 0.
0.688059 0.0490438 0.
0.690059 0.0490458 0.
0.69206 0.0490486 0.
0.69406 0.0490513 0.
0.696061 0.0490546 0.
0.698061 0.0490579 0.
0.499943 0.0510528 0.
0.501942 0.0510505 0.
0.503941 0.0510485 0.
0.505941 0.0510466 0.
0.507942 0.0510449 0.
0.509943 0.0510432 0.
0.511944 0.051041 0.
0.513945 0.0510382 0.
0.515945 0.0510355 0.
0.517946 0.051034 0.
0.519947 0.0510331 0.
0.521947 0.0510322 0.
0.523948 0.0510318 0.
0.525949 0.0510315 0.
0.527949 0.0510312 0.
0.52995 0.0510302 0.
0.53195 0.0510293 0.
0.53395 0.0510285 0.
0.535951 0.0510281 0.
0.537952 0.0510276 0.
0.539952 0.051027 0.
0.541953 0.0510262 0.
0.543954 0.0510254 0.
0.545955 0.0510248 0.
0.547956 0.0510244 0.
0.549957 0.0510239 0.
0.551959 0.0510237 0.
0.55396 0.0510235 0.
0.555961 0.051023 0.
0.557963 0.0510216 0.
0.559964 0.0510202 0.
0.561966 0.0510189 0.
0.563968 0.0510179 0.
0.565969 0.0510169 0.
0.567971 0.0510158 0.
0.569973 0.0510148 0.
0.571975 0.0510138 0.
0.573977 0.051012 0.
0.575979 0.05101 0.
0.577982 0.0510081 0.
0.579984 0.0510067 0.
0.581985 0.0510054 0.
0.583987 0.0510043 0.
0.585989 0.051004 0.
0.587991 0.0510037 0.
0.589992 0.051003 0.
0.591993 0.051002 0.
0.593993 0.0510011 0.
0.595995 0.0509998 0.
0.597997 0.0509985 0.
0.599999 0.0509971 0.
0.602002 0.0509982 0.
0.604006 0.0509992 0.
0.606008 0.0510004 0.
0.608009 0.0510017 0.
0.61001 0.0510031 0.
0.612011 0.0510047 0.
0.614012 0.0510066 0.
0.616014 0.0510085 0.
0.618015 0.0510105 0.
0.620017 0.0510125 0.
0.622019 0.0510145 0.
0.624021 0.0510161 0.
0.626023 0.0510176 0.
0.628025 0.0510191 0.
0.630027 0.0510203 0.
0.632029 0.0510216 0.
0.634031 0.0510228 0.
0.636033 0.0510242 0.
0.638034 0.0510255 0.
0.640036 0.0510268 0.
0.642038 0.0510279 0.
0.644039 0.0510291 0.
0.64604 0.0510293 0.
0.648041 0.0510292 0.
0.650042 0.0510292 0.
0.652043 0.0510299 0.
0.654043 0.0510306 0.
0.656044 0.0510313 0.
0.658045 0.0510319 0.
0.660046 0.0510326 0.
0.662047 0.0510332 0.
0.664049 0.051034 0.
0.66605 0.0510347 0.
0.668051 0.0510357 0.
0.670052 0.0510369 0.
0.672053 0.0510381 0.
0.674054 0.0510387 0.
0.676054 0.0510392 0.
0.678054 0.0510397 0.
0.680054 0.0510406 0.
0.682054 0.0510415 0.
0.684055 0.0510424 0.
0.686055 0.0510434 0.
0.688055 0.0510444 0.
0.690056 0.0510466 0.
0.692056 0.0510495 0.
0.694057 0.0510525 0.
0.696057 0.0510557 0.
0.698058 0.0510589 0.
0.499945 0.0530539 0.
0.501945 0.0530512 0.
0.503945 0.0530489 0.
0.505945 0.0530467 0.
0.507945 0.0530449 0.
0.509945 0.053043 0.
0.511946 0.0530409 0.
0.513947 0.0530385 0.
0.515948 0.0530361 0.
0.517948 0.0530347 0.
0.519949 0.0530337 0.
0.52195 0.0530328 0.
0.52395 0.0530324 0.
0.525952 0.0530321 0.
0.527952 0.0530317 0.
0.529952 0.0530303 0.
0.531952 0.0530289 0.
0.533953 0.0530279 0.
0.535954 0.0530275 0.
0.537955 0.0530272 0.
0.539956 0.0530266 0.
0.541956 0.0530258 0.
0.543957 0.053025 0.
0.545958 0.0530245 0.
0.547959 0.0530242 0.
0.549959 0.0530239 0.
0.551961 0.053023 0.
0.553963 0.053022 0.
0.555964 0.053021 0.
0.557965 0.0530202 0.
0.559966 0.0530194 0.
0.561968 0.0530183 0.
0.563969 0.0530169 0.
0.565971 0.0530156 0.
0.567972 0.0530144 0.
0.569974 0.0530135 0.
0.571976 0.0530126 0.
0.573978 0.0530109 0.
0.575981 0.0530091 0.
0.577983 0.0530074 0.
0.579984 0.053006 0.
0.581986 0.0530047 0.
0.583987 0.0530038 0.
0.585989 0.0530037 0.
0.58799 0.0530036 0.
0.589991 0.0530029 0.
0.591993 0.0530017 0.
0.593994 0.0530005 0.
0.595996 0.0529994 0.
0.597998 0.0529983 0.
0.6 0.0529972 0.
0.602002 0.0529984 0.
0.604005 0.0529996 0.
0.606007 0.0530008 0.
0.608008 0.0530019 0.
0.610009 0.053003 0.
0.61201 0.0530045 0.
0.614012 0.0530064 0.
0.616013 0.0530083 0.
0.618015 0.0530101 0.
0.620016 0.0530118 0.
0.622018 0.0530135 0.
0.62402 0.0530152 0.
0.626022 0.0530169 0.
0.628024 0.0530185 0.
0.630025 0.0530196 0.
0.632027 0.0530206 0.
0.634028 0.0530219 0.
0.63603 0.0530236 0.
0.638032 0.0530254 0.
0.640033 0.0530265 0.
0.642034 0.0530272 0.
0.644036 0.0530279 0.
0.646037 0.0530282 0.
0.648038 0.0530284 0.
0.650039 0.0530286 0.
0.65204 0.0530291 0.
0.654041 0.0530296 0.
0.656041 0.0530301 0.
0.658042 0.0530309 0.
0.660044 0.0530316 0.
0.662045 0.0530325 0.
0.664045 0.0530334 0.
0.666046 0.0530344 0.
0.668047 0.0530355 0.
0.670049 0.0530366 0.
0.67205 0.0530378 0.
0.67405 0.0530385 0.
0.67605 0.0530391 0.
0.67805 0.0530397 0.
0.680051 0.0530409 0.
0.682051 0.0530421 0.
0.684052 0.0530432 0.
0.686052 0.0530443 0.
0.688052 0.0530455 0.
0.690052 0.0530476 0.
0.692053 0.0530506 0.
0.694053 0.0530535 0.
0.696053 0.0530566 0.
0.698054 0.0530597 0.
0.499947 0.0550549 0.
0.501948 0.0550519 0.
0.503948 0.0550493 0.
0.505948 0.0550469 0.
0.507948 0.0550449 0.
0.509948 0.0550429 0.
0.511948 0.0550408 0.
0.513949 0.0550388 0.
0.51595 0.0550368 0.
0.517951 0.0550354 0.
0.519951 0.0550344 0.
0.521952 0.0550334 0.
0.523953 0.055033 0.
0.525954 0.0550326 0.
0.527955 0.0550322 0.
0.529955 0.0550304 0.
0.531955 0.0550285 0.
0.533955 0.0550272 0.
0.535956 0.055027 0.
0.537958 0.0550268 0.
0.539959 0.0550262 0.
0.541959 0.0550254 0.
0.54396 0.0550246 0.
0.54596 0.0550243 0.
0.547961 0.0550241 0.
0.549961 0.0550239 0.
0.551963 0.0550222 0.
0.553965 0.0550205 0.
0.555967 0.055019 0.
0.557968 0.0550188 0.
0.559968 0.0550186 0.
0.561969 0.0550177 0.
0.563971 0.055016 0.
0.565972 0.0550142 0.
0.567974 0.0550131 0.
0.569976 0.0550122 0.
0.571977 0.0550113 0.
0.57398 0.0550098 0.
0.575982 0.0550081 0.
0.577984 0.0550066 0.
0.579985 0.0550053 0.
0.581986 0.0550041 0.
0.583987 0.0550033 0.
0.585988 0.0550034 0.
0.58799 0.0550035 0.
0.589991 0.0550028 0.
0.591993 0.0550014 0.
0.593994 0.055 0.
0.595996 0.054999 0.
0.597998 0.0549981 0.
0.600001 0.0549972 0.
0.602002 0.0549986 0.
0.604004 0.055 0.
0.606006 0.0550013 0.
0.608007 0.0550021 0.
0.610008 0.0550029 0.
0.61201 0.0550042 0.
0.614011 0.0550062 0.
0.616013 0.0550082 0.
0.618014 0.0550098 0.
0.620015 0.0550112 0.
0.622016 0.0550126 0.
0.624019 0.0550144 0.
0.626021 0.0550162 0.
0.628023 0.0550179 0.
0.630024 0.0550188 0.
0.632024 0.0550197 0.
0.634025 0.055021 0.
0.636027 0.0550231 0.
0.638029 0.0550252 0.
0.64003 0.0550262 0.
0.642031 0.0550265 0.
0.644032 0.0550268 0.
0.646034 0.0550271 0.
0.648035 0.0550275 0.
0.650036 0.0550279 0.
0.652037 0.0550282 0.
0.654038 0.0550286 0.
0.656039 0.055029 0.
0.65804 0.0550299 0.
0.660041 0.0550307 0.
0.662042 0.0550317 0.
0.664042 0.0550329 0.
0.666043 0.0550341 0.
0.668044 0.0550353 0.
0.670045 0.0550364 0.
0.672046 0.0550375 0.
0.674046 0.0550383 0.
0.676046 0.055039 0.
0.678047 0.0550398 0.
0.680047 0.0550412 0.
0.682048 0.0550427 0.
0.684048 0.0550441 0.
0.686048 0.0550453 0.
0.688048 0.0550465 0.
0.690048 0.0550487 0.
0.692049 0.0550516 0.
0.694049 0.0550546 0.
0.69605 0.0550575 0.
0.69805 0.0550605 0.
0.49995 0.0570555 0.
0.501951 0.0570525 0.
0.503951 0.0570497 0.
0.505951 0.057047 0.
0.507951 0.0570449 0.
0.509951 0.0570428 0.
0.511952 0.0570408 0.
0.513952 0.0570388 0.
0.515953 0.0570368 0.
0.517953 0.0570354 0.
0.519954 0.0570342 0.
0.521955 0.057033 0.
0.523956 0.0570326 0.
0.525957 0.0570323 0.
0.527958 0.0570319 0.
0.529958 0.0570302 0.
0.531958 0.0570285 0.
0.533958 0.0570273 0.
0.535959 0.0570271 0.
0.53796 0.0570269 0.
0.539961 0.0570263 0.
0.541962 0.0570253 0.
0.543962 0.0570243 0.
0.545963 0.0570235 0.
0.547964 0.0570228 0.
0.549964 0.0570221 0.
0.551966 0.0570209 0.
0.553968 0.0570197 0.
0.55597 0.0570185 0.
0.557971 0.0570178 0.
0.559972 0.057017 0.
0.561972 0.057016 0.
0.563973 0.0570146 0.
0.565974 0.0570132 0.
0.567976 0.0570121 0.
0.569977 0.057011 0.
0.571979 0.05701 0.
0.573981 0.0570087 0.
0.575983 0.0570074 0.
0.577985 0.0570061 0.
0.579985 0.0570049 0.
0.581986 0.0570037 0.
0.583987 0.0570028 0.
0.585989 0.0570027 0.
0.58799 0.0570026 0.
0.589991 0.057002 0.
0.591992 0.0570009 0.
0.593994 0.0569998 0.
0.595996 0.0569987 0.
0.597998 0.0569977 0.
0.6 0.0569966 0.
0.602002 0.056998 0.
0.604004 0.0569994 0.
0.606005 0.0570006 0.
0.608007 0.0570013 0.
0.610008 0.057002 0.
0.612009 0.0570032 0.
0.614011 0.0570052 0.
0.616012 0.0570072 0.
0.618014 0.0570087 0.
0.620015 0.0570098 0.
0.622017 0.057011 0.
0.624019 0.0570131 0.
0.626021 0.0570154 0.
0.628022 0.0570175 0.
0.630023 0.0570186 0.
0.632023 0.0570197 0.
0.634024 0.0570211 0.
0.636026 0.0570229 0.
0.638027 0.0570247 0.
0.640028 0.0570256 0.
0.642029 0.0570257 0.
0.644031 0.0570259 0.
0.646032 0.0570264 0.
0.648033 0.0570271 0.
0.650035 0.0570277 0.
0.652036 0.0570282 0.
0.654036 0.0570287 0.
0.656037 0.0570292 0.
0.658038 0.0570299 0.
0.660039 0.0570306 0.
0.662039 0.0570316 0.
0.66404 0.0570329 0.
0.66604 0.0570343 0.
0.668041 0.0570353 0.
0.670042 0.057036 0.
0.672043 0.0570368 0.
0.674043 0.0570379 0.
0.676044 0.0570391 0.
0.678044 0.0570403 0.
0.680045 0.0570416 0.
0.682045 0.0570429 0.
0.684045 0.0570444 0.
0.686046 0.0570459 0.
0.688046 0.0570474 0.
0.690046 0.0570496 0.
0.692046 0.0570522 0.
0.694047 0.0570548 0.
0.696047 0.0570578 0.
0.698048 0.0570608 0.
0.499953 0.059056 0.
0.501953 0.059053 0.
0.503954 0.05905 0.
0.505954 0.0590472 0.
0.507954 0.059045 0.
0.509955 0.0590428 0.
0.511955 0.0590408 0.
0.513955 0.0590388 0.
0.515956 0.0590369 0.
0.517956 0.0590354 0.
0.519957 0.059034 0.
0.521958 0.0590327 0.
0.523959 0.0590323 0.
0.525959 0.059032 0.
0.52796 0.0590315 0.
0.529961 0.05903 0.
0.531961 0.0590284 0.
0.533962 0.0590273 0.
0.535962 0.0590272 0.
0.537962 0.059027 0.
0.539963 0.0590263 0.
0.541964 0.0590251 0.
0.543965 0.059024 0.
0.545966 0.0590228 0.
0.547967 0.0590215 0.
0.549967 0.0590203 0.
0.551969 0.0590196 0.
0.553971 0.0590188 0.
0.555972 0.059018 0.
0.557974 0.0590167 0.
0.559975 0.0590155 0.
0.561976 0.0590143 0.
0.563976 0.0590133 0.
0.565977 0.0590122 0.
0.567978 0.059011 0.
0.569979 0.0590098 0.
0.57198 0.0590086 0.
0.573981 0.0590075 0.
0.575983 0.0590066 0.
0.577985 0.0590055 0.
0.579986 0.0590044 0.
0.581987 0.0590032 0.
0.583988 0.0590024 0.
0.585989 0.0590021 0.
0.58799 0.0590018 0.
0.589991 0.0590012 0.
0.591992 0.0590004 0.
0.593993 0.0589996 0.
0.595995 0.0589985 0.
0.597998 0.0589973 0.
0.6 0.058996 0.
0.602002 0.0589974 0.
0.604003 0.0589988 0.
0.606005 0.059 0.
0.608006 0.0590005 0.
0.610008 0.0590011 0.
0.612009 0.0590023 0.
0.61401 0.0590043 0.
0.616012 0.0590063 0.
0.618013 0.0590076 0.
0.620015 0.0590085 0.
0.622017 0.0590094 0.
0.624018 0.0590119 0.
0.62602 0.0590146 0.
0.628021 0.0590172 0.
0.630022 0.0590185 0.
0.632023 0.0590198 0.
0.634023 0.0590211 0.
0.636024 0.0590227 0.
0.638025 0.0590242 0.
0.640026 0.0590249 0.
0.642028 0.0590249 0.
0.644029 0.0590249 0.
0.64603 0.0590257 0.
0.648032 0.0590266 0.
0.650033 0.0590276 0.
0.652034 0.0590282 0.
0.654035 0.0590289 0.
0.656036 0.0590295 0.
0.658036 0.05903 0.
0.660036 0.0590306 0.
0.662037 0.0590315 0.
0.664037 0.059033 0.
0.666038 0.0590345 0.
0.668038 0.0590352 0.
0.670039 0.0590357 0.
0.67204 0.0590361 0.
0.67404 0.0590376 0.
0.676041 0.0590392 0.
0.678042 0.0590407 0.
0.680042 0.0590419 0.
0.682042 0.0590432 0.
0.684042 0.0590447 0.
0.686043 0.0590465 0.
0.688043 0.0590484 0.
0.690044 0.0590505 0.
0.692044 0.0590527 0.
0.694044 0.059055 0.
0.696045 0.059058 0.
0.698045 0.0590611 0.
0.499955 0.0610561 0.
0.501956 0.0610533 0.
0.503957 0.0610504 0.
0.505957 0.0610477 0.
0.507957 0.0610454 0.
0.509958 0.0610432 0.
0.511958 0.061041 0.
0.513958 0.0610391 0.
0.515959 0.0610371 0.
0.517959 0.0610355 0.
0.51996 0.061034 0.
0.521961 0.0610325 0.
0.523961 0.061032 0.
0.525962 0.0610316 0.
0.527962 0.0610311 0.
0.529963 0.0610298 0.
0.531964 0.0610284 0.
0.533964 0.0610274 0.
0.535965 0.0610271 0.
0.537965 0.0610268 0.
0.539965 0.061026 0.
0.541966 0.0610248 0.
0.543967 0.0610236 0.
0.545968 0.0610222 0.
0.547969 0.0610208 0.
0.54997 0.0610193 0.
0.551971 0.0610187 0.
0.553973 0.061018 0.
0.555975 0.0610172 0.
0.557976 0.0610159 0.
0.559977 0.0610146 0.
0.561978 0.0610134 0.
0.563978 0.0610123 0.
0.565979 0.0610113 0.
0.56798 0.0610102 0.
0.56998 0.061009 0.
0.571981 0.0610078 0.
0.573982 0.0610069 0.
0.575984 0.0610062 0.
0.577985 0.0610054 0.
0.579986 0.0610041 0.
0.581987 0.0610028 0.
0.583988 0.0610019 0.
0.585989 0.0610016 0.
0.58799 0.0610012 0.
0.58999 0.0610007 0.
0.591991 0.061 0.
0.593992 0.0609993 0.
0.595994 0.0609982 0.
0.597997 0.060997 0.
0.6 0.0609957 0.
0.602002 0.060997 0.
0.604003 0.0609982 0.
0.606005 0.0609992 0.
0.608006 0.0609999 0.
0.610007 0.0610006 0.
0.612009 0.0610018 0.
0.61401 0.0610037 0.
0.616011 0.0610056 0.
0.618013 0.0610067 0.
0.620014 0.0610075 0.
0.622016 0.0610082 0.
0.624017 0.0610108 0.
0.626018 0.0610136 0.
0.62802 0.0610162 0.
0.63002 0.0610178 0.
0.632021 0.0610194 0.
0.634022 0.0610208 0.
0.636023 0.0610221 0.
0.638024 0.0610234 0.
0.640025 0.0610241 0.
0.642026 0.0610243 0.
0.644027 0.0610245 0.
0.646028 0.0610253 0.
0.64803 0.0610262 0.
0.650031 0.0610271 0.
0.652032 0.061028 0.
0.654033 0.0610289 0.
0.656034 0.0610297 0.
0.658034 0.0610301 0.
0.660034 0.0610306 0.
0.662035 0.0610316 0.
0.664035 0.0610332 0.
0.666036 0.0610347 0.
0.668036 0.0610354 0.
0.670037 0.0610357 0.
0.672037 0.0610359 0.
0.674038 0.0610376 0.
0.676038 0.0610394 0.
0.678039 0.0610411 0.
0.680039 0.0610423 0.
0.682039 0.0610436 0.
0.68404 0.061045 0.
0.68604 0.0610469 0.
0.688041 0.0610489 0.
0.690041 0.0610509 0.
0.692041 0.0610531 0.
0.694041 0.0610554 0.
0.696042 0.0610584 0.
0.698043 0.0610617 0.
0.499958 0.0630561 0.
0.501959 0.0630534 0.
0.503959 0.0630509 0.
0.50596 0.0630485 0.
0.50796 0.0630461 0.
0.50996 0.0630438 0.
0.511961 0.0630415 0.
0.513961 0.0630395 0.
0.515962 0.0630374 0.
0.517962 0.0630356 0.
0.519963 0.063034 0.
0.521963 0.0630323 0.
0.523964 0.0630317 0.
0.525964 0.0630312 0.
0.527964 0.0630307 0.
0.529965 0.0630296 0.
0.531966 0.0630284 0.
0.533967 0.0630275 0.
0.535967 0.0630269 0.
0.537968 0.0630263 0.
0.539968 0.0630254 0.
0.541969 0.0630243 0.
0.543969 0.0630232 0.
0.54597 0.0630219 0.
0.547971 0.0630205 0.
0.549972 0.0630191 0.
0.551974 0.0630181 0.
0.553975 0.0630171 0.
0.555977 0.0630161 0.
0.557978 0.0630151 0.
0.559979 0.0630141 0.
0.56198 0.0630131 0.
0.56398 0.0630118 0.
0.565981 0.0630106 0.
0.567981 0.0630096 0.
0.569982 0.0630086 0.
0.571983 0.0630076 0.
0.573984 0.0630069 0.
0.575985 0.0630062 0.
0.577986 0.0630055 0.
0.579987 0.063004 0.
0.581987 0.0630024 0.
0.583988 0.0630013 0.
0.585989 0.0630011 0.
0.587989 0.0630009 0.
0.58999 0.0630004 0.
0.59199 0.0629997 0.
0.593991 0.0629989 0.
0.595994 0.0629979 0.
0.597997 0.0629968 0.
0.6 0.0629957 0.
0.602002 0.0629966 0.
0.604004 0.0629974 0.
0.606005 0.0629983 0.
0.608006 0.0629994 0.
0.610007 0.0630005 0.
0.612008 0.0630018 0.
0.61401 0.0630034 0.
0.616011 0.063005 0.
0.618012 0.063006 0.
0.620013 0.0630068 0.
0.622014 0.0630076 0.
0.624015 0.0630099 0.
0.626017 0.0630124 0.
0.628018 0.0630148 0.
0.630019 0.0630166 0.
0.632019 0.0630184 0.
0.63402 0.06302 0.
0.636021 0.0630211 0.
0.638022 0.0630223 0.
0.640023 0.0630232 0.
0.642024 0.063024 0.
0.644025 0.0630247 0.
0.646027 0.0630253 0.
0.648028 0.0630258 0.
0.650029 0.0630263 0.
0.65203 0.0630276 0.
0.654031 0.0630289 0.
0.656031 0.06303 0.
0.658032 0.0630303 0.
0.660032 0.0630307 0.
0.662033 0.0630317 0.
0.664033 0.0630334 0.
0.666034 0.0630352 0.
0.668034 0.0630358 0.
0.670035 0.0630359 0.
0.672035 0.0630361 0.
0.674035 0.0630379 0.
0.676035 0.0630398 0.
0.678036 0.0630416 0.
0.680036 0.0630428 0.
0.682037 0.063044 0.
0.684037 0.0630454 0.
0.686038 0.0630471 0.
0.688038 0.0630488 0.
0.690038 0.0630509 0.
0.692039 0.0630534 0.
0.694039 0.0630559 0.
0.696039 0.0630591 0.
0.698039 0.0630625 0.
0.499961 0.0650557 0.
0.501962 0.0650535 0.
0.503962 0.0650514 0.
0.505962 0.0650493 0.
0.507963 0.0650468 0.
0.509963 0.0650444 0.
0.511963 0.0650421 0.
0.513964 0.0650399 0.
0.515965 0.0650377 0.
0.517966 0.0650358 0.
0.519966 0.065034 0.
0.521966 0.0650322 0.
0.523966 0.0650314 0.
0.525966 0.0650309 0.
0.527966 0.0650303 0.
0.529967 0.0650294 0.
0.531968 0.0650285 0.
0.533969 0.0650275 0.
0.535969 0.0650267 0.
0.53797 0.0650258 0.
0.539971 0.0650248 0.
0.541971 0.0650238 0.
0.543971 0.0650228 0.
0.545972 0.0650215 0.
0.547973 0.0650202 0.
0.549974 0.0650188 0.
0.551976 0.0650175 0.
0.553977 0.0650162 0.
0.555978 0.065015 0.
0.55798 0.0650144 0.
0.559981 0.0650137 0.
0.561982 0.0650128 0.
0.563982 0.0650113 0.
0.565983 0.0650099 0.
0.567983 0.0650089 0.
0.569984 0.0650082 0.
0.571985 0.0650074 0.
0.573986 0.0650068 0.
0.575986 0.0650063 0.
0.577987 0.0650056 0.
0.579987 0.0650038 0.
0.581988 0.065002 0.
0.583988 0.0650008 0.
0.585988 0.0650007 0.
0.587989 0.0650007 0.
0.589989 0.0650002 0.
0.591989 0.0649993 0.
0.59399 0.0649984 0.
0.595993 0.0649976 0.
0.597997 0.0649966 0.
0.6 0.0649957 0.
0.602002 0.0649962 0.
0.604004 0.0649966 0.
0.606005 0.0649973 0.
0.608006 0.0649989 0.
0.610007 0.0650004 0.
0.612008 0.0650019 0.
0.614009 0.0650031 0.
0.616011 0.0650043 0.
0.618011 0.0650053 0.
0.620012 0.0650061 0.
0.622012 0.065007 0.
0.624014 0.065009 0.
0.626015 0.0650112 0.
0.628016 0.0650134 0.
0.630017 0.0650155 0.
0.632018 0.0650175 0.
0.634019 0.0650192 0.
0.63602 0.0650202 0.
0.638021 0.0650212 0.
0.640022 0.0650224 0.
0.642023 0.0650236 0.
0.644024 0.0650249 0.
0.646025 0.0650253 0.
0.648026 0.0650254 0.
0.650027 0.0650256 0.
0.652028 0.0650272 0.
0.654028 0.0650289 0.
0.656029 0.0650302 0.
0.65803 0.0650305 0.
0.66003 0.0650308 0.
0.662031 0.0650318 0.
0.664032 0.0650337 0.
0.666033 0.0650356 0.
0.668033 0.0650362 0.
0.670032 0.0650362 0.
0.672032 0.0650363 0.
0.674032 0.0650381 0.
0.676032 0.0650401 0.
0.678032 0.065042 0.
0.680033 0.0650433 0.
0.682034 0.0650445 0.
0.684034 0.0650458 0.
0.686035 0.0650472 0.
0.688035 0.0650487 0.
0.690036 0.0650509 0.
0.692036 0.0650537 0.
0.694036 0.0650564 0.
0.696036 0.0650598 0.
0.698036 0.0650632 0.
0.499964 0.0670555 0.
0.501964 0.0670534 0.
0.503965 0.0670515 0.
0.505965 0.0670495 0.
0.507966 0.0670469 0.
0.509966 0.0670444 0.
0.511967 0.067042 0.
0.513967 0.0670399 0.
0.515967 0.0670379 0.
0.517968 0.067036 0.
0.519968 0.0670343 0.
0.521969 0.0670326 0.
0.523969 0.0670319 0.
0.525969 0.0670314 0.
0.527969 0.0670307 0.
0.529969 0.0670294 0.
0.53197 0.0670281 0.
0.53397 0.0670269 0.
0.535971 0.0670259 0.
0.537972 0.0670249 0.
0.539972 0.0670241 0.
0.541973 0.0670232 0.
0.543974 0.0670224 0.
0.545975 0.0670211 0.
0.547976 0.0670197 0.
0.549977 0.0670183 0.
0.551978 0.0670169 0.
0.553979 0.0670155 0.
0.55598 0.0670143 0.
0.557981 0.0670137 0.
0.559982 0.0670132 0.
0.561983 0.0670122 0.
0.563983 0.0670106 0.
0.565984 0.0670091 0.
0.567984 0.0670083 0.
0.569985 0.0670079 0.
0.571986 0.0670074 0.
0.573986 0.0670066 0.
0.575987 0.0670058 0.
0.577987 0.067005 0.
0.579988 0.0670036 0.
0.581988 0.0670022 0.
0.583989 0.0670011 0.
0.585989 0.0670006 0.
0.58799 0.0670002 0.
0.58999 0.0669994 0.
0.591991 0.0669984 0.
0.593991 0.0669974 0.
0.595994 0.0669968 0.
0.597997 0.0669962 0.
0.6 0.0669957 0.
0.602002 0.0669962 0.
0.604003 0.0669967 0.
0.606004 0.0669974 0.
0.608004 0.0669989 0.
0.610005 0.0670003 0.
0.612006 0.0670016 0.
0.614007 0.0670026 0.
0.616009 0.0670036 0.
0.61801 0.0670047 0.
0.62001 0.0670058 0.
0.622011 0.067007 0.
0.624012 0.0670089 0.
0.626013 0.0670109 0.
0.628014 0.0670129 0.
0.630015 0.0670149 0.
0.632016 0.0670169 0.
0.634018 0.0670185 0.
0.636018 0.0670197 0.
0.638019 0.0670208 0.
0.64002 0.0670219 0.
0.642021 0.0670229 0.
0.644021 0.0670239 0.
0.646022 0.0670245 0.
0.648023 0.0670251 0.
0.650024 0.0670256 0.
0.652025 0.067027 0.
0.654025 0.0670284 0.
0.656026 0.0670296 0.
0.658027 0.0670304 0.
0.660028 0.0670312 0.
0.662028 0.0670322 0.
0.664029 0.0670335 0.
0.666029 0.0670348 0.
0.66803 0.0670357 0.
0.67003 0.0670363 0.
0.67203 0.067037 0.
0.67403 0.0670384 0.
0.67603 0.0670398 0.
0.67803 0.0670412 0.
0.680031 0.0670428 0.
0.682031 0.0670443 0.
0.684032 0.0670458 0.
0.686032 0.0670474 0.
0.688033 0.067049 0.
0.690033 0.0670511 0.
0.692033 0.0670538 0.
0.694033 0.0670565 0.
0.696034 0.0670596 0.
0.698035 0.0670629 0.
0.499966 0.0690549 0.
0.501967 0.0690533 0.
0.503967 0.0690516 0.
0.505968 0.0690498 0.
0.507969 0.0690471 0.
0.509969 0.0690443 0.
0.51197 0.069042 0.
0.51397 0.06904 0.
0.51597 0.069038 0.
0.51797 0.0690363 0.
0.519971 0.0690347 0.
0.521971 0.0690331 0.
0.523971 0.0690324 0.
0.525971 0.0690318 0.
0.527971 0.0690311 0.
0.529971 0.0690295 0.
0.531972 0.0690278 0.
0.533972 0.0690263 0.
0.535973 0.0690252 0.
0.537973 0.0690241 0.
0.539974 0.0690233 0.
0.541975 0.0690227 0.
0.543977 0.069022 0.
0.545977 0.0690207 0.
0.547978 0.0690192 0.
0.549979 0.0690177 0.
0.55198 0.0690163 0.
0.55398 0.0690148 0.
0.555981 0.0690136 0.
0.557982 0.0690131 0.
0.559983 0.0690126 0.
0.561984 0.0690116 0.
0.563984 0.0690099 0.
0.565985 0.0690083 0.
0.567985 0.0690077 0.
0.569986 0.0690076 0.
0.571987 0.0690074 0.
0.573987 0.0690064 0.
0.575988 0.0690054 0.
0.577988 0.0690043 0.
0.579988 0.0690033 0.
0.581989 0.0690023 0.
0.583989 0.0690014 0.
0.58599 0.0690005 0.
0.587991 0.0689997 0.
0.589991 0.0689987 0.
0.591992 0.0689975 0.
0.593993 0.0689964 0.
0.595995 0.068996 0.
0.597998 0.0689958 0.
0.6 0.0689956 0.
0.602001 0.0689962 0.
0.604002 0.0689968 0.
0.606002 0.0689976 0.
0.608003 0.0689989 0.
0.610003 0.0690002 0.
0.612004 0.0690013 0.
0.614006 0.0690021 0.
0.616007 0.069003 0.
0.618008 0.0690042 0.
0.620009 0.0690056 0.
0.622009 0.069007 0.
0.62401 0.0690088 0.
0.626011 0.0690106 0.
0.628012 0.0690124 0.
0.630014 0.0690143 0.
0.632015 0.0690162 0.
0.634016 0.0690179 0.
0.636017 0.0690192 0.
0.638018 0.0690204 0.
0.640018 0.0690214 0.
0.642019 0.0690221 0.
0.644019 0.0690228 0.
0.64602 0.0690237 0.
0.64802 0.0690247 0.
0.650021 0.0690256 0.
0.652022 0.0690268 0.
0.654023 0.0690279 0.
0.656023 0.069029 0.
0.658024 0.0690303 0.
0.660025 0.0690316 0.
0.662026 0.0690326 0.
0.664026 0.0690333 0.
0.666026 0.069034 0.
0.668027 0.0690352 0.
0.670027 0.0690365 0.
0.672027 0.0690377 0.
0.674027 0.0690386 0.
0.676028 0.0690395 0.
0.678028 0.0690404 0.
0.680028 0.0690423 0.
0.682029 0.0690441 0.
0.684029 0.0690458 0.
0.686029 0.0690476 0.
0.68803 0.0690493 0.
0.69003 0.0690514 0.
0.692031 0.0690539 0.
0.694031 0.0690565 0.
0.696032 0.0690595 0.
0.698034 0.0690625 0.
0.499969 0.0710551 0.
0.50197 0.0710533 0.
0.50397 0.0710515 0.
0.505971 0.0710495 0.
0.507971 0.0710469 0.
0.509972 0.0710443 0.
0.511972 0.071042 0.
0.513972 0.0710401 0.
0.515972 0.0710382 0.
0.517973 0.0710366 0.
0.519973 0.0710351 0.
0.521973 0.0710336 0.
0.523973 0.0710327 0.
0.525973 0.0710319 0.
0.527973 0.071031 0.
0.529974 0.0710294 0.
0.531974 0.0710277 0.
0.533974 0.0710261 0.
0.535975 0.0710248 0.
0.537975 0.0710235 0.
0.539976 0.0710227 0.
0.541977 0.0710221 0.
0.543979 0.0710215 0.
0.54598 0.0710202 0.
0.547981 0.0710187 0.
0.549981 0.0710172 0.
0.551982 0.0710158 0.
0.553982 0.0710144 0.
0.555983 0.0710132 0.
0.557983 0.0710125 0.
0.559984 0.0710119 0.
0.561985 0.0710109 0.
0.563985 0.0710094 0.
0.565986 0.071008 0.
0.567986 0.0710075 0.
0.569987 0.0710075 0.
0.571987 0.0710075 0.
0.573988 0.0710064 0.
0.575988 0.0710051 0.
0.577989 0.0710039 0.
0.579989 0.0710031 0.
0.58199 0.0710023 0.
0.58399 0.0710014 0.
0.585991 0.0710004 0.
0.587992 0.0709994 0.
0.589992 0.0709983 0.
0.591993 0.0709971 0.
0.593993 0.0709959 0.
0.595995 0.0709957 0.
0.597998 0.0709957 0.
0.6 0.0709957 0.
0.602001 0.0709964 0.
0.604001 0.0709971 0.
0.606001 0.070998 0.
0.608002 0.0709991 0.
0.610003 0.0710002 0.
0.612003 0.0710011 0.
0.614005 0.0710018 0.
0.616006 0.0710024 0.
0.618007 0.0710038 0.
0.620008 0.0710054 0.
0.622008 0.0710071 0.
0.624009 0.0710086 0.
0.62601 0.07101 0.
0.628011 0.0710116 0.
0.630013 0.0710135 0.
0.632014 0.0710155 0.
0.634015 0.0710172 0.
0.636016 0.0710184 0.
0.638016 0.0710197 0.
0.640017 0.0710207 0.
0.642017 0.0710215 0.
0.644017 0.0710222 0.
0.646018 0.0710233 0.
0.648019 0.0710244 0.
0.650019 0.0710255 0.
0.65202 0.0710266 0.
0.65402 0.0710277 0.
0.656021 0.0710288 0.
0.658022 0.0710302 0.
0.660023 0.0710317 0.
0.662024 0.0710326 0.
0.664024 0.0710331 0.
0.666024 0.0710335 0.
0.668024 0.0710348 0.
0.670024 0.0710367 0.
0.672025 0.0710385 0.
0.674025 0.0710391 0.
0.676025 0.0710397 0.
0.678025 0.0710404 0.
0.680026 0.0710422 0.
0.682026 0.071044 0.
0.684026 0.0710458 0.
0.686027 0.0710477 0.
0.688027 0.0710497 0.
0.690028 0.0710518 0.
0.692028 0.0710541 0.
0.694028 0.0710565 0.
0.696029 0.0710592 0.
0.698031 0.071062 0.
0.499972 0.0730559 0.
0.501973 0.0730534 0.
0.503973 0.0730511 0.
0.505974 0.0730488 0.
0.507974 0.0730466 0.
0.509974 0.0730443 0.
0.511974 0.0730422 0.
0.513974 0.0730403 0.
0.515974 0.0730385 0.
0.517975 0.0730369 0.
0.519975 0.0730355 0.
0.521975 0.0730341 0.
0.523976 0.0730329 0.
0.525976 0.0730317 0.
0.527976 0.0730305 0.
0.529976 0.0730291 0.
0.531977 0.0730278 0.
0.533977 0.0730263 0.
0.535978 0.0730248 0.
0.537978 0.0730233 0.
0.539978 0.0730223 0.
0.541979 0.0730216 0.
0.543981 0.0730209 0.
0.545982 0.0730196 0.
0.547982 0.0730182 0.
0.549983 0.0730167 0.
0.551984 0.0730155 0.
0.553984 0.0730143 0.
0.555984 0.0730131 0.
0.557985 0.0730121 0.
0.559986 0.0730111 0.
0.561986 0.0730101 0.
0.563986 0.0730091 0.
0.565986 0.0730081 0.
0.567987 0.0730077 0.
0.569987 0.0730076 0.
0.571988 0.0730075 0.
0.573988 0.0730063 0.
0.575989 0.073005 0.
0.57799 0.0730037 0.
0.57999 0.073003 0.
0.581991 0.0730022 0.
0.583992 0.0730013 0.
0.585992 0.0730003 0.
0.587993 0.0729994 0.
0.589993 0.0729983 0.
0.591993 0.072997 0.
0.593994 0.0729958 0.
0.595995 0.0729957 0.
0.597998 0.0729958 0.
0.6 0.0729958 0.
0.602 0.0729968 0.
0.604 0.0729977 0.
0.606001 0.0729986 0.
0.608002 0.0729994 0.
0.610003 0.0730003 0.
0.612004 0.073001 0.
0.614005 0.0730015 0.
0.616006 0.0730021 0.
0.618006 0.0730035 0.
0.620007 0.0730054 0.
0.622008 0.0730073 0.
0.624009 0.0730083 0.
0.62601 0.0730092 0.
0.628011 0.0730103 0.
0.630011 0.0730125 0.
0.632012 0.0730147 0.
0.634013 0.0730165 0.
0.636014 0.0730176 0.
0.638014 0.0730186 0.
0.640015 0.0730198 0.
0.642016 0.073021 0.
0.644017 0.0730222 0.
0.646017 0.0730232 0.
0.648018 0.0730243 0.
0.650018 0.0730253 0.
0.652018 0.0730265 0.
0.654018 0.0730277 0.
0.656019 0.0730289 0.
0.65802 0.0730303 0.
0.660021 0.0730316 0.
0.662022 0.0730324 0.
0.664022 0.0730327 0.
0.666022 0.073033 0.
0.668023 0.0730347 0.
0.670022 0.0730369 0.
0.672022 0.0730392 0.
0.674023 0.0730399 0.
0.676023 0.0730404 0.
0.678023 0.073041 0.
0.680023 0.0730425 0.
0.682023 0.073044 0.
0.684024 0.0730457 0.
0.686024 0.0730479 0.
0.688025 0.0730501 0.
0.690025 0.0730523 0.
0.692025 0.0730544 0.
0.694026 0.0730565 0.
0.696026 0.0730589 0.
0.698027 0.0730613 0.
0.499975 0.0750562 0.
0.501976 0.0750536 0.
0.503976 0.0750508 0.
0.505977 0.0750481 0.
0.507976 0.0750462 0.
0.509976 0.0750443 0.
0.511976 0.0750424 0.
0.513976 0.0750405 0.
0.515976 0.0750387 0.
0.517977 0.0750372 0.
0.519977 0.0750359 0.
0.521978 0.0750346 0.
0.523978 0.0750331 0.
0.525978 0.0750315 0.
0.527978 0.07503 0.
0.529979 0.0750289 0.
0.53198 0.0750279 0.
0.53398 0.0750266 0.
0.53598 0.0750248 0.
0.53798 0.0750231 0.
0.539981 0.0750219 0.
0.541981 0.075021 0.
0.543982 0.0750202 0.
0.545983 0.075019 0.
0.547984 0.0750176 0.
0.549986 0.0750162 0.
0.551986 0.0750151 0.
0.553986 0.0750141 0.
0.555986 0.0750131 0.
0.557986 0.0750117 0.
0.559987 0.0750104 0.
0.561987 0.0750093 0.
0.563987 0.0750088 0.
0.565987 0.0750082 0.
0.567987 0.0750079 0.
0.569988 0.0750078 0.
0.571988 0.0750076 0.
0.573989 0.0750063 0.
0.57599 0.0750049 0.
0.577991 0.0750035 0.
0.579991 0.0750028 0.
0.581992 0.075002 0.
0.583993 0.0750012 0.
0.585993 0.0750002 0.
0.587994 0.0749993 0.
0.589994 0.0749982 0.
0.591994 0.074997 0.
0.593994 0.0749958 0.
0.595995 0.0749957 0.
0.597997 0.0749958 0.
0.599999 0.074996 0.
0.602 0.0749971 0.
0.604 0.0749982 0.
0.606 0.0749992 0.
0.608002 0.0749997 0.
0.610004 0.0750003 0.
0.612005 0.0750008 0.
0.614005 0.0750013 0.
0.616005 0.0750017 0.
0.618006 0.0750033 0.
0.620006 0.0750054 0.
0.622007 0.0750074 0.
0.624008 0.075008 0.
0.626009 0.0750084 0.
0.62801 0.075009 0.
0.63001 0.0750114 0.
0.632011 0.0750139 0.
0.634011 0.0750158 0.
0.636012 0.0750167 0.
0.638012 0.0750176 0.
0.640013 0.0750189 0.
0.642015 0.0750205 0.
0.644016 0.0750222 0.
0.646017 0.0750232 0.
0.648017 0.0750241 0.
0.650017 0.0750251 0.
0.652017 0.0750264 0.
0.654017 0.0750277 0.
0.656017 0.0750291 0.
0.658018 0.0750302 0.
0.660019 0.0750314 0.
0.66202 0.0750322 0.
0.664021 0.0750324 0.
0.666021 0.0750326 0.
0.668021 0.0750345 0.
0.670021 0.0750372 0.
0.67202 0.0750399 0.
0.67402 0.0750406 0.
0.67602 0.0750411 0.
0.67802 0.0750416 0.
0.680021 0.0750428 0.
0.682021 0.075044 0.
0.684021 0.0750456 0.
0.686022 0.0750481 0.
0.688022 0.0750505 0.
0.690023 0.0750527 0.
0.692023 0.0750546 0.
0.694023 0.0750565 0.
0.696023 0.0750585 0.
0.698023 0.0750606 0.
0.499977 0.0770561 0.
0.501977 0.0770534 0.
0.503978 0.0770508 0.
0.505978 0.0770483 0.
0.507978 0.0770465 0.
0.509978 0.0770446 0.
0.511978 0.0770427 0.
0.513979 0.0770409 0.
0.515979 0.0770391 0.
0.517979 0.0770374 0.
0.519979 0.0770357 0.
0.521979 0.0770341 0.
0.523979 0.0770328 0.
0.52598 0.0770314 0.
0.52798 0.0770301 0.
0.52998 0.0770286 0.
0.531981 0.0770272 0.
0.533982 0.0770258 0.
0.535982 0.0770244 0.
0.537982 0.0770231 0.
0.539983 0.0770219 0.
0.541983 0.0770208 0.
0.543984 0.0770198 0.
0.545984 0.0770186 0.
0.547985 0.0770174 0.
0.549986 0.0770161 0.
0.551987 0.0770152 0.
0.553987 0.0770144 0.
0.555987 0.0770134 0.
0.557988 0.0770119 0.
0.559988 0.0770104 0.
0.561989 0.0770094 0.
0.563989 0.0770092 0.
0.565989 0.0770089 0.
0.567989 0.0770085 0.
0.569989 0.0770079 0.
0.571989 0.0770074 0.
0.57399 0.0770061 0.
0.57599 0.0770048 0.
0.577991 0.0770035 0.
0.579992 0.0770028 0.
0.581992 0.0770022 0.
0.583993 0.0770014 0.
0.585994 0.0770006 0.
0.587995 0.0769997 0.
0.589995 0.0769987 0.
0.591994 0.0769975 0.
0.593994 0.0769963 0.
0.595995 0.0769959 0.
0.597997 0.0769958 0.
0.599999 0.0769957 0.
0.601999 0.0769967 0.
0.603999 0.0769977 0.
0.606 0.0769985 0.
0.608001 0.076999 0.
0.610002 0.0769995 0.
0.612003 0.0770001 0.
0.614004 0.0770007 0.
0.616004 0.0770014 0.
0.618004 0.0770028 0.
0.620005 0.0770046 0.
0.622006 0.0770064 0.
0.624007 0.0770075 0.
0.626008 0.0770085 0.
0.628008 0.0770096 0.
0.630009 0.0770116 0.
0.632009 0.0770137 0.
0.63401 0.0770153 0.
0.63601 0.0770164 0.
0.638011 0.0770175 0.
0.640012 0.0770189 0.
0.642013 0.0770205 0.
0.644014 0.0770221 0.
0.646014 0.0770234 0.
0.648014 0.0770246 0.
0.650015 0.0770257 0.
0.652014 0.0770266 0.
0.654014 0.0770275 0.
0.656014 0.0770284 0.
0.658016 0.0770296 0.
0.660017 0.0770307 0.
0.662018 0.0770315 0.
0.664018 0.077032 0.
0.666018 0.0770325 0.
0.668018 0.0770343 0.
0.670018 0.0770369 0.
0.672018 0.0770394 0.
0.674018 0.0770404 0.
0.676018 0.0770412 0.
0.678018 0.077042 0.
0.680018 0.0770433 0.
0.682018 0.0770446 0.
0.684019 0.0770461 0.
0.68602 0.0770481 0.
0.68802 0.0770501 0.
0.690021 0.0770521 0.
0.692021 0.077054 0.
0.694021 0.0770559 0.
0.696021 0.077058 0.
0.69802 0.07706 0.
0.499979 0.079056 0.
0.501979 0.0790533 0.
0.50398 0.0790509 0.
0.50598 0.0790485 0.
0.50798 0.0790467 0.
0.50998 0.0790449 0.
0.511981 0.0790431 0.
0.513981 0.0790412 0.
0.515982 0.0790394 0.
0.517981 0.0790375 0.
0.519981 0.0790355 0.
0.52198 0.0790336 0.
0.523981 0.0790324 0.
0.525981 0.0790313 0.
0.527982 0.0790302 0.
0.529982 0.0790283 0.
0.531982 0.0790265 0.
0.533983 0.079025 0.
0.535984 0.079024 0.
0.537984 0.079023 0.
0.539985 0.0790219 0.
0.541985 0.0790206 0.
0.543985 0.0790194 0.
0.545985 0.0790183 0.
0.547986 0.0790172 0.
0.549987 0.079016 0.
0.551987 0.0790154 0.
0.553988 0.0790147 0.
0.555988 0.0790137 0.
0.557989 0.0790121 0.
0.55999 0.0790104 0.
0.56199 0.0790095 0.
0.56399 0.0790096 0.
0.56599 0.0790097 0.
0.56799 0.0790091 0.
0.56999 0.0790081 0.
0.571991 0.0790072 0.
0.573991 0.079006 0.
0.575991 0.0790047 0.
0.577991 0.0790035 0.
0.579992 0.0790029 0.
0.581992 0.0790023 0.
0.583993 0.0790016 0.
0.585994 0.0790009 0.
0.587996 0.0790002 0.
0.589996 0.0789992 0.
0.591995 0.078998 0.
0.593994 0.0789968 0.
0.595995 0.0789962 0.
0.597996 0.0789958 0.
0.599998 0.0789954 0.
0.601998 0.0789963 0.
0.603998 0.0789971 0.
0.605999 0.0789979 0.
0.608 0.0789983 0.
0.610001 0.0789987 0.
0.612002 0.0789993 0.
0.614002 0.0790001 0.
0.616003 0.079001 0.
0.618003 0.0790023 0.
0.620004 0.0790039 0.
0.622005 0.0790054 0.
0.624006 0.079007 0.
0.626006 0.0790085 0.
0.628007 0.0790101 0.
0.630007 0.0790118 0.
0.632008 0.0790134 0.
0.634008 0.0790149 0.
0.636009 0.0790161 0.
0.638009 0.0790174 0.
0.64001 0.0790188 0.
0.642011 0.0790204 0.
0.644011 0.079022 0.
0.646012 0.0790235 0.
0.648012 0.079025 0.
0.650012 0.0790264 0.
0.652012 0.0790268 0.
0.654012 0.0790273 0.
0.656012 0.0790278 0.
0.658013 0.0790289 0.
0.660014 0.0790299 0.
0.662015 0.0790309 0.
0.664016 0.0790316 0.
0.666016 0.0790324 0.
0.668016 0.0790342 0.
0.670016 0.0790365 0.
0.672016 0.0790388 0.
0.674016 0.0790401 0.
0.676016 0.0790412 0.
0.678015 0.0790424 0.
0.680016 0.0790438 0.
0.682016 0.0790452 0.
0.684017 0.0790467 0.
0.686018 0.0790481 0.
0.688018 0.0790496 0.
0.690019 0.0790514 0.
0.692019 0.0790534 0.
0.694018 0.0790554 0.
0.696018 0.0790574 0.
0.698018 0.0790594 0.
0.499981 0.0810556 0.
0.501981 0.0810532 0.
0.503982 0.081051 0.
0.505982 0.0810488 0.
0.507982 0.0810468 0.
0.509983 0.0810449 0.
0.511983 0.0810431 0.
0.513984 0.0810415 0.
0.515984 0.0810398 0.
0.517984 0.081038 0.
0.519983 0.081036 0.
0.521982 0.081034 0.
0.523983 0.0810327 0.
0.525983 0.0810314 0.
0.527983 0.0810301 0.
0.529984 0.0810281 0.
0.531984 0.0810262 0.
0.533985 0.0810246 0.
0.535985 0.0810237 0.
0.537986 0.0810228 0.
0.539986 0.0810218 0.
0.541986 0.0810206 0.
0.543986 0.0810194 0.
0.545987 0.0810182 0.
0.547987 0.0810172 0.
0.549988 0.0810161 0.
0.551988 0.0810155 0.
0.553989 0.0810149 0.
0.555989 0.081014 0.
0.55799 0.0810124 0.
0.559991 0.0810107 0.
0.561992 0.0810097 0.
0.563991 0.0810097 0.
0.565991 0.0810097 0.
0.567991 0.081009 0.
0.569991 0.0810079 0.
0.571991 0.0810069 0.
0.573991 0.0810058 0.
0.575991 0.0810047 0.
0.577991 0.0810036 0.
0.579992 0.0810028 0.
0.581992 0.0810021 0.
0.583993 0.0810014 0.
0.585995 0.0810007 0.
0.587996 0.0810001 0.
0.589996 0.0809992 0.
0.591996 0.0809983 0.
0.593995 0.0809973 0.
0.595996 0.0809967 0.
0.597996 0.0809961 0.
0.599997 0.0809955 0.
0.601997 0.080996 0.
0.603998 0.0809966 0.
0.605998 0.0809971 0.
0.607999 0.0809977 0.
0.61 0.0809982 0.
0.612001 0.0809989 0.
0.614001 0.0809997 0.
0.616002 0.0810006 0.
0.618002 0.0810019 0.
0.620003 0.0810033 0.
0.622004 0.0810048 0.
0.624004 0.0810066 0.
0.626005 0.0810083 0.
0.628005 0.0810101 0.
0.630006 0.0810115 0.
0.632006 0.081013 0.
0.634007 0.0810144 0.
0.636007 0.0810158 0.
0.638008 0.0810172 0.
0.640008 0.0810188 0.
0.642009 0.0810205 0.
0.644009 0.0810222 0.
0.64601 0.0810237 0.
0.64801 0.0810252 0.
0.650011 0.0810267 0.
0.65201 0.0810269 0.
0.65401 0.081027 0.
0.656011 0.0810274 0.
0.658012 0.0810285 0.
0.660013 0.0810296 0.
0.662013 0.0810306 0.
0.664014 0.0810316 0.
0.666014 0.0810325 0.
0.668014 0.0810343 0.
0.670014 0.0810364 0.
0.672014 0.0810385 0.
0.674014 0.0810399 0.
0.676014 0.0810412 0.
0.678013 0.0810425 0.
0.680014 0.0810438 0.
0.682014 0.0810451 0.
0.684015 0.0810465 0.
0.686016 0.0810478 0.
0.688016 0.0810492 0.
0.690017 0.081051 0.
0.692017 0.0810532 0.
0.694016 0.0810555 0.
0.696016 0.0810572 0.
0.698016 0.0810589 0.
0.499983 0.0830548 0.
0.501984 0.083053 0.
0.503984 0.083051 0.
0.505985 0.083049 0.
0.507985 0.0830468 0.
0.509986 0.0830446 0.
0.511986 0.0830428 0.
0.513986 0.0830415 0.
0.515986 0.0830403 0.
0.517986 0.0830387 0.
0.519986 0.083037 0.
0.521985 0.0830353 0.
0.523985 0.0830335 0.
0.525985 0.0830316 0.
0.527985 0.0830298 0.
0.529986 0.083028 0.
0.531986 0.0830262 0.
0.533987 0.0830247 0.
0.535987 0.0830236 0.
0.537988 0.0830226 0.
0.539988 0.0830216 0.
0.541988 0.0830206 0.
0.543988 0.0830197 0.
0.545989 0.0830186 0.
0.547989 0.0830175 0.
0.549989 0.0830164 0.
0.55199 0.0830157 0.
0.55399 0.0830151 0.
0.55599 0.0830142 0.
0.557991 0.0830128 0.
0.559992 0.0830113 0.
0.561992 0.0830102 0.
0.563992 0.0830096 0.
0.565992 0.083009 0.
0.567992 0.0830083 0.
0.569992 0.0830075 0.
0.571992 0.0830066 0.
0.573992 0.0830057 0.
0.575992 0.0830047 0.
0.577992 0.0830037 0.
0.579992 0.0830026 0.
0.581993 0.0830016 0.
0.583993 0.0830007 0.
0.585994 0.083 0.
0.587995 0.0829994 0.
0.589996 0.0829988 0.
0.591996 0.0829983 0.
0.593996 0.0829979 0.
0.595996 0.0829972 0.
0.597997 0.0829966 0.
0.599997 0.0829959 0.
0.601997 0.082996 0.
0.603997 0.0829961 0.
0.605998 0.0829963 0.
0.607998 0.0829971 0.
0.609999 0.082998 0.
0.612 0.0829988 0.
0.614 0.0829995 0.
0.616001 0.0830002 0.
0.618001 0.0830015 0.
0.620002 0.083003 0.
0.622002 0.0830046 0.
0.624002 0.0830062 0.
0.626003 0.0830078 0.
0.628003 0.0830095 0.
0.630004 0.0830109 0.
0.632005 0.0830124 0.
0.634005 0.0830138 0.
0.636006 0.0830154 0.
0.638006 0.083017 0.
0.640007 0.0830188 0.
0.642007 0.0830207 0.
0.644008 0.0830226 0.
0.646008 0.083024 0.
0.648009 0.0830253 0.
0.650009 0.0830265 0.
0.652009 0.0830267 0.
0.654009 0.0830268 0.
0.656009 0.0830272 0.
0.658011 0.0830284 0.
0.660012 0.0830297 0.
0.662012 0.0830308 0.
0.664012 0.0830319 0.
0.666012 0.083033 0.
0.668012 0.0830346 0.
0.670012 0.0830365 0.
0.672012 0.0830384 0.
0.674012 0.0830397 0.
0.676012 0.083041 0.
0.678012 0.0830423 0.
0.680013 0.0830433 0.
0.682013 0.0830444 0.
0.684014 0.0830457 0.
0.686014 0.0830472 0.
0.688014 0.0830487 0.
0.690014 0.0830509 0.
0.692015 0.0830535 0.
0.694015 0.0830561 0.
0.696015 0.0830575 0.
0.698016 0.0830586 0.
0.499985 0.0850543 0.
0.501986 0.0850529 0.
0.503987 0.0850511 0.
0.505987 0.0850492 0.
0.507988 0.0850467 0.
0.509988 0.0850443 0.
0.511989 0.0850425 0.
0.513989 0.0850416 0.
0.515989 0.0850407 0.
0.517988 0.0850395 0.
0.519988 0.0850381 0.
0.521988 0.0850367 0.
0.523988 0.0850343 0.
0.525988 0.0850319 0.
0.527988 0.0850295 0.
0.529988 0.0850279 0.
0.531989 0.0850263 0.
0.533989 0.0850248 0.
0.535989 0.0850235 0.
0.537989 0.0850223 0.
0.53999 0.0850214 0.
0.54199 0.0850207 0.
0.54399 0.08502 0.
0.54599 0.0850189 0.
0.547991 0.0850178 0.
0.549991 0.0850166 0.
0.551991 0.0850159 0.
0.553991 0.0850153 0.
0.555992 0.0850144 0.
0.557992 0.0850131 0.
0.559993 0.0850119 0.
0.561993 0.0850106 0.
0.563992 0.0850095 0.
0.565992 0.0850084 0.
0.567992 0.0850076 0.
0.569992 0.085007 0.
0.571993 0.0850063 0.
0.573993 0.0850055 0.
0.575993 0.0850047 0.
0.577993 0.0850037 0.
0.579993 0.0850024 0.
0.581993 0.0850011 0.
0.583993 0.085 0.
0.585994 0.0849993 0.
0.587995 0.0849987 0.
0.589995 0.0849984 0.
0.591996 0.0849984 0.
0.593997 0.0849985 0.
0.595997 0.0849978 0.
0.597997 0.0849971 0.
0.599996 0.0849963 0.
0.601997 0.0849959 0.
0.603997 0.0849955 0.
0.605997 0.0849955 0.
0.607998 0.0849966 0.
0.609998 0.0849978 0.
0.611999 0.0849987 0.
0.613999 0.0849993 0.
0.616 0.0849998 0.
0.618 0.0850011 0.
0.62 0.0850027 0.
0.622 0.0850043 0.
0.624 0.0850058 0.
0.626001 0.0850073 0.
0.628001 0.0850088 0.
0.630002 0.0850103 0.
0.632003 0.0850117 0.
0.634004 0.0850133 0.
0.636004 0.085015 0.
0.638005 0.0850168 0.
0.640005 0.0850188 0.
0.642006 0.0850209 0.
0.644006 0.0850231 0.
0.646007 0.0850243 0.
0.648007 0.0850253 0.
0.650008 0.0850263 0.
0.652008 0.0850265 0.
0.654008 0.0850266 0.
0.656008 0.085027 0.
0.658009 0.0850283 0.
0.66001 0.0850297 0.
0.662011 0.085031 0.
0.664011 0.0850322 0.
0.66601 0.0850335 0.
0.66801 0.085035 0.
0.67001 0.0850366 0.
0.67201 0.0850383 0.
0.67401 0.0850396 0.
0.676011 0.0850409 0.
0.678011 0.0850421 0.
0.680011 0.0850429 0.
0.682012 0.0850437 0.
0.684012 0.0850448 0.
0.686012 0.0850466 0.
0.688012 0.0850483 0.
0.690012 0.0850508 0.
0.692013 0.0850538 0.
0.694013 0.0850568 0.
0.696014 0.0850578 0.
0.698015 0.0850583 0.
0.499988 0.0870547 0.
0.501989 0.0870531 0.
0.503989 0.0870511 0.
0.505989 0.087049 0.
0.50799 0.0870468 0.
0.50999 0.0870446 0.
0.51199 0.0870428 0.
0.51399 0.0870415 0.
0.51599 0.0870402 0.
0.51799 0.0870388 0.
0.51999 0.0870373 0.
0.52199 0.0870359 0.
0.52399 0.0870338 0.
0.52599 0.0870316 0.
0.52799 0.0870294 0.
0.52999 0.0870277 0.
0.531991 0.087026 0.
0.533991 0.0870246 0.
0.535991 0.0870236 0.
0.537991 0.0870226 0.
0.539992 0.0870216 0.
0.541992 0.0870208 0.
0.543992 0.0870199 0.
0.545993 0.0870188 0.
0.547993 0.0870176 0.
0.549993 0.0870164 0.
0.551993 0.0870158 0.
0.553993 0.0870153 0.
0.555993 0.0870146 0.
0.557993 0.0870133 0.
0.559994 0.087012 0.
0.561994 0.0870108 0.
0.563993 0.0870099 0.
0.565993 0.087009 0.
0.567993 0.0870082 0.
0.569993 0.0870076 0.
0.571993 0.0870069 0.
0.573993 0.0870058 0.
0.575993 0.0870046 0.
0.577993 0.0870035 0.
0.579994 0.0870024 0.
0.581994 0.0870014 0.
0.583994 0.0870004 0.
0.585994 0.0869996 0.
0.587994 0.0869987 0.
0.589995 0.0869982 0.
0.591996 0.086998 0.
0.593996 0.0869978 0.
0.595996 0.0869973 0.
0.597997 0.0869967 0.
0.599997 0.0869961 0.
0.601997 0.0869962 0.
0.603997 0.0869963 0.
0.605997 0.0869965 0.
0.607998 0.086997 0.
0.609998 0.0869975 0.
0.611998 0.086998 0.
0.613999 0.0869986 0.
0.615999 0.0869991 0.
0.617999 0.0870004 0.
0.62 0.0870021 0.
0.622 0.0870038 0.
0.624001 0.0870055 0.
0.626001 0.0870072 0.
0.628001 0.0870088 0.
0.630002 0.08701 0.
0.632002 0.0870112 0.
0.634003 0.0870127 0.
0.636003 0.0870148 0.
0.638003 0.0870169 0.
0.640004 0.0870188 0.
0.642004 0.0870204 0.
0.644004 0.0870221 0.
0.646005 0.0870232 0.
0.648006 0.0870242 0.
0.650006 0.0870252 0.
0.652006 0.0870259 0.
0.654006 0.0870265 0.
0.656007 0.0870272 0.
0.658007 0.0870282 0.
0.660008 0.0870293 0.
0.662008 0.0870305 0.
0.664008 0.0870321 0.
0.666008 0.0870337 0.
0.668008 0.0870352 0.
0.670008 0.0870367 0.
0.672008 0.0870381 0.
0.674008 0.0870393 0.
0.676008 0.0870405 0.
0.678008 0.0870417 0.
0.680009 0.0870427 0.
0.682009 0.0870436 0.
0.684009 0.0870449 0.
0.686009 0.0870468 0.
0.688009 0.0870487 0.
0.69001 0.087051 0.
0.69201 0.0870537 0.
0.694011 0.0870563 0.
0.696011 0.087058 0.
0.698012 0.0870595 0.
0.499992 0.0890555 0.
0.501992 0.0890533 0.
0.503992 0.089051 0.
0.505992 0.0890488 0.
0.507992 0.0890469 0.
0.509992 0.0890449 0.
0.511992 0.089043 0.
0.513992 0.0890413 0.
0.515992 0.0890397 0.
0.517992 0.0890381 0.
0.519992 0.0890366 0.
0.521992 0.0890351 0.
0.523992 0.0890332 0.
0.525992 0.0890313 0.
0.527992 0.0890294 0.
0.529992 0.0890276 0.
0.531993 0.0890258 0.
0.533993 0.0890243 0.
0.535993 0.0890236 0.
0.537993 0.0890228 0.
0.539994 0.0890219 0.
0.541994 0.0890208 0.
0.543994 0.0890198 0.
0.545995 0.0890186 0.
0.547995 0.0890174 0.
0.549995 0.0890162 0.
0.551995 0.0890157 0.
0.553994 0.0890153 0.
0.555994 0.0890147 0.
0.557994 0.0890134 0.
0.559994 0.0890121 0.
0.561994 0.089011 0.
0.563994 0.0890103 0.
0.565994 0.0890096 0.
0.567994 0.0890089 0.
0.569994 0.0890082 0.
0.571994 0.0890075 0.
0.573994 0.0890061 0.
0.575994 0.0890046 0.
0.577994 0.0890033 0.
0.579994 0.0890025 0.
0.581995 0.0890017 0.
0.583995 0.0890009 0.
0.585995 0.0889998 0.
0.587994 0.0889987 0.
0.589994 0.088998 0.
0.591995 0.0889976 0.
0.593995 0.0889972 0.
0.595996 0.0889968 0.
0.597996 0.0889964 0.
0.599997 0.0889959 0.
0.601997 0.0889965 0.
0.603998 0.0889971 0.
0.605998 0.0889975 0.
0.607998 0.0889974 0.
0.609998 0.0889972 0.
0.611998 0.0889974 0.
0.613998 0.0889979 0.
0.615998 0.0889984 0.
0.617999 0.0889997 0.
0.62 0.0890016 0.
0.622 0.0890034 0.
0.624001 0.0890052 0.
0.626001 0.0890071 0.
0.628001 0.0890088 0.
0.630001 0.0890098 0.
0.632001 0.0890107 0.
0.634002 0.0890121 0.
0.636002 0.0890146 0.
0.638002 0.089017 0.
0.640002 0.0890187 0.
0.642002 0.0890199 0.
0.644002 0.0890211 0.
0.646003 0.0890221 0.
0.648004 0.0890231 0.
0.650004 0.0890241 0.
0.652004 0.0890253 0.
0.654005 0.0890265 0.
0.656005 0.0890275 0.
0.658005 0.0890282 0.
0.660005 0.0890288 0.
0.662005 0.0890301 0.
0.664005 0.0890321 0.
0.666005 0.089034 0.
0.668005 0.0890355 0.
0.670005 0.0890367 0.
0.672005 0.0890379 0.
0.674006 0.089039 0.
0.676006 0.0890402 0.
0.678006 0.0890414 0.
0.680006 0.0890424 0.
0.682006 0.0890435 0.
0.684006 0.0890449 0.
0.686006 0.089047 0.
0.688007 0.089049 0.
0.690007 0.0890512 0.
0.692008 0.0890536 0.
0.694008 0.0890559 0.
0.696009 0.0890582 0.
0.698009 0.0890606 0.
0.499993 0.0910553 0.
0.501994 0.0910533 0.
0.503994 0.0910513 0.
0.505994 0.0910493 0.
0.507994 0.0910471 0.
0.509994 0.0910449 0.
0.511994 0.091043 0.
0.513994 0.0910412 0.
0.515994 0.0910394 0.
0.517994 0.0910376 0.
0.519994 0.0910358 0.
0.521995 0.091034 0.
0.523995 0.0910325 0.
0.525995 0.091031 0.
0.527995 0.0910295 0.
0.529995 0.0910278 0.
0.531995 0.091026 0.
0.533995 0.0910246 0.
0.535995 0.0910238 0.
0.537995 0.0910231 0.
0.539995 0.091022 0.
0.541996 0.0910207 0.
0.543996 0.0910194 0.
0.545996 0.0910182 0.
0.547997 0.0910171 0.
0.549997 0.091016 0.
0.551996 0.0910157 0.
0.553996 0.0910153 0.
0.555995 0.0910148 0.
0.557995 0.0910135 0.
0.559995 0.0910122 0.
0.561995 0.0910112 0.
0.563995 0.0910107 0.
0.565995 0.0910101 0.
0.567995 0.0910095 0.
0.569995 0.0910088 0.
0.571995 0.0910082 0.
0.573995 0.0910065 0.
0.575995 0.0910047 0.
0.577995 0.091003 0.
0.579995 0.0910024 0.
0.581996 0.0910018 0.
0.583996 0.091001 0.
0.585995 0.0909998 0.
0.587995 0.0909985 0.
0.589994 0.0909978 0.
0.591995 0.0909974 0.
0.593995 0.090997 0.
0.595995 0.0909966 0.
0.597996 0.0909961 0.
0.599997 0.0909956 0.
0.601998 0.0909963 0.
0.603998 0.090997 0.
0.605998 0.0909976 0.
0.607998 0.0909973 0.
0.609998 0.0909971 0.
0.611997 0.0909972 0.
0.613997 0.0909976 0.
0.615997 0.090998 0.
0.617998 0.0909992 0.
0.619999 0.0910008 0.
0.622 0.0910023 0.
0.624 0.0910045 0.
0.626001 0.0910068 0.
0.628001 0.091009 0.
0.630001 0.0910099 0.
0.632001 0.0910108 0.
0.634001 0.0910122 0.
0.636001 0.0910146 0.
0.638001 0.091017 0.
0.640001 0.0910186 0.
0.642001 0.0910195 0.
0.644001 0.0910203 0.
0.646002 0.0910214 0.
0.648002 0.0910225 0.
0.650002 0.0910236 0.
0.652003 0.091025 0.
0.654003 0.0910263 0.
0.656003 0.0910275 0.
0.658003 0.0910283 0.
0.660003 0.091029 0.
0.662003 0.0910302 0.
0.664003 0.0910321 0.
0.666003 0.0910339 0.
0.668003 0.0910353 0.
0.670003 0.0910365 0.
0.672004 0.0910378 0.
0.674004 0.091039 0.
0.676004 0.0910402 0.
0.678004 0.0910414 0.
0.680004 0.0910425 0.
0.682004 0.0910436 0.
0.684003 0.0910449 0.
0.686004 0.0910469 0.
0.688004 0.0910489 0.
0.690004 0.0910509 0.
0.692005 0.0910531 0.
0.694006 0.0910552 0.
0.696006 0.091058 0.
0.698006 0.0910611 0.
0.499994 0.093055 0.
0.501995 0.0930532 0.
0.503996 0.0930518 0.
0.505997 0.0930502 0.
0.507997 0.0930475 0.
0.509996 0.0930449 0.
0.511996 0.0930426 0.
0.513996 0.093041 0.
0.515996 0.0930393 0.
0.517997 0.0930372 0.
0.519997 0.093035 0.
0.521997 0.0930327 0.
0.523998 0.0930317 0.
0.525998 0.0930308 0.
0.527998 0.0930298 0.
0.529998 0.0930282 0.
0.531998 0.0930266 0.
0.533998 0.0930252 0.
0.535998 0.0930243 0.
0.537997 0.0930233 0.
0.539997 0.093022 0.
0.541998 0.0930203 0.
0.543998 0.0930186 0.
0.545998 0.0930175 0.
0.547998 0.0930166 0.
0.549998 0.0930157 0.
0.551998 0.0930156 0.
0.553997 0.0930154 0.
0.555997 0.093015 0.
0.557996 0.0930137 0.
0.559996 0.0930124 0.
0.561996 0.0930115 0.
0.563997 0.093011 0.
0.565997 0.0930105 0.
0.567997 0.09301 0.
0.569997 0.0930094 0.
0.571997 0.0930089 0.
0.573997 0.0930069 0.
0.575997 0.0930048 0.
0.577996 0.0930028 0.
0.579996 0.0930022 0.
0.581997 0.0930015 0.
0.583996 0.0930007 0.
0.585996 0.0929994 0.
0.587995 0.0929982 0.
0.589995 0.0929975 0.
0.591995 0.0929974 0.
0.593995 0.0929973 0.
0.595995 0.0929967 0.
0.597996 0.0929959 0.
0.599997 0.0929951 0.
0.601998 0.0929957 0.
0.603998 0.0929962 0.
0.605998 0.0929967 0.
0.607998 0.0929969 0.
0.609997 0.0929971 0.
0.611997 0.0929973 0.
0.613997 0.0929976 0.
0.615996 0.092998 0.
0.617997 0.0929987 0.
0.619998 0.0929997 0.
0.621999 0.0930007 0.
0.624 0.0930034 0.
0.626 0.0930064 0.
0.628001 0.0930092 0.
0.630001 0.0930103 0.
0.632 0.0930115 0.
0.634 0.0930129 0.
0.636 0.0930149 0.
0.637999 0.0930169 0.
0.639999 0.0930183 0.
0.642 0.093019 0.
0.644 0.0930198 0.
0.646 0.093021 0.
0.648 0.0930224 0.
0.65 0.0930238 0.
0.652001 0.0930249 0.
0.654001 0.0930261 0.
0.656002 0.0930273 0.
0.658002 0.0930285 0.
0.660002 0.0930298 0.
0.662002 0.093031 0.
0.664002 0.0930321 0.
0.666002 0.0930333 0.
0.668002 0.0930347 0.
0.670002 0.0930362 0.
0.672002 0.0930378 0.
0.674002 0.0930391 0.
0.676002 0.0930404 0.
0.678002 0.0930417 0.
0.680002 0.0930427 0.
0.682002 0.0930437 0.
0.684001 0.0930449 0.
0.686001 0.0930466 0.
0.688 0.0930482 0.
0.690001 0.0930501 0.
0.692002 0.0930522 0.
0.694003 0.0930543 0.
0.696003 0.0930575 0.
0.698004 0.0930609 0.
0.499995 0.0950538 0.
0.501997 0.095053 0.
0.503998 0.0950524 0.
0.505999 0.0950512 0.
0.507999 0.095048 0.
0.509999 0.0950448 0.
0.511999 0.0950423 0.
0.513999 0.0950408 0.
0.515999 0.0950392 0.
0.517999 0.0950369 0.
0.519999 0.0950342 0.
0.522 0.0950315 0.
0.524 0.0950308 0.
0.526001 0.0950305 0.
0.528001 0.09503 0.
0.530001 0.0950286 0.
0.532001 0.0950272 0.
0.534001 0.0950259 0.
0.536 0.0950247 0.
0.537999 0.0950236 0.
0.539999 0.095022 0.
0.542 0.0950199 0.
0.544 0.0950179 0.
0.546 0.0950169 0.
0.548 0.0950162 0.
0.549999 0.0950155 0.
0.551999 0.0950155 0.
0.553998 0.0950154 0.
0.555998 0.0950151 0.
0.557997 0.0950139 0.
0.559997 0.0950126 0.
0.561997 0.0950117 0.
0.563998 0.0950113 0.
0.565999 0.0950108 0.
0.567999 0.0950105 0.
0.569999 0.09501 0.
0.571999 0.0950096 0.
0.573998 0.0950074 0.
0.575998 0.0950049 0.
0.577998 0.0950026 0.
0.579998 0.0950019 0.
0.581997 0.0950013 0.
0.583997 0.0950004 0.
0.585997 0.0949991 0.
0.587996 0.0949978 0.
0.589996 0.0949972 0.
0.591995 0.0949974 0.
0.593995 0.0949975 0.
0.595996 0.0949968 0.
0.597996 0.0949957 0.
0.599997 0.0949946 0.
0.601997 0.094995 0.
0.603997 0.0949954 0.
0.605997 0.0949958 0.
0.607997 0.0949964 0.
0.609997 0.0949971 0.
0.611997 0.0949975 0.
0.613996 0.0949977 0.
0.615995 0.0949979 0.
0.617995 0.0949983 0.
0.619997 0.0949987 0.
0.621998 0.0949991 0.
0.623999 0.0950023 0.
0.626 0.095006 0.
0.628001 0.0950094 0.
0.63 0.0950108 0.
0.632 0.0950122 0.
0.633999 0.0950136 0.
0.635999 0.0950152 0.
0.637998 0.0950168 0.
0.639998 0.0950179 0.
0.641999 0.0950186 0.
0.644 0.0950192 0.
0.645999 0.0950206 0.
0.647999 0.0950223 0.
0.649998 0.0950239 0.
0.651999 0.0950249 0.
0.654 0.0950259 0.
0.656 0.095027 0.
0.658001 0.0950288 0.
0.660001 0.0950305 0.
0.662002 0.0950317 0.
0.664001 0.0950322 0.
0.666001 0.0950327 0.
0.668001 0.0950341 0.
0.670001 0.095036 0.
0.672001 0.0950379 0.
0.674001 0.0950393 0.
0.676 0.0950407 0.
0.678 0.095042 0.
0.68 0.095043 0.
0.682 0.0950439 0.
0.683999 0.0950449 0.
0.685998 0.0950463 0.
0.687997 0.0950477 0.
0.689998 0.0950494 0.
0.691999 0.0950514 0.
0.694 0.0950534 0.
0.696001 0.0950569 0.
0.698001 0.0950608 0.
0.499999 0.0970542 0.
0.501999 0.097053 0.
0.504 0.0970518 0.
0.506001 0.0970502 0.
0.508001 0.0970474 0.
0.510001 0.0970445 0.
0.512001 0.0970422 0.
0.514001 0.0970408 0.
0.516001 0.0970394 0.
0.518001 0.0970371 0.
0.520001 0.0970343 0.
0.522001 0.0970315 0.
0.524002 0.0970307 0.
0.526002 0.0970301 0.
0.528003 0.0970294 0.
0.530002 0.0970287 0.
0.532002 0.097028 0.
0.534002 0.0970269 0.
0.536002 0.0970251 0.
0.538001 0.0970233 0.
0.540001 0.0970216 0.
0.542001 0.09702 0.
0.544001 0.0970184 0.
0.546001 0.0970172 0.
0.548 0.0970161 0.
0.55 0.097015 0.
0.551999 0.0970153 0.
0.553998 0.0970155 0.
0.555997 0.0970154 0.
0.557998 0.0970141 0.
0.559998 0.0970127 0.
0.561998 0.0970118 0.
0.563999 0.0970112 0.
0.566 0.0970107 0.
0.568001 0.0970104 0.
0.570001 0.0970101 0.
0.572 0.0970098 0.
0.574 0.0970077 0.
0.575999 0.0970053 0.
0.577999 0.0970031 0.
0.579998 0.097002 0.
0.581998 0.0970008 0.
0.583998 0.0969998 0.
0.585997 0.0969989 0.
0.587997 0.096998 0.
0.589997 0.0969976 0.
0.591996 0.0969975 0.
0.593996 0.0969975 0.
0.595996 0.0969966 0.
0.597997 0.0969954 0.
0.599997 0.0969942 0.
0.601997 0.0969949 0.
0.603997 0.0969956 0.
0.605997 0.0969963 0.
0.607997 0.096997 0.
0.609997 0.0969977 0.
0.611997 0.096998 0.
0.613996 0.0969977 0.
0.615995 0.0969975 0.
0.617995 0.0969978 0.
0.619996 0.0969983 0.
0.621997 0.0969988 0.
0.623997 0.0970019 0.
0.625997 0.0970053 0.
0.627998 0.0970085 0.
0.629997 0.0970105 0.
0.631997 0.0970125 0.
0.633997 0.0970142 0.
0.635997 0.0970154 0.
0.637997 0.0970166 0.
0.639997 0.0970176 0.
0.641998 0.0970185 0.
0.643998 0.0970194 0.
0.645998 0.0970207 0.
0.647997 0.0970221 0.
0.649997 0.0970235 0.
0.651998 0.0970245 0.
0.653998 0.0970254 0.
0.655999 0.0970265 0.
0.658 0.0970281 0.
0.66 0.0970298 0.
0.662 0.0970312 0.
0.664 0.0970323 0.
0.665999 0.0970334 0.
0.667999 0.0970347 0.
0.67 0.0970362 0.
0.672 0.0970377 0.
0.674 0.0970392 0.
0.675999 0.0970407 0.
0.677999 0.0970422 0.
0.679999 0.0970433 0.
0.681998 0.0970443 0.
0.683998 0.0970454 0.
0.685998 0.0970465 0.
0.687997 0.0970476 0.
0.689997 0.0970493 0.
0.691997 0.0970514 0.
0.693997 0.0970535 0.
0.695998 0.0970567 0.
0.697998 0.0970602 0.
0.500002 0.0990546 0.
0.502002 0.0990531 0.
0.504002 0.0990513 0.
0.506003 0.0990493 0.
0.508003 0.0990467 0.
0.510003 0.0990441 0.
0.512003 0.0990422 0.
0.514003 0.0990409 0.
0.516004 0.0990396 0.
0.518004 0.0990373 0.
0.520003 0.0990344 0.
0.522003 0.0990315 0.
0.524003 0.0990305 0.
0.526004 0.0990296 0.
0.528004 0.0990288 0.
0.530004 0.0990288 0.
0.532003 0.0990288 0.
0.534003 0.0990279 0.
0.536003 0.0990254 0.
0.538003 0.0990229 0.
0.540003 0.0990212 0.
0.542003 0.0990201 0.
0.544003 0.099019 0.
0.546002 0.0990176 0.
0.548001 0.0990161 0.
0.55 0.0990146 0.
0.551999 0.0990151 0.
0.553998 0.0990157 0.
0.555997 0.0990158 0.
0.557998 0.0990143 0.
0.559998 0.0990129 0.
0.561999 0.0990118 0.
0.564 0.0990112 0.
0.566001 0.0990106 0.
0.568002 0.0990103 0.
0.570002 0.0990101 0.
0.572002 0.09901 0.
0.574001 0.099008 0.
0.576 0.0990058 0.
0.578 0.0990035 0.
0.579999 0.099002 0.
0.581998 0.0990004 0.
0.583998 0.0989992 0.
0.585998 0.0989987 0.
0.587998 0.0989982 0.
0.589998 0.0989979 0.
0.591998 0.0989977 0.
0.593997 0.0989974 0.
0.595997 0.0989964 0.
0.597997 0.0989951 0.
0.599997 0.0989939 0.
0.601997 0.0989949 0.
0.603996 0.0989959 0.
0.605996 0.0989968 0.
0.607996 0.0989976 0.
0.609997 0.0989983 0.
0.611996 0.0989984 0.
0.613996 0.0989978 0.
0.615995 0.0989971 0.
0.617995 0.0989974 0.
0.619995 0.098998 0.
0.621995 0.0989986 0.
0.623995 0.0990015 0.
0.625994 0.0990046 0.
0.627994 0.0990076 0.
0.629995 0.0990102 0.
0.631995 0.0990128 0.
0.633995 0.0990148 0.
0.635996 0.0990156 0.
0.637996 0.0990164 0.
0.639997 0.0990173 0.
0.641996 0.0990185 0.
0.643996 0.0990196 0.
0.645996 0.0990207 0.
0.647996 0.0990219 0.
0.649995 0.0990231 0.
0.651996 0.099024 0.
0.653997 0.0990249 0.
0.655998 0.0990259 0.
0.657999 0.0990275 0.
0.659999 0.099029 0.
0.661999 0.0990306 0.
0.663998 0.0990323 0.
0.665997 0.099034 0.
0.667997 0.0990353 0.
0.669998 0.0990364 0.
0.671999 0.0990375 0.
0.673998 0.099039 0.
0.675998 0.0990407 0.
0.677998 0.0990423 0.
0.679997 0.0990435 0.
0.681997 0.0990448 0.
0.683997 0.0990459 0.
0.685997 0.0990467 0.
0.687997 0.0990476 0.
0.689997 0.0990493 0.
0.691995 0.0990514 0.
0.693994 0.0990536 0.
0.695995 0.0990565 0.
0.697995 0.0990596 0.
CELLS 5000 10000
1 0
1 1
1 2
1 3
1 4
1 5
1 6
1 7
1 8
1 9
1 10
1 11
1 12
1 13
1 14
1 15
1 16
1 17
1 18
1 19
1 20
1 21
1 22
1 23
1 24
1 25
1 26
1 27
1 28
1 29
1 30
1 31
1 32
1 33
1 34
1 35
1 36
1 37
1 38
1 39
1 40
1 41
1 42
1 43
1 44
1 45
1 46
1 47
1 48
1 49
1 50
1 51
1 52
1 53
1 54
1 55
1 56
1 57
1 58
1 59
1 60
1 61
1 62
1 63
1 64
1 65
1 66
1 67
1 68
1 69
1 70
1 71
1 72
1 73
1 74
1 75
1 76
1 77
1 78
1 79
1 80
1 81
1 82
1 83
1 84
1 85
1 86
1 87
1 88
1 89
1 90
1 91
1 92
1 93
1 94
1 95
1 96
1 97
1 98
1 99
1 100
1 101
1 102
1 103
1 104
1 105
1 106
1 107
1 108
1 109
1 110
1 111
1 112
1 113
1 114
1 115
1 116
1 117
1 118
1 119
1 120
1 121
1 122
1 123
1 124
1 125
1 126
1 127
1 128
1 129
1 130
1 131
1 132
1 133
1 134
1 135
1 136
1 137
1 138
1 139
1 140
1 141
1 142
1 143
1 144
1 145
1 146
1 147
1 148
1 149
1 150
1 151
1 152
1 153
1 154
1 155
1 156
1 157
1 158
1 159
1 160
1 161
1 162
1 163
1 164
1 165
1 166
1 167
1 168
1 169
1 170
1 171
1 172
1 173
1 174
1 175
1 176
1 177
1 178
1 179
1 180
1 181
1 182
1 183
1 184
1 185
1 186
1 187
1 188
1 189
1 190
1 191
1 192
1 193
1 194
1 195
1 196
1 197
1 198
1 199
1 200
1 201
1 202
1 203
1 204
1 205
1 206
1 207
1 208
1 209
1 210
1 211
1 212
1 213
1 214
1 215
1 216
1 217
1 218
1 219
1 220
1 221
1 222
1 223
1 224
1 225
1 226
1 227
1 228
1 229
1 230
1 231
1 232
1 233
1 234
1 235
1 236
1 237
1 238
1 239
1 240
1 241
1 242
1 243
1 244
1 245
1 246
1 247
1 248
1 249
1 250
1 251
1 252
1 253
1 254
1 255
1 256
1 257
1 258
1 259
1 260
1 261
1 262
1 263
1 264
1 265
1 266
1 267
1 268
1 269
1 270
1 271
1 272
1 273
1 274
1 275
1 276
1 277
1 278
1 279
1 280
1 281
1 282
1 283
1 284
1 285
1 286
1 287
1 288
1 289
1 290
1 291
1 292
1 293
1 294
1 295
1 296
1 297
1 298
1 299
1 300
1 301
1 302
1 303
1 304
1 305
1 306
1 307
1 308
1 309
1 310
1 311
1 312
1 313
1 314
1 315
1 316
1 317
1 318
1 319
1 320
1 321
1 322
1 323
1 324
1 325
1 326
1 327
1 328
1 329
1 330
1 331
1 332
1 333
1 334
1 335
1 336
1 337
1 338
1 339
1 340
1 341
1 342
1 343
1 344
1 345
1 346
1 347
1 348
1 349
1 350
1 351
1 352
1 353
1 354
1 355
1 356
1 357
1 358
1 359
1 360
1 361
1 362
1 363
1 364
1 365
1 366
1 367
1 368
1 369
1 370
1 371
1 372
1 373
1 374
1 375
1 376
1 377
1 378
1 379
1 380
1 381
1 382
1 383
1 384
1 385
1 386
1 387
1 388
1 389
1 390
1 391
1 392
1 393
1 394
1 395
1 396
1 397
1 398
1 399
1 400
1 401
1 402
1 403
1 404
1 405
1 406
1 407
1 408
1 409
1 410
1 411
1 412
1 413
1 414
1 415
1 416
1 417
1 418
1 419
1 420
1 421
1 422
1 423
1 424
1 425
1 426
1 427
1 428
1 429
1 430
1 431
1 432
1 433
1 434
1 435
1 436
1 437
1 438
1 439
1 440
1 441
1 442
1 443
1 444
1 445
1 446
1 447
1 448
1 449
1 450
1 451
1 452
1 453
1 454
1 455
1 456
1 457
1 458
1 459
1 460
1 461
1 462
1 463
1 464
1 465
1 466
1 467
1 468
1 469
1 470
1 471
1 472
1 473
1 474
1 475
1 476
1 477
1 478
1 479
1 480
1 481
1 482
1 483
1 484
1 485
1 486
1 487
1 488
1 489
1 490
1 491
1 492
1 493
1 494
1 495
1 496
1 497
1 498
1 499
1 500
1 501
1 502
1 503
1 504
1 505
1 506
1 507
1 508
1 509
1 510
1 511
1 512
1 513
1 514
1 515
1 516
1 517
1 518
1 519
1 520
1 521
1 522
1 523
1 524
1 525
1 526
1 527
1 528
1 529
1 530
1 531
1 532
1 533
1 534
1 535
1 536
1 537
1 538
1 539
1 540
1 541
1 542
1 543
1 544
1 545
1 546
1 547
1 548
1 549
1 550
1 551
1 552
1 553
1 554
1 555
1 556
1 557
1 558
1 559
1 560
1 561
1 562
1 563
1 564
1 565
1 566
1 567
1 568
1 569
1 570
1 571
1 572
1 573
1 574
1 575
1 576
1 577
1 578
1 579
1 580
1 581
1 582
1 583
1 584
1 585
1 586
1 587
1 588
1 589
1 590
1 591
1 592
1 593
1 594
1 595
1 596
1 597
1 598
1 599
1 600
1 601
1 602
1 603
1 604
1 605
1 606
1 607
1 608
1 609
1 610
1 611
1 612
1 613
1 614
1 615
1 616
1 617
1 618
1 619
1 620
1 621
1 622
1 623
1 624
1 625
1 626
1 627
1 628
1 629
1 630
1 631
1 632
1 633
1 634
1 635
1 636
1 637
1 638
1 639
1 640
1 641
1 642
1 643
1 644
1 645
1 646
1 647
1 648
1 649
1 650
1 651
1 652
1 653
1 654
1 655
1 656
1 657
1 658
1 659
1 660
1 661
1 662
1 663
1 664
1 665
1 666
1 667
1 668
1 669
1 670
1 671
1 672
1 673
1 674
1 675
1 676
1 677
1 678
1 679
1 680
1 681
1 682
1 683
1 684
1 685
1 686
1 687
1 688
1 689
1 690
1 691
1 692
1 693
1 694
1 695
1 696
1 697
1 698
1 699
1 700
1 701
1 702
1 703
1 704
1 705
1 706
1 707
1 708
1 709
1 710
1 711
1 712
1 713
1 714
1 715
1 716
1 717
1 718
1 719
1 720
1 721
1 722
1 723
1 724
1 725
1 726
1 727
1 728
1 729
1 730
1 731
1 732
1 733
1 734
1 735
1 736
1 737
1 738
1 739
1 740
1 741
1 742
1 743
1 744
1 745
1 746
1 747
1 748
1 749
1 750
1 751
1 752
1 753
1 754
1 755
1 756
1 757
1 758
1 759
1 760
1 761
1 762
1 763
1 764
1 765
1 766
1 767
1 768
1 769
1 770
1 771
1 772
1 773
1 774
1 775
1 776
1 777
1 778
1 779
1 780
1 781
1 782
1 783
1 784
1 785
1 786
1 787
1 788
1 789
1 790
1 791
1 792
1 793
1 794
1 795
1 796
1 797
1 798
1 799
1 800
1 801
1 802
1 803
1 804
1 805
1 806
1 807
1 808
1 809
1 810
1 811
1 812
1 813
1 814
1 815
1 816
1 817
1 818
1 819
1 820
1 821
1 822
1 823
1 824
1 825
1 826
1 827
1 828
1 829
1 830
1 831
1 832
1 833
1 834
1 835
1 836
1 837
1 838
1 839
1 840
1 841
1 842
1 843
1 844
1 845
1 846
1 847
1 848
1 849
1 850
1 851
1 852
1 853
1 854
1 855
1 856
1 857
1 858
1 859
1 860
1 861
1 862
1 863
1 864
1 865
1 866
1 867
1 868
1 869
1 870
1 871
1 872
1 873
1 874
1 875
1 876
1 877
1 878
1 879
1 880
1 881
1 882
1 883
1 884
1 885
1 886
1 887
1 888
1 889
1 890
1 891
1 892
1 893
1 894
1 895
1 896
1 897
1 898
1 899
1 900
1 901
1 902
1 903
1 904
1 905
1 906
1 907
1 908
1 909
1 910
1 911
1 912
1 913
1 914
1 915
1 916
1 917
1 918
1 919
1 920
1 921
1 922
1 923
1 924
1 925
1 926
1 927
1 928
1 929
1 930
1 931
1 932
1 933
1 934
1 935
1 936
1 937
1 938
1 939
1 940
1 941
1 942
1 943
1 944
1 945
1 946
1 947
1 948
1 949
1 950
1 951
1 952
1 953
1 954
1 955
1 956
1 957
1 958
1 959
1 960
1 961
1 962
1 963
1 964
1 965
1 966
1 967
1 968
1 969
1 970
1 971
1 972
1 973
1 974
1 975
1 976
1 977
1 978
1 979
1 980
1 981
1 982
1 983
1 984
1 985
1 986
1 987
1 988
1 989
1 990
1 991
1 992
1 993
1 994
1 995
1 996
1 997
1 998
1 999
1 1000
1 1001
1 1002
1 1003
1 1004
1 1005
1 1006
1 1007
1 1008
1 1009
1 1010
1 1011
1 1012
1 1013
1 1014
1 1015
1 1016
1 1017
1 1018
1 1019
1 1020
1 1021
1 1022
1 1023
1 1024
1 1025
1 1026
1 1027
1 1028
1 1029
1 1030
1 1031
1 1032
1 1033
1 1034
1 1035
1 1036
1 1037
1 1038
1 1039
1 1040
1 1041
1 1042
1 1043
1 1044
1 1045
1 1046
1 1047
1 1048
1 1049
1 1050
1 1051
1 1052
1 1053
1 1054
1 1055
1 1056
1 1057
1 1058
1 1059
1 1060
1 1061
1 1062
1 1063
1 1064
1 1065
1 1066
1 1067
1 1068
1 1069
1 1070
1 1071
1 1072
1 1073
1 1074
1 1075
1 1076
1 1077
1 1078
1 1079
1 1080
1 1081
1 1082
1 1083
1 1084
1 1085
1 1086
1 1087
1 1088
1 1089
1 1090
1 1091
1 1092
1 1093
1 1094
1 1095
1 1096
1 1097
1 1098
1 1099
1 1100
1 1101
1 1102
1 1103
1 1104
1 1105
1 1106
1 1107
1 1108
1 1109
1 1110
1 1111
1 1112
1 1113
1 1114
1 1115
1 1116
1 1117
1 1118
1 1119
1 1120
1 1121
1 1122
1 1123
1 1124
1 1125
1 1126
1 1127
1 1128
1 1129
1 1130
1 1131
1 1132
1 1133
1 1134
1 1135
1 1136
1 1137
1 1138
1 1139
1 1140
1 1141
1 1142
1 1143
1 1144
1 1145
1 1146
1 1147
1 1148
1 1149
1 1150
1 1151
1 1152
1 1153
1 1154
1 1155
1 1156
1 1157
1 1158
1 1159
1 1160
1 1161
1 1162
1 1163
1 1164
1 1165
1 1166
1 1167
1 1168
1 1169
1 1170
1 1171
1 1172
1 1173
1 1174
1 1175
1 1176
1 1177
1 1178
1 1179
1 1180
1 1181
1 1182
1 1183
1 1184
1 1185
1 1186
1 1187
1 1188
1 1189
1 1190
1 1191
1 1192
1 1193
1 1194
1 1195
1 1196
1 1197
1 1198
1 1199
1 1200
1 1201
1 1202
1 1203
1 1204
1 1205
1 1206
1 1207
1 1208
1 1209
1 1210
1 1211
1 1212
1 1213
1 1214
1 1215
1 1216
1 1217
1 1218
1 1219
1 1220
1 1221
1 1222
1 1223
1 1224
1 1225
1 1226
1 1227
1 1228
1 1229
1 1230
1 1231
1 1232
1 1233
1 1234
1 1235
1 1236
1 1237
1 1238
1 1239
1 1240
1 1241
1 1242
1 1243
1 1244
1 1245
1 1246
1 1247
1 1248
1 1249
1 1250
1 1251
1 1252
1 1253
1 1254
1 1255
1 1256
1 1257
1 1258
1 1259
1 1260
1 1261
1 1262
1 1263
1 1264
1 1265
1 1266
1 1267
1 1268
1 1269
1 1270
1 1271
1 1272
1 1273
1 1274
1 1275
1 1276
1 1277
1 1278
1 1279
1 1280
1 1281
1 1282
1 1283
1 1284
1 1285
1 1286
1 1287
1 1288
1 1289
1 1290
1 1291
1 1292
1 1293
1 1294
1 1295
1 1296
1 1297
1 1298
1 1299
1 1300
1 1301
1 1302
1 1303
1 1304
1 1305
1 1306
1 1307
1 1308
1 1309
1 1310
1 1311
1 1312
1 1313
1 1314
1 1315
1 1316
1 1317
1 1318
1 1319
1 1320
1 1321
1 1322
1 1323
1 1324
1 1325
1 1326
1 1327
1 1328
1 1329
1 1330
1 1331
1 1332
1 1333
1 1334
1 1335
1 1336
1 1337
1 1338
1 1339
1 1340
1 1341
1 1342
1 1343
1 1344
1 1345
1 1346
1 1347
1 1348
1 1349
1 1350
1 1351
1 1352
1 1353
1 1354
1 1355
1 1356
1 1357
1 1358
1 1359
1 1360
1 1361
1 1362
1 1363
1 1364
1 1365
1 1366
1 1367
1 1368
1 1369
1 1370
1 1371
1 1372
1 1373
1 1374
1 1375
1 1376
1 1377
1 1378
1 1379
1 1380
1 1381
1 1382
1 1383
1 1384
1 1385
1 1386
1 1387
1 1388
1 1389
1 1390
1 1391
1 1392
1 1393
1 1394
1 1395
1 1396
1 1397
1 1398
1 1399
1 1400
1 1401
1 1402
1 1403
1 1404
1 1405
1 1406
1 1407
1 1408
1 1409
1 1410
1 1411
1 1412
1 1413
1 1414
1 1415
1 1416
1 1417
1 1418
1 1419
1 1420
1 1421
1 1422
1 1423
1 1424
1 1425
1 1426
1 1427
1 1428
1 1429
1 1430
1 1431
1 1432
1 1433
1 1434
1 1435
1 1436
1 1437
1 1438
1 1439
1 1440
1 1441
1 1442
1 1443
1 1444
1 1445
1 1446
1 1447
1 1448
1 1449
1 1450
1 1451
1 1452
1 1453
1 1454
1 1455
1 1456
1 1457
1 1458
1 1459
1 1460
1 1461
1 1462
1 1463
1 1464
1 1465
1 1466
1 1467
1 1468
1 1469
1 1470
1 1471
1 1472
1 1473
1 1474
1 1475
1 1476
1 1477
1 1478
1 1479
1 1480
1 1481
1 1482
1 1483
1 1484
1 1485
1 1486
1 1487
1 1488
1 1489
1 1490
1 1491
1 1492
1 1493
1 1494
1 1495
1 1496
1 1497
1 1498
1 1499
1 1500
1 1501
1 1502
1 1503
1 1504
1 1505
1 1506
1 1507
1 1508
1 1509
1 1510
1 1511
1 1512
1 1513
1 1514
1 1515
1 1516
1 1517
1 1518
1 1519
1 1520
1 1521
1 1522
1 1523
1 1524
1 1525
1 1526
1 1527
1 1528
1 1529
1 1530
1 1531
1 1532
1 1533
1 1534
1 1535
1 1536
1 1537
1 1538
1 1539
1 1540
1 1541
1 1542
1 1543
1 1544
1 1545
1 1546
1 1547
1 1548
1 1549
1 1550
1 1551
1 1552
1 1553
1 1554
1 1555
1 1556
1 1557
1 1558
1 1559
1 1560
1 1561
1 1562
1 1563
1 1564
1 1565
1 1566
1 1567
1 1568
1 1569
1 1570
1 1571
1 1572
1 1573
1 1574
1 1575
1 1576
1 1577
1 1578
1 1579
1 1580
1 1581
1 1582
1 1583
1 1584
1 1585
1 1586
1 1587
1 1588
1 1589
1 1590
1 1591
1 1592
1 1593
1 1594
1 1595
1 1596
1 1597
1 1598
1 1599
1 1600
1 1601
1 1602
1 1603
1 1604
1 1605
1 1606
1 1607
1 1608
1 1609
1 1610
1 1611
1 1612
1 1613
1 1614
1 1615
1 1616
1 1617
1 1618
1 1619
1 1620
1 1621
1 1622
1 1623
1 1624
1 1625
1 1626
1 1627
1 1628
1 1629
1 1630
1 1631
1 1632
1 1633
1 1634
1 1635
1 1636
1 1637
1 1638
1 1639
1 1640
1 1641
1 1642
1 1643
1 1644
1 1645
1 1646
1 1647
1 1648
1 1649
1 1650
1 1651
1 1652
1 1653
1 1654
1 1655
1 1656
1 1657
1 1658
1 1659
1 1660
1 1661
1 1662
1 1663
1 1664
1 1665
1 1666
1 1667
1 1668
1 1669
1 1670
1 1671
1 1672
1 1673
1 1674
1 1675
1 1676
1 1677
1 1678
1 1679
1 1680
1 1681
1 1682
1 1683
1 1684
1 1685
1 1686
1 1687
1 1688
1 1689
1 1690
1 1691
1 1692
1 1693
1 1694
1 1695
1 1696
1 1697
1 1698
1 1699
1 1700
1 1701
1 1702
1 1703
1 1704
1 1705
1 1706
1 1707
1 1708
1 1709
1 1710
1 1711
1 1712
1 1713
1 1714
1 1715
1 1716
1 1717
1 1718
1 1719
1 1720
1 1721
1 1722
1 1723
1 1724
1 1725
1 1726
1 1727
1 1728
1 1729
1 1730
1 1731
1 1732
1 1733
1 1734
1 1735
1 1736
1 1737
1 1738
1 1739
1 1740
1 1741
1 1742
1 1743
1 1744
1 1745
1 1746
1 1747
1 1748
1 1749
1 1750
1 1751
1 1752
1 1753
1 1754
1 1755
1 1756
1 1757
1 1758
1 1759
1 1760
1 1761
1 1762
1 1763
1 1764
1 1765
1 1766
1 1767
1 1768
1 1769
1 1770
1 1771
1 1772
1 1773
1 1774
1 1775
1 1776
1 1777
1 1778
1 1779
1 1780
1 1781
1 1782
1 1783
1 1784
1 1785
1 1786
1 1787
1 1788
1 1789
1 1790
1 1791
1 1792
1 1793
1 1794
1 1795
1 1796
1 1797
1 1798
1 1799
1 1800
1 1801
1 1802
1 1803
1 1804
1 1805
1 1806
1 1807
1 1808
1 1809
1 1810
1 1811
1 1812
1 1813
1 1814
1 1815
1 1816
1 1817
1 1818
1 1819
1 1820
1 1821
1 1822
1 1823
1 1824
1 1825
1 1826
1 1827
1 1828
1 1829
1 1830
1 1831
1 1832
1 1833
1 1834
1 1835
1 1836
1 1837
1 1838
1 1839
1 1840
1 1841
1 1842
1 1843
1 1844
1 1845
1 1846
1 1847
1 1848
1 1849
1 1850
1 1851
1 1852
1 1853
1 1854
1 1855
1 1856
1 1857
1 1858
1 1859
1 1860
1 1861
1 1862
1 1863
1 1864
1 1865
1 1866
1 1867
1 1868
1 1869
1 1870
1 1871
1 1872
1 1873
1 1874
1 1875
1 1876
1 1877
1 1878
1 1879
1 1880
1 1881
1 1882
1 1883
1 1884
1 1885
1 1886
1 1887
1 1888
1 1889
1 1890
1 1891
1 1892
1 1893
1 1894
1 1895
1 1896
1 1897
1 1898
1 1899
1 1900
1 1901
1 1902
1 1903
1 1904
1 1905
1 1906
1 1907
1 1908
1 1909
1 1910
1 1911
1 1912
1 1913
1 1914
1 1915
1 1916
1 1917
1 1918
1 1919
1 1920
1 1921
1 1922
1 1923
1 1924
1 1925
1 1926
1 1927
1 1928
1 1929
1 1930
1 1931
1 1932
1 1933
1 1934
1 1935
1 1936
1 1937
1 1938
1 1939
1 1940
1 1941
1 1942
1 1943
1 1944
1 1945
1 1946
1 1947
1 1948
1 1949
1 1950
1 1951
1 1952
1 1953
1 1954
1 1955
1 1956
1 1957
1 1958
1 1959
1 1960
1 1961
1 1962
1 1963
1 1964
1 1965
1 1966
1 1967
1 1968
1 1969
1 1970
1 1971
1 1972
1 1973
1 1974
1 1975
1 1976
1 1977
1 1978
1 1979
1 1980
1 1981
1 1982
1 1983
1 1984
1 1985
1 1986
1 1987
1 1988
1 1989
1 1990
1 1991
1 1992
1 1993
1 1994
1 1995
1 1996
1 1997
1 1998
1 1999
1 2000
1 2001
1 2002
1 2003
1 2004
1 2005
1 2006
1 2007
1 2008
1 2009
1 2010
1 2011
1 2012
1 2013
1 2014
1 2015
1 2016
1 2017
1 2018
1 2019
1 2020
1 2021
1 2022
1 2023
1 2024
1 2025
1 2026
1 2027
1 2028
1 2029
1 2030
1 2031
1 2032
1 2033
1 2034
1 2035
1 2036
1 2037
1 2038
1 2039
1 2040
1 2041
1 2042
1 2043
1 2044
1 2045
1 2046
1 2047
1 2048
1 2049
1 2050
1 2051
1 2052
1 2053
1 2054
1 2055
1 2056
1 2057
1 2058
1 2059
1 2060
1 2061
1 2062
1 2063
1 2064
1 2065
1 2066
1 2067
1 2068
1 2069
1 2070
1 2071
1 2072
1 2073
1 2074
1 2075
1 2076
1 2077
1 2078
1 2079
1 2080
1 2081
1 2082
1 2083
1 2084
1 2085
1 2086
1 2087
1 2088
1 2089
1 2090
1 2091
1 2092
1 2093
1 2094
1 2095
1 2096
1 2097
1 2098
1 2099
1 2100
1 2101
1 2102
1 2103
1 2104
1 2105
1 2106
1 2107
1 2108
1 2109
1 2110
1 2111
1 2112
1 2113
1 2114
1 2115
1 2116
1 2117
1 2118
1 2119
1 2120
1 2121
1 2122
1 2123
1 2124
1 2125
1 2126
1 2127
1 2128
1 2129
1 2130
1 2131
1 2132
1 2133
1 2134
1 2135
1 2136
1 2137
1 2138
1 2139
1 2140
1 2141
1 2142
1 2143
1 2144
1 2145
1 2146
1 2147
1 2148
1 2149
1 2150
1 2151
1 2152
1 2153
1 2154
1 2155
1 2156
1 2157
1 2158
1 2159
1 2160
1 2161
1 2162
1 2163
1 2164
1 2165
1 2166
1 2167
1 2168
1 2169
1 2170
1 2171
1 2172
1 2173
1 2174
1 2175
1 2176
1 2177
1 2178
1 2179
1 2180
1 2181
1 2182
1 2183
1 2184
1 2185
1 2186
1 2187
1 2188
1 2189
1 2190
1 2191
1 2192
1 2193
1 2194
1 2195
1 2196
1 2197
1 2198
1 2199
1 2200
1 2201
1 2202
1 2203
1 2204
1 2205
1 2206
1 2207
1 2208
1 2209
1 2210
1 2211
1 2212
1 2213
1 2214
1 2215
1 2216
1 2217
1 2218
1 2219
1 2220
1 2221
1 2222
1 2223
1 2224
1 2225
1 2226
1 2227
1 2228
1 2229
1 2230
1 2231
1 2232
1 2233
1 2234
1 2235
1 2236
1 2237
1 2238
1 2239
1 2240
1 2241
1 2242
1 2243
1 2244
1 2245
1 2246
1 2247
1 2248
1 2249
1 2250
1 2251
1 2252
1 2253
1 2254
1 2255
1 2256
1 2257
1 2258
1 2259
1 2260
1 2261
1 2262
1 2263
1 2264
1 2265
1 2266
1 2267
1 2268
1 2269
1 2270
1 2271
1 2272
1 2273
1 2274
1 2275
1 2276
1 2277
1 2278
1 2279
1 2280
1 2281
1 2282
1 2283
1 2284
1 2285
1 2286
1 2287
1 2288
1 2289
1 2290
1 2291
1 2292
1 2293
1 2294
1 2295
1 2296
1 2297
1 2298
1 2299
1 2300
1 2301
1 2302
1 2303
1 2304
1 2305
1 2306
1 2307
1 2308
1 2309
1 2310
1 2311
1 2312
1 2313
1 2314
1 2315
1 2316
1 2317
1 2318
1 2319
1 2320
1 2321
1 2322
1 2323
1 2324
1 2325
1 2326
1 2327
1 2328
1 2329
1 2330
1 2331
1 2332
1 2333
1 2334
1 2335
1 2336
1 2337
1 2338
1 2339
1 2340
1 2341
1 2342
1 2343
1 2344
1 2345
1 2346
1 2347
1 2348
1 2349
1 2350
1 2351
1 2352
1 2353
1 2354
1 2355
1 2356
1 2357
1 2358
1 2359
1 2360
1 2361
1 2362
1 2363
1 2364
1 2365
1 2366
1 2367
1 2368
1 2369
1 2370
1 2371
1 2372
1 2373
1 2374
1 2375
1 2376
1 2377
1 2378
1 2379
1 2380
1 2381
1 2382
1 2383
1 2384
1 2385
1 2386
1 2387
1 2388
1 2389
1 2390
1 2391
1 2392
1 2393
1 2394
1 2395
1 2396
1 2397
1 2398
1 2399
1 2400
1 2401
1 2402
1 2403
1 2404
1 2405
1 2406
1 2407
1 2408
1 2409
1 2410
1 2411
1 2412
1 2413
1 2414
1 2415
1 2416
1 2417
1 2418
1 2419
1 2420
1 2421
1 2422
1 2423
1 2424
1 2425
1 2426
1 2427
1 2428
1 2429
1 2430
1 2431
1 2432
1 2433
1 2434
1 2435
1 2436
1 2437
1 2438
1 2439
1 2440
1 2441
1 2442
1 2443
1 2444
1 2445
1 2446
1 2447
1 2448
1 2449
1 2450
1 2451
1 2452
1 2453
1 2454
1 2455
1 2456
1 2457
1 2458
1 2459
1 2460
1 2461
1 2462
1 2463
1 2464
1 2465
1 2466
1 2467
1 2468
1 2469
1 2470
1 2471
1 2472
1 2473
1 2474
1 2475
1 2476
1 2477
1 2478
1 2479
1 2480
1 2481
1 2482
1 2483
1 2484
1 2485
1 2486
1 2487
1 2488
1 2489
1 2490
1 2491
1 2492
1 2493
1 2494
1 2495
1 2496
1 2497
1 2498
1 2499
1 2500
1 2501
1 2502
1 2503
1 2504
1 2505
1 2506
1 2507
1 2508
1 2509
1 2510
1 2511
1 2512
1 2513
1 2514
1 2515
1 2516
1 2517
1 2518
1 2519
1 2520
1 2521
1 2522
1 2523
1 2524
1 2525
1 2526
1 2527
1 2528
1 2529
1 2530
1 2531
1 2532
1 2533
1 2534
1 2535
1 2536
1 2537
1 2538
1 2539
1 2540
1 2541
1 2542
1 2543
1 2544
1 2545
1 2546
1 2547
1 2548
1 2549
1 2550
1 2551
1 2552
1 2553
1 2554
1 2555
1 2556
1 2557
1 2558
1 2559
1 2560
1 2561
1 2562
1 2563
1 2564
1 2565
1 2566
1 2567
1 2568
1 2569
1 2570
1 2571
1 2572
1 2573
1 2574
1 2575
1 2576
1 2577
1 2578
1 2579
1 2580
1 2581
1 2582
1 2583
1 2584
1 2585
1 2586
1 2587
1 2588
1 2589
1 2590
1 2591
1 2592
1 2593
1 2594
1 2595
1 2596
1 2597
1 2598
1 2599
1 2600
1 2601
1 2602
1 2603
1 2604
1 2605
1 2606
1 2607
1 2608
1 2609
1 2610
1 2611
1 2612
1 2613
1 2614
1 2615
1 2616
1 2617
1 2618
1 2619
1 2620
1 2621
1 2622
1 2623
1 2624
1 2625
1 2626
1 2627
1 2628
1 2629
1 2630
1 2631
1 2632
1 2633
1 2634
1 2635
1 2636
1 2637
1 2638
1 2639
1 2640
1 2641
1 2642
1 2643
1 2644
1 2645
1 2646
1 2647
1 2648
1 2649
1 2650
1 2651
1 2652
1 2653
1 2654
1 2655
1 2656
1 2657
1 2658
1 2659
1 2660
1 2661
1 2662
1 2663
1 2664
1 2665
1 2666
1 2667
1 2668
1 2669
1 2670
1 2671
1 2672
1 2673
1 2674
1 2675
1 2676
1 2677
1 2678
1 2679
1 2680
1 2681
1 2682
1 2683
1 2684
1 2685
1 2686
1 2687
1 2688
1 2689
1 2690
1 2691
1 2692
1 2693
1 2694
1 2695
1 2696
1 2697
1 2698
1 2699
1 2700
1 2701
1 2702
1 2703
1 2704
1 2705
1 2706
1 2707
1 2708
1 2709
1 2710
1 2711
1 2712
1 2713
1 2714
1 2715
1 2716
1 2717
1 2718
1 2719
1 2720
1 2721
1 2722
1 2723
1 2724
1 2725
1 2726
1 2727
1 2728
1 2729
1 2730
1 2731
1 2732
1 2733
1 2734
1 2735
1 2736
1 2737
1 2738
1 2739
1 2740
1 2741
1 2742
1 2743
1 2744
1 2745
1 2746
1 2747
1 2748
1 2749
1 2750
1 2751
1 2752
1 2753
1 2754
1 2755
1 2756
1 2757
1 2758
1 2759
1 2760
1 2761
1 2762
1 2763
1 2764
1 2765
1 2766
1 2767
1 2768
1 2769
1 2770
1 2771
1 2772
1 2773
1 2774
1 2775
1 2776
1 2777
1 2778
1 2779
1 2780
1 2781
1 2782
1 2783
1 2784
1 2785
1 2786
1 2787
1 2788
1 2789
1 2790
1 2791
1 2792
1 2793
1 2794
1 2795
1 2796
1 2797
1 2798
1 2799
1 2800
1 2801
1 2802
1 2803
1 2804
1 2805
1 2806
1 2807
1 2808
1 2809
1 2810
1 2811
1 2812
1 2813
1 2814
1 2815
1 2816
1 2817
1 2818
1 2819
1 2820
1 2821
1 2822
1 2823
1 2824
1 2825
1 2826
1 2827
1 2828
1 2829
1 2830
1 2831
1 2832
1 2833
1 2834
1 2835
1 2836
1 2837
1 2838
1 2839
1 2840
1 2841
1 2842
1 2843
1 2844
1 2845
1 2846
1 2847
1 2848
1 2849
1 2850
1 2851
1 2852
1 2853
1 2854
1 2855
1 2856
1 2857
1 2858
1 2859
1 2860
1 2861
1 2862
1 2863
1 2864
1 2865
1 2866
1 2867
1 2868
1 2869
1 2870
1 2871
1 2872
1 2873
1 2874
1 2875
1 2876
1 2877
1 2878
1 2879
1 2880
1 2881
1 2882
1 2883
1 2884
1 2885
1 2886
1 2887
1 2888
1 2889
1 2890
1 2891
1 2892
1 2893
1 2894
1 2895
1 2896
1 2897
1 2898
1 2899
1 2900
1 2901
1 2902
1 2903
1 2904
1 2905
1 2906
1 2907
1 2908
1 2909
1 2910
1 2911
1 2912
1 2913
1 2914
1 2915
1 2916
1 2917
1 2918
1 2919
1 2920
1 2921
1 2922
1 2923
1 2924
1 2925
1 2926
1 2927
1 2928
1 2929
1 2930
1 2931
1 2932
1 2933
1 2934
1 2935
1 2936
1 2937
1 2938
1 2939
1 2940
1 2941
1 2942
1 2943
1 2944
1 2945
1 2946
1 2947
1 2948
1 2949
1 2950
1 2951
1 2952
1 2953
1 2954
1 2955
1 2956
1 2957
1 2958
1 2959
1 2960
1 2961
1 2962
1 2963
1 2964
1 2965
1 2966
1 2967
1 2968
1 2969
1 2970
1 2971
1 2972
1 2973
1 2974
1 2975
1 2976
1 2977
1 2978
1 2979
1 2980
1 2981
1 2982
1 2983
1 2984
1 2985
1 2986
1 2987
1 2988
1 2989
1 2990
1 2991
1 2992
1 2993
1 2994
1 2995
1 2996
1 2997
1 2998
1 2999
1 3000
1 3001
1 3002
1 3003
1 3004
1 3005
1 3006
1 3007
1 3008
1 3009
1 3010
1 3011
1 3012
1 3013
1 3014
1 3015
1 3016
1 3017
1 3018
1 3019
1 3020
1 3021
1 3022
1 3023
1 3024
1 3025
1 3026
1 3027
1 3028
1 3029
1 3030
1 3031
1 3032
1 3033
1 3034
1 3035
1 3036
1 3037
1 3038
1 3039
1 3040
1 3041
1 3042
1 3043
1 3044
1 3045
1 3046
1 3047
1 3048
1 3049
1 3050
1 3051
1 3052
1 3053
1 3054
1 3055
1 3056
1 3057
1 3058
1 3059
1 3060
1 3061
1 3062
1 3063
1 3064
1 3065
1 3066
1 3067
1 3068
1 3069
1 3070
1 3071
1 3072
1 3073
1 3074
1 3075
1 3076
1 3077
1 3078
1 3079
1 3080
1 3081
1 3082
1 3083
1 3084
1 3085
1 3086
1 3087
1 3088
1 3089
1 3090
1 3091
1 3092
1 3093
1 3094
1 3095
1 3096
1 3097
1 3098
1 3099
1 3100
1 3101
1 3102
1 3103
1 3104
1 3105
1 3106
1 3107
1 3108
1 3109
1 3110
1 3111
1 3112
1 3113
1 3114
1 3115
1 3116
1 3117
1 3118
1 3119
1 3120
1 3121
1 3122
1 3123
1 3124
1 3125
1 3126
1 3127
1 3128
1 3129
1 3130
1 3131
1 3132
1 3133
1 3134
1 3135
1 3136
1 3137
1 3138
1 3139
1 3140
1 3141
1 3142
1 3143
1 3144
1 3145
1 3146
1 3147
1 3148
1 3149
1 3150
1 3151
1 3152
1 3153
1 3154
1 3155
1 3156
1 3157
1 3158
1 3159
1 3160
1 3161
1 3162
1 3163
1 3164
1 3165
1 3166
1 3167
1 3168
1 3169
1 3170
1 3171
1 3172
1 3173
1 3174
1 3175
1 3176
1 3177
1 3178
1 3179
1 3180
1 3181
1 3182
1 3183
1 3184
1 3185
1 3186
1 3187
1 3188
1 3189
1 3190
1 3191
1 3192
1 3193
1 3194
1 3195
1 3196
1 3197
1 3198
1 3199
1 3200
1 3201
1 3202
1 3203
1 3204
1 3205
1 3206
1 3207
1 3208
1 3209
1 3210
1 3211
1 3212
1 3213
1 3214
1 3215
1 3216
1 3217
1 3218
1 3219
1 3220
1 3221
1 3222
1 3223
1 3224
1 3225
1 3226
1 3227
1 3228
1 3229
1 3230
1 3231
1 3232
1 3233
1 3234
1 3235
1 3236
1 3237
1 3238
1 3239
1 3240
1 3241
1 3242
1 3243
1 3244
1 3245
1 3246
1 3247
1 3248
1 3249
1 3250
1 3251
1 3252
1 3253
1 3254
1 3255
1 3256
1 3257
1 3258
1 3259
1 3260
1 3261
1 3262
1 3263
1 3264
1 3265
1 3266
1 3267
1 3268
1 3269
1 3270
1 3271
1 3272
1 3273
1 3274
1 3275
1 3276
1 3277
1 3278
1 3279
1 3280
1 3281
1 3282
1 3283
1 3284
1 3285
1 3286
1 3287
1 3288
1 3289
1 3290
1 3291
1 3292
1 3293
1 3294
1 3295
1 3296
1 3297
1 3298
1 3299
1 3300
1 3301
1 3302
1 3303
1 3304
1 3305
1 3306
1 3307
1 3308
1 3309
1 3310
1 3311
1 3312
1 3313
1 3314
1 3315
1 3316
1 3317
1 3318
1 3319
1 3320
1 3321
1 3322
1 3323
1 3324
1 3325
1 3326
1 3327
1 3328
1 3329
1 3330
1 3331
1 3332
1 3333
1 3334
1 3335
1 3336
1 3337
1 3338
1 3339
1 3340
1 3341
1 3342
1 3343
1 3344
1 3345
1 3346
1 3347
1 3348
1 3349
1 3350
1 3351
1 3352
1 3353
1 3354
1 3355
1 3356
1 3357
1 3358
1 3359
1 3360
1 3361
1 3362
1 3363
1 3364
1 3365
1 3366
1 3367
1 3368
1 3369
1 3370
1 3371
1 3372
1 3373
1 3374
1 3375
1 3376
1 3377
1 3378
1 3379
1 3380
1 3381
1 3382
1 3383
1 3384
1 3385
1 3386
1 3387
1 3388
1 3389
1 3390
1 3391
1 3392
1 3393
1 3394
1 3395
1 3396
1 3397
1 3398
1 3399
1 3400
1 3401
1 3402
1 3403
1 3404
1 3405
1 3406
1 3407
1 3408
1 3409
1 3410
1 3411
1 3412
1 3413
1 3414
1 3415
1 3416
1 3417
1 3418
1 3419
1 3420
1 3421
1 3422
1 3423
1 3424
1 3425
1 3426
1 3427
1 3428
1 3429
1 3430
1 3431
1 3432
1 3433
1 3434
1 3435
1 3436
1 3437
1 3438
1 3439
1 3440
1 3441
1 3442
1 3443
1 3444
1 3445
1 3446
1 3447
1 3448
1 3449
1 3450
1 3451
1 3452
1 3453
1 3454
1 3455
1 3456
1 3457
1 3458
1 3459
1 3460
1 3461
1 3462
1 3463
1 3464
1 3465
1 3466
1 3467
1 3468
1 3469
1 3470
1 3471
1 3472
1 3473
1 3474
1 3475
1 3476
1 3477
1 3478
1 3479
1 3480
1 3481
1 3482
1 3483
1 3484
1 3485
1 3486
1 3487
1 3488
1 3489
1 3490
1 3491
1 3492
1 3493
1 3494
1 3495
1 3496
1 3497
1 3498
1 3499
1 3500
1 3501
1 3502
1 3503
1 3504
1 3505
1 3506
1 3507
1 3508
1 3509
1 3510
1 3511
1 3512
1 3513
1 3514
1 3515
1 3516
1 3517
1 3518
1 3519
1 3520
1 3521
1 3522
1 3523
1 3524
1 3525
1 3526
1 3527
1 3528
1 3529
1 3530
1 3531
1 3532
1 3533
1 3534
1 3535
1 3536
1 3537
1 3538
1 3539
1 3540
1 3541
1 3542
1 3543
1 3544
1 3545
1 3546
1 3547
1 3548
1 3549
1 3550
1 3551
1 3552
1 3553
1 3554
1 3555
1 3556
1 3557
1 3558
1 3559
1 3560
1 3561
1 3562
1 3563
1 3564
1 3565
1 3566
1 3567
1 3568
1 3569
1 3570
1 3571
1 3572
1 3573
1 3574
1 3575
1 3576
1 3577
1 3578
1 3579
1 3580
1 3581
1 3582
1 3583
1 3584
1 3585
1 3586
1 3587
1 3588
1 3589
1 3590
1 3591
1 3592
1 3593
1 3594
1 3595
1 3596
1 3597
1 3598
1 3599
1 3600
1 3601
1 3602
1 3603
1 3604
1 3605
1 3606
1 3607
1 3608
1 3609
1 3610
1 3611
1 3612
1 3613
1 3614
1 3615
1 3616
1 3617
1 3618
1 3619
1 3620
1 3621
1 3622
1 3623
1 3624
1 3625
1 3626
1 3627
1 3628
1 3629
1 3630
1 3631
1 3632
1 3633
1 3634
1 3635
1 3636
1 3637
1 3638
1 3639
1 3640
1 3641
1 3642
1 3643
1 3644
1 3645
1 3646
1 3647
1 3648
1 3649
1 3650
1 3651
1 3652
1 3653
1 3654
1 3655
1 3656
1 3657
1 3658
1 3659
1 3660
1 3661
1 3662
1 3663
1 3664
1 3665
1 3666
1 3667
1 3668
1 3669
1 3670
1 3671
1 3672
1 3673
1 3674
1 3675
1 3676
1 3677
1 3678
1 3679
1 3680
1 3681
1 3682
1 3683
1 3684
1 3685
1 3686
1 3687
1 3688
1 3689
1 3690
1 3691
1 3692
1 3693
1 3694
1 3695
1 3696
1 3697
1 3698
1 3699
1 3700
1 3701
1 3702
1 3703
1 3704
1 3705
1 3706
1 3707
1 3708
1 3709
1 3710
1 3711
1 3712
1 3713
1 3714
1 3715
1 3716
1 3717
1 3718
1 3719
1 3720
1 3721
1 3722
1 3723
1 3724
1 3725
1 3726
1 3727
1 3728
1 3729
1 3730
1 3731
1 3732
1 3733
1 3734
1 3735
1 3736
1 3737
1 3738
1 3739
1 3740
1 3741
1 3742
1 3743
1 3744
1 3745
1 3746
1 3747
1 3748
1 3749
1 3750
1 3751
1 3752
1 3753
1 3754
1 3755
1 3756
1 3757
1 3758
1 3759
1 3760
1 3761
1 3762
1 3763
1 3764
1 3765
1 3766
1 3767
1 3768
1 3769
1 3770
1 3771
1 3772
1 3773
1 3774
1 3775
1 3776
1 3777
1 3778
1 3779
1 3780
1 3781
1 3782
1 3783
1 3784
1 3785
1 3786
1 3787
1 3788
1 3789
1 3790
1 3791
1 3792
1 3793
1 3794
1 3795
1 3796
1 3797
1 3798
1 3799
1 3800
1 3801
1 3802
1 3803
1 3804
1 3805
1 3806
1 3807
1 3808
1 3809
1 3810
1 3811
1 3812
1 3813
1 3814
1 3815
1 3816
1 3817
1 3818
1 3819
1 3820
1 3821
1 3822
1 3823
1 3824
1 3825
1 3826
1 3827
1 3828
1 3829
1 3830
1 3831
1 3832
1 3833
1 3834
1 3835
1 3836
1 3837
1 3838
1 3839
1 3840
1 3841
1 3842
1 3843
1 3844
1 3845
1 3846
1 3847
1 3848
1 3849
1 3850
1 3851
1 3852
1 3853
1 3854
1 3855
1 3856
1 3857
1 3858
1 3859
1 3860
1 3861
1 3862
1 3863
1 3864
1 3865
1 3866
1 3867
1 3868
1 3869
1 3870
1 3871
1 3872
1 3873
1 3874
1 3875
1 3876
1 3877
1 3878
1 3879
1 3880
1 3881
1 3882
1 3883
1 3884
1 3885
1 3886
1 3887
1 3888
1 3889
1 3890
1 3891
1 3892
1 3893
1 3894
1 3895
1 3896
1 3897
1 3898
1 3899
1 3900
1 3901
1 3902
1 3903
1 3904
1 3905
1 3906
1 3907
1 3908
1 3909
1 3910
1 3911
1 3912
1 3913
1 3914
1 3915
1 3916
1 3917
1 3918
1 3919
1 3920
1 3921
1 3922
1 3923
1 3924
1 3925
1 3926
1 3927
1 3928
1 3929
1 3930
1 3931
1 3932
1 3933
1 3934
1 3935
1 3936
1 3937
1 3938
1 3939
1 3940
1 3941
1 3942
1 3943
1 3944
1 3945
1 3946
1 3947
1 3948
1 3949
1 3950
1 3951
1 3952
1 3953
1 3954
1 3955
1 3956
1 3957
1 3958
1 3959
1 3960
1 3961
1 3962
1 3963
1 3964
1 3965
1 3966
1 3967
1 3968
1 3969
1 3970
1 3971
1 3972
1 3973
1 3974
1 3975
1 3976
1 3977
1 3978
1 3979
1 3980
1 3981
1 3982
1 3983
1 3984
1 3985
1 3986
1 3987
1 3988
1 3989
1 3990
1 3991
1 3992
1 3993
1 3994
1 3995
1 3996
1 3997
1 3998
1 3999
1 4000
1 4001
1 4002
1 4003
1 4004
1 4005
1 4006
1 4007
1 4008
1 4009
1 4010
1 4011
1 4012
1 4013
1 4014
1 4015
1 4016
1 4017
1 4018
1 4019
1 4020
1 4021
1 4022
1 4023
1 4024
1 4025
1 4026
1 4027
1 4028
1 4029
1 4030
1 4031
1 4032
1 4033
1 4034
1 4035
1 4036
1 4037
1 4038
1 4039
1 4040
1 4041
1 4042
1 4043
1 4044
1 4045
1 4046
1 4047
1 4048
1 4049
1 4050
1 4051
1 4052
1 4053
1 4054
1 4055
1 4056
1 4057
1 4058
1 4059
1 4060
1 4061
1 4062
1 4063
1 4064
1 4065
1 4066
1 4067
1 4068
1 4069
1 4070
1 4071
1 4072
1 4073
1 4074
1 4075
1 4076
1 4077
1 4078
1 4079
1 4080
1 4081
1 4082
1 4083
1 4084
1 4085
1 4086
1 4087
1 4088
1 4089
1 4090
1 4091
1 4092
1 4093
1 4094
1 4095
1 4096
1 4097
1 4098
1 4099
1 4100
1 4101
1 4102
1 4103
1 4104
1 4105
1 4106
1 4107
1 4108
1 4109
1 4110
1 4111
1 4112
1 4113
1 4114
1 4115
1 4116
1 4117
1 4118
1 4119
1 4120
1 4121
1 4122
1 4123
1 4124
1 4125
1 4126
1 4127
1 4128
1 4129
1 4130
1 4131
1 4132
1 4133
1 4134
1 4135
1 4136
1 4137
1 4138
1 4139
1 4140
1 4141
1 4142
1 4143
1 4144
1 4145
1 4146
1 4147
1 4148
1 4149
1 4150
1 4151
1 4152
1 4153
1 4154
1 4155
1 4156
1 4157
1 4158
1 4159
1 4160
1 4161
1 4162
1 4163
1 4164
1 4165
1 4166
1 4167
1 4168
1 4169
1 4170
1 4171
1 4172
1 4173
1 4174
1 4175
1 4176
1 4177
1 4178
1 4179
1 4180
1 4181
1 4182
1 4183
1 4184
1 4185
1 4186
1 4187
1 4188
1 4189
1 4190
1 4191
1 4192
1 4193
1 4194
1 4195
1 4196
1 4197
1 4198
1 4199
1 4200
1 4201
1 4202
1 4203
1 4204
1 4205
1 4206
1 4207
1 4208
1 4209
1 4210
1 4211
1 4212
1 4213
1 4214
1 4215
1 4216
1 4217
1 4218
1 4219
1 4220
1 4221
1 4222
1 4223
1 4224
1 4225
1 4226
1 4227
1 4228
1 4229
1 4230
1 4231
1 4232
1 4233
1 4234
1 4235
1 4236
1 4237
1 4238
1 4239
1 4240
1 4241
1 4242
1 4243
1 4244
1 4245
1 4246
1 4247
1 4248
1 4249
1 4250
1 4251
1 4252
1 4253
1 4254
1 4255
1 4256
1 4257
1 4258
1 4259
1 4260
1 4261
1 4262
1 4263
1 4264
1 4265
1 4266
1 4267
1 4268
1 4269
1 4270
1 4271
1 4272
1 4273
1 4274
1 4275
1 4276
1 4277
1 4278
1 4279
1 4280
1 4281
1 4282
1 4283
1 4284
1 4285
1 4286
1 4287
1 4288
1 4289
1 4290
1 4291
1 4292
1 4293
1 4294
1 4295
1 4296
1 4297
1 4298
1 4299
1 4300
1 4301
1 4302
1 4303
1 4304
1 4305
1 4306
1 4307
1 4308
1 4309
1 4310
1 4311
1 4312
1 4313
1 4314
1 4315
1 4316
1 4317
1 4318
1 4319
1 4320
1 4321
1 4322
1 4323
1 4324
1 4325
1 4326
1 4327
1 4328
1 4329
1 4330
1 4331
1 4332
1 4333
1 4334
1 4335
1 4336
1 4337
1 4338
1 4339
1 4340
1 4341
1 4342
1 4343
1 4344
1 4345
1 4346
1 4347
1 4348
1 4349
1 4350
1 4351
1 4352
1 4353
1 4354
1 4355
1 4356
1 4357
1 4358
1 4359
1 4360
1 4361
1 4362
1 4363
1 4364
1 4365
1 4366
1 4367
1 4368
1 4369
1 4370
1 4371
1 4372
1 4373
1 4374
1 4375
1 4376
1 4377
1 4378
1 4379
1 4380
1 4381
1 4382
1 4383
1 4384
1 4385
1 4386
1 4387
1 4388
1 4389
1 4390
1 4391
1 4392
1 4393
1 4394
1 4395
1 4396
1 4397
1 4398
1 4399
1 4400
1 4401
1 4402
1 4403
1 4404
1 4405
1 4406
1 4407
1 4408
1 4409
1 4410
1 4411
1 4412
1 4413
1 4414
1 4415
1 4416
1 4417
1 4418
1 4419
1 4420
1 4421
1 4422
1 4423
1 4424
1 4425
1 4426
1 4427
1 4428
1 4429
1 4430
1 4431
1 4432
1 4433
1 4434
1 4435
1 4436
1 4437
1 4438
1 4439
1 4440
1 4441
1 4442
1 4443
1 4444
1 4445
1 4446
1 4447
1 4448
1 4449
1 4450
1 4451
1 4452
1 4453
1 4454
1 4455
1 4456
1 4457
1 4458
1 4459
1 4460
1 4461
1 4462
1 4463
1 4464
1 4465
1 4466
1 4467
1 4468
1 4469
1 4470
1 4471
1 4472
1 4473
1 4474
1 4475
1 4476
1 4477
1 4478
1 4479
1 4480
1 4481
1 4482
1 4483
1 4484
1 4485
1 4486
1 4487
1 4488
1 4489
1 4490
1 4491
1 4492
1 4493
1 4494
1 4495
1 4496
1 4497
1 4498
1 4499
1 4500
1 4501
1 4502
1 4503
1 4504
1 4505
1 4506
1 4507
1 4508
1 4509
1 4510
1 4511
1 4512
1 4513
1 4514
1 4515
1 4516
1 4517
1 4518
1 4519
1 4520
1 4521
1 4522
1 4523
1 4524
1 4525
1 4526
1 4527
1 4528
1 4529
1 4530
1 4531
1 4532
1 4533
1 4534
1 4535
1 4536
1 4537
1 4538
1 4539
1 4540
1 4541
1 4542
1 4543
1 4544
1 4545
1 4546
1 4547
1 4548
1 4549
1 4550
1 4551
1 4552
1 4553
1 4554
1 4555
1 4556
1 4557
1 4558
1 4559
1 4560
1 4561
1 4562
1 4563
1 4564
1 4565
1 4566
1 4567
1 4568
1 4569
1 4570
1 4571
1 4572
1 4573
1 4574
1 4575
1 4576
1 4577
1 4578
1 4579
1 4580
1 4581
1 4582
1 4583
1 4584
1 4585
1 4586
1 4587
1 4588
1 4589
1 4590
1 4591
1 4592
1 4593
1 4594
1 4595
1 4596
1 4597
1 4598
1 4599
1 4600
1 4601
1 4602
1 4603
1 4604
1 4605
1 4606
1 4607
1 4608
1 4609
1 4610
1 4611
1 4612
1 4613
1 4614
1 4615
1 4616
1 4617
1 4618
1 4619
1 4620
1 4621
1 4622
1 4623
1 4624
1 4625
1 4626
1 4627
1 4628
1 4629
1 4630
1 4631
1 4632
1 4633
1 4634
1 4635
1 4636
1 4637
1 4638
1 4639
1 4640
1 4641
1 4642
1 4643
1 4644
1 4645
1 4646
1 4647
1 4648
1 4649
1 4650
1 4651
1 4652
1 4653
1 4654
1 4655
1 4656
1 4657
1 4658
1 4659
1 4660
1 4661
1 4662
1 4663
1 4664
1 4665
1 4666
1 4667
1 4668
1 4669
1 4670
1 4671
1 4672
1 4673
1 4674
1 4675
1 4676
1 4677
1 4678
1 4679
1 4680
1 4681
1 4682
1 4683
1 4684
1 4685
1 4686
1 4687
1 4688
1 4689
1 4690
1 4691
1 4692
1 4693
1 4694
1 4695
1 4696
1 4697
1 4698
1 4699
1 4700
1 4701
1 4702
1 4703
1 4704
1 4705
1 4706
1 4707
1 4708
1 4709
1 4710
1 4711
1 4712
1 4713
1 4714
1 4715
1 4716
1 4717
1 4718
1 4719
1 4720
1 4721
1 4722
1 4723
1 4724
1 4725
1 4726
1 4727
1 4728
1 4729
1 4730
1 4731
1 4732
1 4733
1 4734
1 4735
1 4736
1 4737
1 4738
1 4739
1 4740
1 4741
1 4742
1 4743
1 4744
1 4745
1 4746
1 4747
1 4748
1 4749
1 4750
1 4751
1 4752
1 4753
1 4754
1 4755
1 4756
1 4757
1 4758
1 4759
1 4760
1 4761
1 4762
1 4763
1 4764
1 4765
1 4766
1 4767
1 4768
1 4769
1 4770
1 4771
1 4772
1 4773
1 4774
1 4775
1 4776
1 4777
1 4778
1 4779
1 4780
1 4781
1 4782
1 4783
1 4784
1 4785
1 4786
1 4787
1 4788
1 4789
1 4790
1 4791
1 4792
1 4793
1 4794
1 4795
1 4796
1 4797
1 4798
1 4799
1 4800
1 4801
1 4802
1 4803
1 4804
1 4805
1 4806
1 4807
1 4808
1 4809
1 4810
1 4811
1 4812
1 4813
1 4814
1 4815
1 4816
1 4817
1 4818
1 4819
1 4820
1 4821
1 4822
1 4823
1 4824
1 4825
1 4826
1 4827
1 4828
1 4829
1 4830
1 4831
1 4832
1 4833
1 4834
1 4835
1 4836
1 4837
1 4838
1 4839
1 4840
1 4841
1 4842
1 4843
1 4844
1 4845
1 4846
1 4847
1 4848
1 4849
1 4850
1 4851
1 4852
1 4853
1 4854
1 4855
1 4856
1 4857
1 4858
1 4859
1 4860
1 4861
1 4862
1 4863
1 4864
1 4865
1 4866
1 4867
1 4868
1 4869
1 4870
1 4871
1 4872
1 4873
1 4874
1 4875
1 4876
1 4877
1 4878
1 4879
1 4880
1 4881
1 4882
1 4883
1 4884
1 4885
1 4886
1 4887
1 4888
1 4889
1 4890
1 4891
1 4892
1 4893
1 4894
1 4895
1 4896
1 4897
1 4898
1 4899
1 4900
1 4901
1 4902
1 4903
1 4904
1 4905
1 4906
1 4907
1 4908
1 4909
1 4910
1 4911
1 4912
1 4913
1 4914
1 4915
1 4916
1 4917
1 4918
1 4919
1 4920
1 4921
1 4922
1 4923
1 4924
1 4925
1 4926
1 4927
1 4928
1 4929
1 4930
1 4931
1 4932
1 4933
1 4934
1 4935
1 4936
1 4937
1 4938
1 4939
1 4940
1 4941
1 4942
1 4943
1 4944
1 4945
1 4946
1 4947
1 4948
1 4949
1 4950
1 4951
1 4952
1 4953
1 4954
1 4955
1 4956
1 4957
1 4958
1 4959
1 4960
1 4961
1 4962
1 4963
1 4964
1 4965
1 4966
1 4967
1 4968
1 4969
1 4970
1 4971
1 4972
1 4973
1 4974
1 4975
1 4976
1 4977
1 4978
1 4979
1 4980
1 4981
1 4982
1 4983
1 4984
1 4985
1 4986
1 4987
1 4988
1 4989
1 4990
1 4991
1 4992
1 4993
1 4994
1 4995
1 4996
1 4997
1 4998
1 4999
CELL_TYPES 5000
1 
1 
1 
1 
1 
1 
1 
1 
1 
1 
1 
1 
1 
1 
1 
1 
1 
1 
1 
1 
1 
1 
1 
1 
1 
1 
1 
1 
1 
1 
1 
1 
1 
1 
1 
1 
1 
1 
1 
1 
1 
1 
1 
1 
1 
1 
1 
1 
1 
1 
1 
1 
1 
1 
1 
1 
1 
1 
1 
1 
1 
1 
1 
1 
1 
1 
1 
1 
1 
1 
1 
1 
1 
1 
1 
1 
1 
1 
1 
1 
1 
1 
1 
1 
1 
1 
1 
1 
1 
1 
1 
1 
1 
1 
1 
1 
1 
1 
1 
1 
1 
1 
1 
1 
1 
1 
1 
1 
1 
1 
1 
1 
1 
1 
1 
1 
1 
1 
1 
1 
1 
1 
1 
1 
1 
1 
1 
1 
1 
1 
1 
1 
1 
1 
1 
1 
1 
1 
1 
1 
1 
1 
1 
1 
1 
1 
1 
1 
1 
1 
1 
1 
1 
1 
1 
1 
1 
1 
1 
1 
1 
1 
1 
1 
1 
1 
1 
1 
1 
1 
1 
1 
1 
1 
1 
1 
1 
1 
1 
1 
1 
1 
1 
1 
1 
1 
1 
1 
1 
1 
1 
1 
1 
1 
1 
1 
1 
1 
1 
1 
1 
1 
1 
1 
1 
1 
1 
1 
1 
1 
1 
1 
1 
1 
1 
1 
1 
1 
1 
1 
1 
1 
1 
1 
1 
1 
1 
1 
1 
1 
1 
1 
1 
1 
1 
1 
1 
1 
1 
1 
1 
1 
1 
1 
1 
1 
1 
1 
1 
1 
1 
1 
1 
1 
1 
1 
1 
1 
1 
1 
1 
1 
1 
1 
1 
1 
1 
1 
1 
1 
1 
1 
1 
1 
1 
1 
1 
1 
1 
1 
1 
1 
1 
1 
1 
1 
1 
1 
1 
1 
1 
1 
1 
1 
1 
1 
1 
1 
1 
1 
1 
1 
1 
1 
1 
1 
1 
1 
1 
1 
1 
1 
1 
1 
1 
1 
1 
1 
1 
1 
1 
1 
1 
1 
1 
1 
1 
1 
1 
1 
1 
1 
1 
1 
1 
1 
1 
1 
1 
1 
1 
1 
1 
1 
1 
1 
1 
1 
1 
1 
1 
1 
1 
1 
1 
1 
1 
1 
1 
1 
1 
1 
1 
1 
1 
1 
1 
1 
1 
1 
1 
1 
1 
1 
1 
1 
1 
1 
1 
1 
1 
1 
1 
1 
1 
1 
1 
1 
1 
1 
1 
1 
1 
1 
1 
1 
1 
1 
1 
1 
1 
1 
1 
1 
1 
1 
1 
1 
1 
1 
1 
1 
1 
1 
1 
1 
1 
1 
1 
1 
1 
1 
1 
1 
1 
1 
1 
1 
1 
1 
1 
1 
1 
1 
1 
1 
1 
1 
1 
1 
1 
1 
1 
1 
1 
1 
1 
1 
1 
1 
1 
1 
1 
1 
1 
1 
1 
1 
1 
1 
1 
1 
1 
1 
1 
1 
1 
1 
1 
1 
1 
1 
1 
1 
1 
1 
1 
1 
1 
1 
1 
1 
1 
1 
1 
1 
1 
1 
1 
1 
1 
1 
1 
1 
1 
1 
1 
1 
1 
1 
1 
1 
1 
1 
1 
1 
1 
1 
1 
1 
1 
1 
1 
1 
1 
1 
1 
1 
1 
1 
1 
1 
1 
1 
1 
1 
1 
1 
1 
1 
1 
1 
1 
1 
1 
1 
1 
1 
1 
1 
1 
1 
1 
1 
1 
1 
1 
1 
1 
1 
1 
1 
1 
1 
1 
1 
1 
1 
1 
1 
1 
1 
1 
1 
1 
1 
1 
1 
1 
1 
1 
1 
1 
1 
1 
1 
1 
1 
1 
1 
1 
1 
1 
1 
1 
1 
1 
1 
1 
1 
1 
1 
1 
1 
1 
1 
1 
1 
1 
1 
1 
1 
1 
1 
1 
1 
1 
1 
1 
1 
1 
1 
1 
1 
1 
1 
1 
1 
1 
1 
1 
1 
1 
1 
1 
1 
1 
1 
1 
1 
1 
1 
1 
1 
1 
1 
1 
1 
1 
1 
1 
1 
1 
1 
1 
1 
1 
1 
1 
1 
1 
1 
1 
1 
1 
1 
1 
1 
1 
1 
1 
1 
1 
1 
1 
1 
1 
1 
1 
1 
1 
1 
1 
1 
1 
1 
1 
1 
1 
1 
1 
1 
1 
1 
1 
1 
1 
1 
1 
1 
1 
1 
1 
1 
1 
1 
1 
1 
1 
1 
1 
1 
1 
1 
1 
1 
1 
1 
1 
1 
1 
1 
1 
1 
1 
1 
1 
1 
1 
1 
1 
1 
1 
1 
1 
1 
1 
1 
1 
1 
1 
1 
1 
1 
1 
1 
1 
1 
1 
1 
1 
1 
1 
1 
1 
1 
1 
1 
1 
1 
1 
1 
1 
1 
1 
1 
1 
1 
1 
1 
1 
1 
1 
1 
1 
1 
1 
1 
1 
1 
1 
1 
1 
1 
1 
1 
1 
1 
1 
1 
1 
1 
1 
1 
1 
1 
1 
1 
1 
1 
1 
1 
1 
1 
1 
1 
1 
1 
1 
1 
1 
1 
1 
1 
1 
1 
1 
1 
1 
1 
1 
1 
1 
1 
1 
1 
1 
1 
1 
1 
1 
1 
1 
1 
1 
1 
1 
1 
1 
1 
1 
1 
1 
1 
1 
1 
1 
1 
1 
1 
1 
1 
1 
1 
1 
1 
1 
1 
1 
1 
1 
1 
1 
1 
1 
1 
1 
1 
1 
1 
1 
1 
1 
1 
1 
1 
1 
1 
1 
1 
1 
1 
1 
1 
1 
1 
1 
1 
1 
1 
1 
1 
1 
1 
1 
1 
1 
1 
1 
1 
1 
1 
1 
1 
1 
1 
1 
1 
1 
1 
1 
1 
1 
1 
1 
1 
1 
1 
1 
1 
1 
1 
1 
1 
1 
1 
1 
1 
1 
1 
1 
1 
1 
1 
1 
1 
1 
1 
1 
1 
1 
1 
1 
1 
1 
1 
1 
1 
1 
1 
1 
1 
1 
1 
1 
1 
1 
1 
1 
1 
1 
1 
1 
1 
1 
1 
1 
1 
1 
1 
1 
1 
1 
1 
1 
1 
1 
1 
1 
1 
1 
1 
1 
1 
1 
1 
1 
1 
1 
1 
1 
1 
1 
1 
1 
1 
1 
1 
1 
1 
1 
1 
1 
1 
1 
1 
1 
1 
1 
1 
1 
1 
1 
1 
1 
1 
1 
1 
1 
1 
1 
1 
1 
1 
1 
1 
1 
1 
1 
1 
1 
1 
1 
1 
1 
1 
1 
1 
1 
1 
1 
1 
1 
1 
1 
1 
1 
1 
1 
1 
1 
1 
1 
1 
1 
1 
1 
1 
1 
1 
1 
1 
1 
1 
1 
1 
1 
1 
1 
1 
1 
1 
1 
1 
1 
1 
1 
1 
1 
1 
1 
1 
1 
1 
1 
1 
1 
1 
1 
1 
1 
1 
1 
1 
1 
1 
1 
1 
1 
1 
1 
1 
1 
1 
1 
1 
1 
1 
1 
1 
1 
1 
1 
1 
1 
1 
1 
1 
1 
1 
1 
1 
1 
1 
1 
1 
1 
1 
1 
1 
1 
1 
1 
1 
1 
1 
1 
1 
1 
1 
1 
1 
1 
1 
1 
1 
1 
1 
1 
1 
1 
1 
1 
1 
1 
1 
1 
1 
1 
1 
1 
1 
1 
1 
1 
1 
1 
1 
1 
1 
1 
1 
1 
1 
1 
1 
1 
1 
1 
1 
1 
1 
1 
1 
1 
1 
1 
1 
1 
1 
1 
1 
1 
1 
1 
1 
1 
1 
1 
1 
1 
1 
1 
1 
1 
1 
1 
1 
1 
1 
1 
1 
1 
1 
1 
1 
1 
1 
1 
1 
1 
1 
1 
1 
1 
1 
1 
1 
1 
1 
1 
1 
1 
1 
1 
1 
1 
1 
1 
1 
1 
1 
1 
1 
1 
1 
1 
1 
1 
1 
1 
1 
1 
1 
1 
1 
1 
1 
1 
1 
1 
1 
1 
1 
1 
1 
1 
1 
1 
1 
1 
1 
1 
1 
1 
1 
1 
1 
1 
1 
1 
1 
1 
1 
1 
1 
1 
1 
1 
1 
1 
1 
1 
1 
1 
1 
1 
1 
1 
1 
1 
1 
1 
1 
1 
1 
1 
1 
1 
1 
1 
1 
1 
1 
1 
1 
1 
1 
1 
1 
1 
1 
1 
1 
1 
1 
1 
1 
1 
1 
1 
1 
1 
1 
1 
1 
1 
1 
1 
1 
1 
1 
1 
1 
1 
1 
1 
1 
1 
1 
1 
1 
1 
1 
1 
1 
1 
1 
1 
1 
1 
1 
1 
1 
1 
1 
1 
1 
1 
1 
1 
1 
1 
1 
1 
1 
1 
1 
1 
1 
1 
1 
1 
1 
1 
1 
1 
1 
1 
1 
1 
1 
1 
1 
1 
1 
1 
1 
1 
1 
1 
1 
1 
1 
1 
1 
1 
1 
1 
1 
1 
1 
1 
1 
1 
1 
1 
1 
1 
1 
1 
1 
1 
1 
1 
1 
1 
1 
1 
1 
1 
1 
1 
1 
1 
1 
1 
1 
1 
1 
1 
1 
1 
1 
1 
1 
1 
1 
1 
1 
1 
1 
1 
1 
1 
1 
1 
1 
1 
1 
1 
1 
1 
1 
1 
1 
1 
1 
1 
1 
1 
1 
1 
1 
1 
1 
1 
1 
1 
1 
1 
1 
1 
1 
1 
1 
1 
1 
1 
1 
1 
1 
1 
1 
1 
1 
1 
1 
1 
1 
1 
1 
1 
1 
1 
1 
1 
1 
1 
1 
1 
1 
1 
1 
1 
1 
1 
1 
1 
1 
1 
1 
1 
1 
1 
1 
1 
1 
1 
1 
1 
1 
1 
1 
1 
1 
1 
1 
1 
1 
1 
1 
1 
1 
1 
1 
1 
1 
1 
1 
1 
1 
1 
1 
1 
1 
1 
1 
1 
1 
1 
1 
1 
1 
1 
1 
1 
1 
1 
1 
1 
1 
1 
1 
1 
1 
1 
1 
1 
1 
1 
1 
1 
1 
1 
1 
1 
1 
1 
1 
1 
1 
1 
1 
1 
1 
1 
1 
1 
1 
1 
1 
1 
1 
1 
1 
1 
1 
1 
1 
1 
1 
1 
1 
1 
1 
1 
1 
1 
1 
1 
1 
1 
1 
1 
1 
1 
1 
1 
1 
1 
1 
1 
1 
1 
1 
1 
1 
1 
1 
1 
1 
1 
1 
1 
1 
1 
1 
1 
1 
1 
1 
1 
1 
1 
1 
1 
1 
1 
1 
1 
1 
1 
1 
1 
1 
1 
1 
1 
1 
1 
1 
1 
1 
1 
1 
1 
1 
1 
1 
1 
1 
1 
1 
1 
1 
1 
1 
1 
1 
1 
1 
1 
1 
1 
1 
1 
1 
1 
1 
1 
1 
1 
1 
1 
1 
1 
1 
1 
1 
1 
1 
1 
1 
1 
1 
1 
1 
1 
1 
1 
1 
1 
1 
1 
1 
1 
1 
1 
1 
1 
1 
1 
1 
1 
1 
1 
1 
1 
1 
1 
1 
1 
1 
1 
1 
1 
1 
1 
1 
1 
1 
1 
1 
1 
1 
1 
1 
1 
1 
1 
1 
1 
1 
1 
1 
1 
1 
1 
1 
1 
1 
1 
1 
1 
1 
1 
1 
1 
1 
1 
1 
1 
1 
1 
1 
1 
1 
1 
1 
1 
1 
1 
1 
1 
1 
1 
1 
1 
1 
1 
1 
1 
1 
1 
1 
1 
1 
1 
1 
1 
1 
1 
1 
1 
1 
1 
1 
1 
1 
1 
1 
1 
1 
1 
1 
1 
1 
1 
1 
1 
1 
1 
1 
1 
1 
1 
1 
1 
1 
1 
1 
1 
1 
1 
1 
1 
1 
1 
1 
1 
1 
1 
1 
1 
1 
1 
1 
1 
1 
1 
1 
1 
1 
1 
1 
1 
1 
1 
1 
1 
1 
1 
1 
1 
1 
1 
1 
1 
1 
1 
1 
1 
1 
1 
1 
1 
1 
1 
1 
1 
1 
1 
1 
1 
1 
1 
1 
1 
1 
1 
1 
1 
1 
1 
1 
1 
1 
1 
1 
1 
1 
1 
1 
1 
1 
1 
1 
1 
1 
1 
1 
1 
1 
1 
1 
1 
1 
1 
1 
1 
1 
1 
1 
1 
1 
1 
1 
1 
1 
1 
1 
1 
1 
1 
1 
1 
1 
1 
1 
1 
1 
1 
1 
1 
1 
1 
1 
1 
1 
1 
1 
1 
1 
1 
1 
1 
1 
1 
1 
1 
1 
1 
1 
1 
1 
1 
1 
1 
1 
1 
1 
1 
1 
1 
1 
1 
1 
1 
1 
1 
1 
1 
1 
1 
1 
1 
1 
1 
1 
1 
1 
1 
1 
1 
1 
1 
1 
1 
1 
1 
1 
1 
1 
1 
1 
1 
1 
1 
1 
1 
1 
1 
1 
1 
1 
1 
1 
1 
1 
1 
1 
1 
1 
1 
1 
1 
1 
1 
1 
1 
1 
1 
1 
1 
1 
1 
1 
1 
1 
1 
1 
1 
1 
1 
1 
1 
1 
1 
1 
1 
1 
1 
1 
1 
1 
1 
1 
1 
1 
1 
1 
1 
1 
1 
1 
1 
1 
1 
1 
1 
1 
1 
1 
1 
1 
1 
1 
1 
1 
1 
1 
1 
1 
1 
1 
1 
1 
1 
1 
1 
1 
1 
1 
1 
1 
1 
1 
1 
1 
1 
1 
1 
1 
1 
1 
1 
1 
1 
1 
1 
1 
1 
1 
1 
1 
1 
1 
1 
1 
1 
1 
1 
1 
1 
1 
1 
1 
1 
1 
1 
1 
1 
1 
1 
1 
1 
1 
1 
1 
1 
1 
1 
1 
1 
1 
1 
1 
1 
1 
1 
1 
1 
1 
1 
1 
1 
1 
1 
1 
1 
1 
1 
1 
1 
1 
1 
1 
1 
1 
1 
1 
1 
1 
1 
1 
1 
1 
1 
1 
1 
1 
1 
1 
1 
1 
1 
1 
1 
1 
1 
1 
1 
1 
1 
1 
1 
1 
1 
1 
1 
1 
1 
1 
1 
1 
1 
1 
1 
1 
1 
1 
1 
1 
1 
1 
1 
1 
1 
1 
1 
1 
1 
1 
1 
1 
1 
1 
1 
1 
1 
1 
1 
1 
1 
1 
1 
1 
1 
1 
1 
1 
1 
1 
1 
1 
1 
1 
1 
1 
1 
1 
1 
1 
1 
1 
1 
1 
1 
1 
1 
1 
1 
1 
1 
1 
1 
1 
1 
1 
1 
1 
1 
1 
1 
1 
1 
1 
1 
1 
1 
1 
1 
1 
1 
1 
1 
1 
1 
1 
1 
1 
1 
1 
1 
1 
1 
1 
1 
1 
1 
1 
1 
1 
1 
1 
1 
1 
1 
1 
1 
1 
1 
1 
1 
1 
1 
1 
1 
1 
1 
1 
1 
1 
1 
1 
1 
1 
1 
1 
1 
1 
1 
1 
1 
1 
1 
1 
1 
1 
1 
1 
1 
1 
1 
1 
1 
1 
1 
1 
1 
1 
1 
1 
1 
1 
1 
1 
1 
1 
1 
1 
1 
1 
1 
1 
1 
1 
1 
1 
1 
1 
1 
1 
1 
1 
1 
1 
1 
1 
1 
1 
1 
1 
1 
1 
1 
1 
1 
1 
1 
1 
1 
1 
1 
1 
1 
1 
1 
1 
1 
1 
1 
1 
1 
1 
1 
1 
1 
1 
1 
1 
1 
1 
1 
1 
1 
1 
1 
1 
1 
1 
1 
1 
1 
1 
1 
1 
1 
1 
1 
1 
1 
1 
1 
1 
1 
1 
1 
1 
1 
1 
1 
1 
1 
1 
1 
1 
1 
1 
1 
1 
1 
1 
1 
1 
1 
1 
1 
1 
1 
1 
1 
1 
1 
1 
1 
1 
1 
1 
1 
1 
1 
1 
1 
1 
1 
1 
1 
1 
1 
1 
1 
1 
1 
1 
1 
1 
1 
1 
1 
1 
1 
1 
1 
1 
1 
1 
1 
1 
1 
1 
1 
1 
1 
1 
1 
1 
1 
1 
1 
1 
1 
1 
1 
1 
1 
1 
1 
1 
1 
1 
1 
1 
1 
1 
1 
1 
1 
1 
1 
1 
1 
1 
1 
1 
1 
1 
1 
1 
1 
1 
1 
1 
1 
1 
1 
1 
1 
1 
1 
1 
1 
1 
1 
1 
1 
1 
1 
1 
1 
1 
1 
1 
1 
1 
1 
1 
1 
1 
1 
1 
1 
1 
1 
1 
1 
1 
1 
1 
1 
1 
1 
1 
1 
1 
1 
1 
1 
1 
1 
1 
1 
1 
1 
1 
1 
1 
1 
1 
1 
1 
1 
1 
1 
1 
1 
1 
1 
1 
1 
1 
1 
1 
1 
1 
1 
1 
1 
1 
1 
1 
1 
1 
1 
1 
1 
1 
1 
1 
1 
1 
1 
1 
1 
1 
1 
1 
1 
1 
1 
1 
1 
1 
1 
1 
1 
1 
1 
1 
1 
1 
1 
1 
1 
1 
1 
1 
1 
1 
1 
1 
1 
1 
1 
1 
1 
1 
1 
1 
1 
1 
1 
1 
1 
1 
1 
1 
1 
1 
1 
1 
1 
1 
1 
1 
1 
1 
1 
1 
1 
1 
1 
1 
1 
1 
1 
1 
1 
1 
1 
1 
1 
1 
1 
1 
1 
1 
1 
1 
1 
1 
1 
1 
1 
1 
1 
1 
1 
1 
1 
1 
1 
1 
1 
1 
1 
1 
1 
1 
1 
1 
1 
1 
1 
1 
1 
1 
1 
1 
1 
1 
1 
1 
1 
1 
1 
1 
1 
1 
1 
1 
1 
1 
1 
1 
1 
1 
1 
1 
1 
1 
1 
1 
1 
1 
1 
1 
1 
1 
1 
1 
1 
1 
1 
1 
1 
1 
1 
1 
1 
1 
1 
1 
1 
1 
1 
1 
1 
1 
1 
1 
1 
1 
1 
1 
1 
1 
1 
1 
1 
1 
1 
1 
1 
1 
1 
1 
1 
1 
1 
1 
1 
1 
1 
1 
1 
1 
1 
1 
1 
1 
1 
1 
1 
1 
1 
1 
1 
1 
1 
1 
1 
1 
1 
1 
1 
1 
1 
1 
1 
1 
1 
1 
1 
1 
1 
1 
1 
1 
1 
1 
1 
1 
1 
1 
1 
1 
1 
1 
1 
1 
1 
1 
1 
1 
1 
1 
1 
1 
1 
1 
1 
1 
1 
1 
1 
1 
1 
1 
1 
1 
1 
1 
1 
1 
1 
1 
1 
1 
1 
1 
1 
1 
1 
1 
1 
1 
1 
1 
1 
1 
1 
1 
1 
1 
1 
1 
1 
1 
1 
1 
1 
1 
1 
1 
1 
1 
1 
1 
1 
1 
1 
1 
1 
1 
1 
1 
1 
1 
1 
1 
1 
1 
1 
1 
1 
1 
1 
1 
1 
1 
1 
1 
1 
1 
1 
1 
1 
1 
1 
1 
1 
1 
1 
1 
1 
1 
1 
1 
1 
1 
1 
1 
1 
1 
1 
1 
1 
1 
1 
1 
1 
1 
1 
1 
1 
1 
1 
1 
1 
1 
1 
1 
1 
1 
1 
1 
1 
1 
1 
1 
1 
1 
1 
1 
1 
1 
1 
1 
1 
1 
1 
1 
1 
1 
1 
1 
1 
1 
1 
1 
1 
1 
1 
1 
1 
1 
1 
1 
1 
1 
1 
1 
1 
1 
1 
1 
1 
1 
1 
1 
1 
1 
1 
1 
1 
1 
1 
1 
1 
1 
1 
1 
1 
1 
1 
1 
1 
1 
1 
1 
1 
1 
1 
1 
1 
1 
1 
1 
1 
1 
1 
1 
1 
1 
1 
1 
1 
1 
1 
1 
1 
1 
1 
1 
1 
1 
1 
1 
1 
1 
1 
1 
1 
1 
1 
1 
1 
1 
1 
1 
1 
1 
1 
1 
1 
1 
1 
1 
1 
1 
1 
1 
1 
1 
1 
1 
1 
1 
1 
1 
1 
1 
1 
1 
1 
1 
1 
1 
1 
1 
1 
1 
1 
1 
1 
1 
1 
1 
1 
1 
1 
1 
1 
1 
1 
1 
1 
1 
1 
1 
1 
1 
1 
1 
1 
1 
1 
1 
1 
1 
1 
1 
1 
1 
1 
1 
1 
1 
1 
1 
1 
1 
1 
1 
1 
1 
1 
1 
1 
1 
1 
1 
1 
1 
1 
1 
1 
1 
1 
1 
1 
1 
1 
1 
1 
1 
1 
1 
1 
1 
1 
1 
1 
1 
1 
1 
1 
1 
1 
1 
1 
1 
1 
1 
1 
1 
1 
1 
1 
1 
1 
1 
1 
1 
1 
1 
1 
1 
1 
1 
1 
1 
1 
1 
1 
1 
1 
1 
1 
1 
1 
1 
1 
1 
1 
1 
1 
1 
1 
1 
1 
1 
1 
1 
1 
1 
1 
1 
1 
1 
1 
1 
1 
1 
1 
1 
1 
1 
1 
1 
1 
1 
1 
1 
1 
1 
1 
1 
1 
1 
1 
1 
1 
1 
1 
1 
1 
1 
1 
1 
1 
1 
1 
1 
1 
1 
1 
1 
1 
1 
1 
1 
1 
1 
1 
1 
1 
1 
1 
1 
1 
1 
1 
1 
1 
1 
1 
1 
1 
1 
1 
1 
1 
1 
1 
1 
1 
1 
1 
1 
1 
1 
1 
1 
1 
1 
1 
1 
1 
1 
1 
1 
1 
1 
1 
1 
1 
1 
1 
1 
1 
1 
1 
1 
1 
1 
1 
1 
1 
1 
1 
1 
1 
1 
1 
1 
1 
1 
1 
1 
1 
1 
1 
1 
1 
1 
1 
1 
1 
1 
1 
1 
1 
1 
1 
1 
1 
1 
1 
1 
1 
1 
1 
1 
1 
1 
1 
1 
1 
1 
1 
1 
1 
1 
1 
1 
1 
1 
1 
1 
1 
1 
1 
1 
1 
1 
1 
1 
1 
1 
1 
1 
1 
1 
1 
1 
1 
1 
1 
1 
1 
1 
1 
1 
1 
1 
1 
1 
1 
1 
1 
1 
1 
1 
1 
1 
1 
1 
1 
1 
1 
1 
1 
1 
1 
1 
1 
1 
1 
1 
1 
1 
1 
1 
1 
1 
1 
1 
1 
1 
1 
1 
1 
1 
1 
1 
1 
1 
1 
1 
1 
1 
1 
1 
1 
1 
1 
1 
1 
1 
1 
1 
1 
1 
1 
1 
1 
1 
1 
1 
1 
1 
1 
1 
1 
1 
1 
1 
1 
1 
1 
1 
1 
1 
1 
1 
1 
1 
1 
1 
1 
1 
1 
1 
1 
1 
1 
1 
1 
1 
1 
1 
1 
1 
1 
1 
1 
1 
1 
1 
1 
1 
1 
1 
1 
1 
1 
1 
1 
1 
1 
1 
1 
1 
1 
1 
1 
1 
1 
1 
1 
1 
1 
1 
1 
1 
1 
1 
1 
1 
1 
1 
1 
1 
1 
1 
1 
1 
1 
1 
1 
1 
1 
1 
1 
1 
1 
1 
1 
1 
1 
1 
1 
1 
1 
1 
1 
1 
1 
1 
1 
1 
1 
1 
1 
1 
1 
1 
1 
1 
1 
1 
1 
1 
1 
1 
1 
1 
1 
1 
1 
1 
1 
1 
1 
1 
1 
1 
1 
1 
1 
1 
1 
1 
1 
1 
1 
1 
1 
1 
1 
1 
1 
1 
1 
1 
1 
1 
1 
1 
1 
1 
1 
1 
1 
1 
1 
1 
1 
1 
1 
1 
1 
1 
1 
1 
1 
1 
1 
1 
1 
1 
1 
1 
1 
1 
1 
1 
1 
1 
1 
1 
1 
1 
1 
1 
1 
1 
1 
1 
1 
1 
1 
1 
1 
1 
1 
1 
1 
1 
1 
1 
1 
1 
1 
1 
1 
1 
1 
1 
1 
1 
1 
1 
1 
1 
1 
1 
1 
1 
1 
1 
1 
1 
1 
1 
1 
1 
1 
1 
1 
1 
1 
1 
1 
1 
1 
1 
1 
1 
1 
1 
1 
1 
1 
1 
1 
1 
1 
1 
1 
1 
1 
1 
1 
1 
1 
1 
1 
1 
1 
1 
1 
1 
1 
1 
1 
1 
1 
1 
1 
1 
1 
1 
1 
1 
1 
1 
1 
1 
1 
1 
1 
1 
1 
1 
1 
1 
1 
1 
1 
1 
1 
1 
1 
1 
1 
1 
1 
1 
1 
1 
1 
1 
1 
1 
1 
1 
1 
1 
1 
1 
1 
1 
1 
1 
1 
1 
1 
1 
1 
1 
1 
1 
1 
1 
1 
1 
1 
1 
1 
1 
1 
1 
1 
1 
1 
1 
1 
1 
1 
1 
1 
1 
1 
1 
1 
1 
1 
1 
1 
1 
1 
1 
1 
1 
1 
1 
1 
1 
1 
1 
1 
1 
1 
1 
1 
1 
1 
1 
1 
1 
1 
1 
1 
1 
1 
1 
1 
1 
1 
1 
1 
1 
1 
1 
1 
1 
1 
1 
1 
1 
1 
1 
1 
1 
1 
1 
1 
1 
1 
1 
1 
1 
1 
1 
1 
1 
1 
1 
1 
1 
1 
1 
1 
1 
1 
1 
1 
1 
1 
1 
1 
1 
1 
1 
1 
1 
1 
1 
1 
1 
1 
1 
1 
1 
1 
1 
1 
1 
1 
1 
1 
1 
1 
1 
1 
1 
1 
1 
1 
1 
1 
1 
1 
1 
1 
1 
1 
1 
1 
1 
1 
1 
1 
1 
1 
1 
1 
1 
1 
1 
1 
1 
1 
1 
1 
1 
1 
1 
1 
1 
1 
1 
1 
1 
1 
1 
1 
1 
1 
1 
1 
1 
1 
1 
1 
1 
1 
1 
1 
1 
1 
1 
1 
1 
1 
1 
1 
1 
1 
1 
1 
1 
1 
1 
1 
1 
1 
1 
1 
1 
1 
1 
1 
1 
1 
1 
1 
1 
1 
1 
1 
1 
1 
1 
1 
1 
1 
1 
1 
1 
1 
1 
1 
1 
1 
1 
1 
1 
1 
1 
1 
1 
1 
1 
1 
1 
1 
1 
1 
1 
1 
1 
1 
1 
1 
1 
1 
1 
1 
1 
1 
1 
1 
1 
1 
1 
1 
1 
1 
1 
1 
1 
1 
1 
1 
1 
1 
1 
1 
1 
1 
1 
1 
1 
1 
1 
1 
1 
1 
1 
1 
1 
1 
1 
1 
1 
1 
1 
1 
1 
1 
1 
1 
1 
1 
1 
1 
1 
1 
1 
1 
1 
1 
1 
1 
1 
1 
1 
1 
1 
1 
1 
1 
1 
1 
1 
1 
1 
1 
1 
1 
1 
1 
1 
1 
1 
1 
1 
1 
1 
1 
1 
1 
1 
1 
1 
1 
1 
1 
1 
1 
1 
1 
1 
1 
1 
1 
1 
1 
1 
1 
1 
1 
1 
1 
1 
1 
1 
1 
1 
1 
1 
1 
1 
1 
1 
1 
1 
1 
1 
1 
1 
1 
1 
1 
1 
1 
1 
1 
1 
1 
1 
1 
1 
1 
1 
1 
1 
1 
1 
1 
1 
1 
1 
1 
1 
1 
1 
1 
1 
1 
1 
1 
1 
1 
1 
1 
1 
1 
1 
1 
1 
1 
1 
1 
1 
1 
1 
1 
1 
1 
1 
1 
1 
1 
1 
1 
1 
1 
1 
1 
1 
1 
1 
1 
1 
1 
1 
1 
1 
1 
1 
1 
1 
1 
1 
1 
1 
1 
1 
1 
1 
1 
1 
1 
1 
1 
1 
1 
1 
1 
1 
1 
1 
1 
1 
1 
1 
1 
1 
1 
1 
1 
1 
1 
1 
1 
1 
1 
1 
1 
1 
1 
1 
1 
1 
1 
1 
1 
1 
1 
1 
1 
1 
1 
1 
1 
1 
1 
1 
1 
1 
1 
1 
1 
1 
1 
1 
1 
1 
1 
1 
1 
1 
1 
1 
1 
1 
1 
1 
1 
1 
1 
1 
1 
1 
1 
1 
1 
1 
1 
1 
1 
1 
1 
1 
1 
1 
1 
1 
1 
1 
1 
1 
1 
1 
1 
1 
1 
1 
1 
1 
1 
1 
1 
1 
1 
1 
1 
1 
1 
1 
1 
1 
1 
1 
1 
1 
1 
1 
1 
1 
1 
1 
1 
1 
1 
1 
1 
1 
1 
1 
1 
1 
1 
1 
1 
1 
1 
1 
1 
1 
1 
1 
1 
1 
1 
1 
1 
1 
1 
1 
1 
1 
1 
1 
1 
1 
1 
1 
1 
1 
1 
1 
1 
1 
1 
1 
1 
1 
1 
1 
1 
1 
1 
1 
1 
1 
1 
1 
1 
1 
1 
1 
1 
1 
1 
1 
1 
1 
1 
1 
1 
1 
1 
1 
1 
1 
1 
1 
1 
1 
1 
1 
1 
1 
1 
1 
1 
1 
1 
1 
1 
1 
1 
1 
1 
1 
1 
1 
1 
1 
1 
1 
1 
1 
1 
1 
1 
1 
1 
1 
1 
1 
1 
1 
1 
1 
1 
1 
1 
1 
1 
1 
1 
1 
1 
1 
1 
1 
1 
1 
1 
1 
1 
1 
1 
1 
1 
1 
1 
1 
1 
1 
1 
1 
1 
1 
1 
1 
1 
1 
1 
1 
1 
1 
1 
1 
1 
1 
1 
1 
1 
1 
1 
1 
1 
1 
1 
1 
1 
1 
1 
1 
1 
1 
1 
1 
1 
1 
1 
1 
1 
1 
1 
1 
1 
1 
1 
1 
1 
1 
1 
1 
1 
1 
1 
1 
1 
1 
1 
1 
1 
1 
1 
1 
1 
1 
1 
1 
1 
1 
1 
1 
1 
1 
1 
1 
1 
1 
1 
1 
1 
1 
1 
1 
1 
1 
1 
1 
1 
1 
1 
1 
1 
1 
1 
1 
1 
1 
1 
1 
1 
1 
1 
1 
1 
1 
1 
1 
1 
1 
1 
1 
1 
1 
1 
1 
1 
1 
1 
1 
1 
1 
1 
1 
1 
1 
1 
1 
1 
1 
1 
1 
1 
1 
1 
1 
1 
1 
1 
1 
1 
1 
1 
1 
1 
1 
1 
1 
1 
1 
1 
1 
1 
1 
1 
1 
1 
1 
1 
1 
1 
1 
1 
1 
1 
1 
1 
1 
1 
1 
1 
1 
1 
1 
1 
1 
1 
1 
1 
1 
1 
1 
1 
1 
1 
1 
1 
1 
1 
1 
1 
1 
1 
1 
1 
1 
1 
1 
1 
1 
1 
1 
1 
1 
1 
1 
1 
1 
1 
1 
1 
1 
1 
1 
1 
1 
1 
1 
1 
1 
1 
1 
1 
1 
1 
1 
1 
1 
1 
1 
1 
1 
1 
1 
1 
1 
1 
1 
1 
1 
1 
1 
1 
1 
1 
1 
1 
1 
1 
1 
1 
1 
1 
1 
1 
1 
1 
1 
1 
1 
1 
1 
1 
1 
1 
1 
1 
1 
1 
1 
1 
1 
1 
1 
1 
1 
1 
1 
1 
1 
1 
1 
1 
1 
1 
1 
1 
1 
1 
1 
1 
1 
1 
1 
1 
1 
1 
1 
1 
1 
1 
1 
1 
1 
1 
1 
1 
1 
1 
1 
1 
1 
1 
1 
1 
1 
1 
1 
1 
1 
1 
1 
1 
1 
1 
1 
1 
1 
1 
1 
1 
1 
1 
1 
1 
1 
1 
1 
1 
1 
1 
1 
1 
1 
1 
1 
1 
1 
1 
1 
1 
1 
1 
1 
1 
1 
1 
1 
1 
1 
1 
1 
1 
1 
1 
1 
1 
1 
1 
1 
1 
1 
1 
1 
1 
1 
1 
1 
1 
1 
1 
1 
1 
1 
1 
1 
1 
1 
1 
1 
1 
1 
1 
1 
1 
1 
1 
1 
1 
1 
1 
1 
1 
1 
1 
1 
1 
1 
1 
1 
1 
1 
1 
1 
1 
1 
1 
1 
1 
1 
1 
1 
1 
1 
1 
1 
1 
1 
1 
1 
1 
1 
1 
1 
1 
1 
1 
1 
1 
1 
1 
1 
1 
1 
1 
1 
1 
1 
1 
1 
1 
1 
1 
1 
1 
1 
1 
1 
1 
1 
1 
1 
1 
1 
1 
1 
1 
1 
1 
1 
1 
1 
1 
1 
POINT_DATA 5000
VECTORS Stress float
-507.456 273.829 0.
231.961 367.845 0.
139.673 151.699 0.
-178.966 -150.289 0.
-222.596 -252.895 0.
-266.226 -355.501 0.
186.333 -408.341 0.
-71.3393 -1010.01 0.
-329.012 -1611.69 0.
-397.833 -1583.14 0.
-195.923 -1111.93 0.
5.98662 -640.716 0.
-676.61 -897.204 0.
-689.687 -928.285 0.
-1402.04 -1208.38 0.
-1091.57 -484.317 0.
-781.103 239.741 0.
-40.1191 665.65 0.
-575.102 -583.526 0.
-1110.09 -1832.7 0.
-1338.59 -2102.14 0.
-1007.09 -1329.06 0.
-675.594 -555.983 0.
-787.433 -386.463 0.
-757.029 -314.898 0.
-598.156 -188.281 0.
-3317.96 -879.905 0.
-3061.91 -281.277 0.
-1787.5 586.401 0.
-1984.73 125.613 0.
-2181.96 -335.174 0.
-3455.34 -919.469 0.
-3226.43 -384.952 0.
-2997.52 149.565 0.
-3055.53 -409.776 0.
-3648.54 -1792.17 0.
-4241.56 -3174.57 0.
-8551.64 -3806.22 0.
-7678.4 -1768.13 0.
-9054.2 -715.999 0.
-8687.11 139.357 0.
-8320.03 994.712 0.
-11044.7 227.814 0.
-11284.5 -328.857 0.
-11524.4 -885.527 0.
-15615.5 -3989.21 0.
-16714.7 -6551.16 0.
-17813.9 -9113.1 0.
89118.7 36833.4 0.
89383.9 37462.4 0.
-1.31288e+06 -562997 0.
87908.6 36802.9 0.
87630.6 36144.6 0.
-16692.5 -8616.34 0.
-15569.4 -5996.89 0.
-14446.3 -3377.44 0.
-11290 -813.541 0.
-11146.1 -478.316 0.
-11002.3 -143.09 0.
-7910.14 1167.96 0.
-7951.14 1071.84 0.
-7992.15 975.715 0.
-8913.01 -211.661 0.
-9352.72 -1236.08 0.
-2512.01 768.691 0.
-3249.61 -953.5 0.
-3987.21 -2675.69 0.
-2633.65 -2638.06 0.
-2174.86 -1568.12 0.
-1716.07 -498.192 0.
-2296.78 -344.054 0.
-2242.41 -217.512 0.
-2188.04 -90.9706 0.
-3400.69 -418.886 0.
-3283.28 -144.197 0.
-670.178 1187.83 0.
-936.325 498.867 0.
-1238.48 -205.519 0.
-471.412 -478.402 0.
-802.038 -1249.22 0.
-1132.67 -2020.03 0.
74.0222 -1348.25 0.
572.487 -183.749 0.
1070.95 980.752 0.
-960.42 390.65 0.
-946.655 423.724 0.
-932.89 456.799 0.
-431.303 112.185 0.
-751.711 -635.567 0.
-493.814 -992.567 0.
-331.359 -612.645 0.
-168.903 -232.722 0.
-459.806 -205.752 0.
-524.478 -358.502 0.
-589.151 -511.251 0.
-214.529 -358.274 0.
-165.9 -245.031 0.
-117.271 -131.789 0.
-388.918 -31.4457 0.
-266.604 254.722 0.
199.554 608.039 0.
-165.816 227.834 0.
-257.756 10.8852 0.
-249.351 -146.873 0.
-292.535 -250.044 0.
-335.719 -353.216 0.
241.109 -352.248 0.
-16.1932 -953.932 0.
-273.496 -1555.62 0.
-171.858 -1455.78 0.
30.0794 -984.33 0.
232.017 -512.877 0.
-973.669 -992.581 0.
-986.392 -1023.97 0.
-1310.63 -1138.6 0.
-999.908 -414.7 0.
-689.188 309.204 0.
-1047.21 266.055 0.
-1581.32 -982.853 0.
-2115.43 -2231.76 0.
717.71 -1190.36 0.
1049.91 -416.473 0.
1382.11 357.411 0.
-1432.2 -630.537 0.
-1402.49 -559.341 0.
-1703.47 -629.874 0.
-3279.15 -834.421 0.
-3023.87 -235.249 0.
-2049.24 504.715 0.
-2246.06 43.71 0.
-2442.88 -417.295 0.
-2984.81 -684.277 0.
-2755.88 -148.921 0.
-2526.95 386.434 0.
-2528.28 -154.974 0.
-3122.18 -1536.8 0.
-3716.07 -2918.62 0.
-8401.37 -3709.37 0.
-7528.44 -1670.89 0.
-7808.4 -147.778 0.
-7440.23 707.733 0.
-7072.07 1563.24 0.
-11053.2 249.354 0.
-11294.9 -305.554 0.
-11536.5 -860.457 0.
-11805.6 -2335.66 0.
-12909.8 -4903.13 0.
-14013.9 -7470.59 0.
82915.4 34194.2 0.
83173.1 34825.6 0.
-1.18172e+06 -506753 0.
81929.3 34265.8 0.
81658.4 33605.2 0.
-13541.7 -7252.17 0.
-12415.5 -4627.43 0.
-11289.3 -2002.68 0.
-10828.4 -587.43 0.
-10684.4 -253.015 0.
-10540.4 81.4025 0.
-6815.69 1669.49 0.
-6856.46 1573.06 0.
-6897.23 1476.62 0.
-8054.44 191.474 0.
-8495.29 -832.473 0.
-3210.42 499.675 0.
-3946.9 -1222.15 0.
-4683.38 -2943.98 0.
-1759.89 -2233.01 0.
-1300.53 -1162.91 0.
-841.179 -92.8099 0.
-2313.91 -317.679 0.
-2259.43 -191.544 0.
-2204.96 -65.4086 0.
-3232.95 -316.027 0.
-3116 -40.9319 0.
-2040.64 633.842 0.
-2232.09 -22.1726 0.
-2534.42 -725.708 0.
2728.48 923.71 0.
2396.69 151.485 0.
2064.9 -620.74 0.
-1342.47 -1923.06 0.
-845.458 -759.104 0.
-348.442 404.848 0.
-1159.15 337.251 0.
-1146.17 370.422 0.
-1133.18 403.592 0.
-589.765 76.8334 0.
-910.095 -671.003 0.
-426.384 -933.843 0.
-264.405 -553.311 0.
-102.426 -172.778 0.
-225.061 -75.1088 0.
-288.852 -229.494 0.
-352.643 -383.879 0.
-449.301 -425.621 0.
-400.583 -312.619 0.
-351.865 -199.618 0.
-123.853 114.31 0.
-1.95646 401.039 0.
173.017 -759.425 0.
-1074.98 -1106.36 0.
-864.473 -614.67 0.
-754.861 -1166.2 0.
-490.924 -549.213 0.
-845.405 -1375.22 0.
-1030.45 -3388.55 0.
-625.617 -2446.11 0.
-3232.2 -8530.3 0.
-5720.94 -14800.5 0.
-1484.07 -4915.76 0.
-1771.31 -5587.23 0.
-3288.62 -5794.21 0.
-3562.91 -6430.37 0.
-5089.21 -10111.7 0.
-2182.8 -3330.58 0.
-2627.73 -4369.3 0.
-4113.43 -4950.81 0.
-3628.24 -3819.07 0.
-5893.41 -9104.81 0.
-35080.8 -88606 0.
-1044.02 -9183.69 0.
-415.563 -7714.04 0.
-4658.54 -6904.3 0.
-3892.89 -5120.76 0.
-4684.97 -7028.17 0.
-5059.64 -5028.64 0.
-4966.97 -4814.48 0.
-4100.55 -3776.4 0.
-4004.23 -3547.33 0.
-5098.98 -6097.4 0.
-8338.73 -14044.6 0.
-5220.36 -6767.81 0.
-5247.83 -6831.33 0.
-4653.98 -6070.29 0.
-4633.88 -6028.7 0.
-20597.1 -43281.5 0.
-17381.9 -24918.9 0.
-13704.1 -16340.5 0.
-12645.4 -13782.7 0.
-10587.3 -8987.34 0.
-10658.5 -9160.04 0.
-14540 -7910.86 0.
-13125.7 -4612.98 0.
-12881.5 -4045.68 0.
-10015.1 -5399.91 0.
-12500.3 -11180.7 0.
-47296.3 -92353.4 0.
76843.5 31895.4 0.
85173.7 51445.4 0.
-1.00054e+06 -401169 0.
84030.2 50691.5 0.
75473.1 30612.5 0.
-44247.2 -84891.4 0.
-13306.4 -12712.7 0.
-12032.2 -9756.26 0.
-13627.7 -8030.21 0.
-13267.3 -7189.39 0.
-14586.2 -10267.2 0.
-9924.66 -7659.25 0.
-8676.54 -4744.9 0.
-8745.48 -4903.72 0.
-9497.59 -4769.74 0.
-9892 -5697.29 0.
-7640.42 -8498.44 0.
-6840.16 -6628.07 0.
-8574.5 -10671.7 0.
-28448.3 -66141 0.
-3507.41 -7941.43 0.
-3770.51 -8551.13 0.
-5824.89 -8448.28 0.
-5365.57 -7377.81 0.
-7334.97 -11974.3 0.
-4668.34 -3934.44 0.
-4273.5 -3012.91 0.
-5245.46 -4347.34 0.
-4429.26 -2656.97 0.
-5205.61 -4464.92 0.
-4251.41 -21411.8 0.
-4817.47 -22736.6 0.
-47511.9 -122361 0.
-13434.1 -27408.5 0.
-7018.06 -12439.1 0.
-7450.48 -13449.5 0.
-3654.78 -5069.98 0.
-2582.43 -2572.45 0.
-3251.79 -4138.92 0.
-2259.6 -3473.87 0.
-2320.54 -3616.29 0.
-3187.43 -7482.46 0.
-797.883 -1904.05 0.
-811.107 -1932.47 0.
-1043.9 -2411.84 0.
-822.494 -1891.81 0.
-1698.89 -3933.29 0.
-1505.91 -2422.23 0.
-650.546 -426.254 0.
-438.65 68.2624 0.
-229.54 -587.615 0.
-1364.74 -3236.66 0.
188.749 17.0097 0.
-404.417 40.1035 0.
-299.208 286.076 0.
185.459 659.133 0.
185.226 662.65 0.
184.993 666.168 0.
693.113 1254.45 0.
1163.56 2351.12 0.
1634 3447.78 0.
1782.7 3462.4 0.
1470.92 2734.48 0.
1159.14 2006.56 0.
92.1268 1834.83 0.
317.245 2362.61 0.
737.134 2885.43 0.
403.7 2110.24 0.
70.2663 1335.05 0.
-652.999 1317.05 0.
620.48 4285.04 0.
1893.96 7253.03 0.
4971.69 8821.45 0.
4043.74 6656.12 0.
3115.79 4490.78 0.
-217.93 2464.69 0.
-309.538 2249.86 0.
148.77 2270.65 0.
-1729.03 1216.69 0.
-1860.94 907.744 0.
-1559.93 1015.05 0.
-1092.09 2111.01 0.
-624.25 3206.97 0.
-498.776 3539.38 0.
-793.3 2853.36 0.
-1087.82 2167.33 0.
-708.018 3775.1 0.
662.184 6968.16 0.
2032.39 10161.2 0.
-2739.62 7588.62 0.
-3303.5 6268.3 0.
-3068.32 5257.89 0.
-3562.1 4104.09 0.
-4055.87 2950.28 0.
-6560.46 1241 0.
-6485.95 1414.7 0.
-6411.41 1588.4 0.
-4637.6 841.025 0.
-6478.89 -3438.12 0.
-8320.14 -7717.2 0.
68165 34619.9 0.
76193.1 53535 0.
-732808 -277708 0.
75193.8 53277.7 0.
67258.5 34574.1 0.
-7970.72 -7056.29 0.
-6013.54 -2509.67 0.
-4056.33 2037.02 0.
-5513.41 2910.68 0.
-5769.64 2314.02 0.
-6025.86 1717.35 0.
-4224.82 2315.4 0.
-4277.9 2193.46 0.
-4330.98 2071.53 0.
-5281.21 1263.73 0.
-5485.82 781.242 0.
-2444.15 2174.96 0.
-1031.52 5466.57 0.
381.11 8758.19 0.
3315.57 10866.3 0.
2137.6 8117.28 0.
959.633 5368.28 0.
-157.631 3843.2 0.
-270.792 3574.31 0.
-383.954 3305.41 0.
-1146.76 2403.73 0.
-1502.83 1576.51 0.
-1447.06 966.317 0.
-772.622 2699.38 0.
-14.5792 4468.28 0.
5669.19 8552.38 0.
6763.36 11105.3 0.
7857.53 13658.2 0.
3752.59 11478.1 0.
2151.48 7741.46 0.
550.364 4004.82 0.
470.374 2619.79 0.
116.21 1791.85 0.
-237.953 963.908 0.
-106.499 1320.07 0.
95.688 1794.67 0.
829.04 2344.41 0.
496.028 1569.51 0.
163.016 794.622 0.
232.414 524.317 0.
354.291 813.868 0.
476.168 1103.42 0.
114.838 1008.21 0.
84.273 937.537 0.
53.709 866.866 0.
129.203 870.531 0.
124.959 861.908 0.
-182.562 -109.804 0.
-168.499 172.443 0.
-63.2904 418.391 0.
395.756 781.04 0.
394.546 785.223 0.
393.338 789.409 0.
383.247 1152.79 0.
853.307 2249.71 0.
1323.37 3346.62 0.
1401.73 3327.98 0.
1089.89 2600.7 0.
778.046 1873.42 0.
244.945 1932.02 0.
470.39 2459.23 0.
1066.43 3056.08 0.
731.793 2281.45 0.
397.156 1506.82 0.
312.102 1762.49 0.
1587.4 4731.62 0.
2862.71 7700.76 0.
2903.3 7966.97 0.
1977.64 5803.57 0.
1051.96 3640.16 0.
320.143 2727.76 0.
227.757 2513.02 0.
831.319 2596.45 0.
-911.811 1597.41 0.
-1044.17 1288.37 0.
-946.709 1309.24 0.
-478.745 2405.48 0.
-10.7817 3501.72 0.
-110.64 3735.75 0.
-405.338 3049.96 0.
-700.036 2364.16 0.
-1026.31 3670.54 0.
343.088 6862.98 0.
1712.49 10055.4 0.
-1851.32 8003.5 0.
-2415.16 6681.81 0.
-1316.41 6039.88 0.
-1812.14 4886.52 0.
-2307.86 3733.16 0.
-1573.09 3411.12 0.
-1498.77 3586.46 0.
-1424.43 3761.8 0.
-1336.17 2237.91 0.
-3181.81 -2052.28 0.
-5027.42 -6342.42 0.
56233.3 29755 0.
64168.8 48523.4 0.
-462040 -161633 0.
63082.7 48223.8 0.
55242.1 29666.3 0.
-4413.03 -5564.94 0.
-2449.35 -1006.68 0.
-485.628 3551.66 0.
-1297.15 4756.16 0.
-1554.86 4157.42 0.
-1812.57 3558.69 0.
-2463.74 3099.61 0.
-2516.93 2977.27 0.
-2570.11 2854.94 0.
-3264.99 2163.49 0.
-3470.48 1681.14 0.
-1667.03 2537.06 0.
-251.055 5828.84 0.
1164.93 9120.63 0.
1814.25 10254.8 0.
638.946 7507.44 0.
-536.366 4760.03 0.
350.83 4097.52 0.
238.514 3827.01 0.
126.197 3556.5 0.
-142.57 2867.98 0.
-499.877 2041.26 0.
206.489 1704.53 0.
910.62 3451.14 0.
1670.87 5221.8 0.
2108.89 7061.18 0.
3199.33 9609.2 0.
4289.77 12157.2 0.
4411.75 11800.5 0.
2809.55 8061.99 0.
1207.35 4323.52 0.
1502.7 3092.94 0.
1147.16 2264.89 0.
791.635 1436.83 0.
30.3424 1409.38 0.
231.473 1884.65 0.
605.967 2278.63 0.
273.217 1504.08 0.
-59.5319 729.522 0.
271.193 572.922 0.
392.509 862.866 0.
513.825 1152.81 0.
315.519 1125.24 0.
284.732 1054.58 0.
253.946 983.919 0.
-179.557 771.357 0.
-184.086 763.573 0.
-125.244 583.125 0.
-81.3594 314.114 0.
-204.161 30.7113 0.
3.89663 -77.8858 0.
-11.6191 -115.005 0.
-27.1357 -152.124 0.
-312.51 -391.576 0.
-441.547 -691.661 0.
-570.584 -991.745 0.
-460.409 -881.052 0.
-330.193 -579.544 0.
-199.976 -278.036 0.
-810.786 -732.713 0.
-955.143 -1067.7 0.
-697.667 -1182.86 0.
-496.11 -712.771 0.
-294.554 -242.681 0.
-149.07 -241.574 0.
-734.775 -1594.93 0.
-1320.47 -2948.29 0.
-2551 -3508.4 0.
-2044.13 -2328.98 0.
-1537.26 -1149.56 0.
-996.847 -769.3 0.
-1065.96 -934.226 0.
-619.204 -877.964 0.
-1676.38 -1158.48 0.
-1579.75 -936.749 0.
-1562.86 -830.104 0.
-1652.19 -1039.16 0.
-1741.52 -1248.22 0.
-1905.7 -1229.6 0.
-1679.41 -706.955 0.
-1453.11 -184.307 0.
-2748.61 -1244.09 0.
-3286.62 -2505.24 0.
-3824.62 -3766.38 0.
-5938.32 -4503.42 0.
-5752.97 -4070.8 0.
-3517.12 -2816.69 0.
-3697.18 -3234.65 0.
-3877.22 -3652.62 0.
-1403.28 -3193.62 0.
-2078.21 -4758.56 0.
-2753.12 -6323.49 0.
-1457.15 -4602.3 0.
346.861 -337.646 0.
2150.81 3926.94 0.
37837.9 10100.1 0.
30490.8 -6676.19 0.
7882.72 -29971.7 0.
28838.7 -6859.89 0.
36459.5 10538.4 0.
3257.84 5526.8 0.
1034.03 301.444 0.
-1189.88 -4923.97 0.
-3775.4 -7338.32 0.
-2863.83 -5217.55 0.
-1952.25 -3096.77 0.
-3583.91 -3068.3 0.
-3408.49 -2657.95 0.
-3233.06 -2247.6 0.
-3589.56 -1916.72 0.
-3336.84 -1326.54 0.
-2410.09 -662.516 0.
-2907.09 -1816.75 0.
-3404.09 -2970.98 0.
-4064.67 -3526.17 0.
-3598.47 -2434.82 0.
-3132.27 -1343.48 0.
-1373.46 -394.945 0.
-1523.74 -742.137 0.
-1674.03 -1089.33 0.
-1361.66 -933.056 0.
-1306.58 -816.212 0.
-156.011 -225.469 0.
-291.057 -460.879 0.
-387.839 -679.891 0.
-2634.45 -2081.98 0.
-3239.15 -3489.2 0.
-3843.85 -4896.43 0.
-2083.61 -4111.13 0.
-1398.86 -2514.75 0.
-714.108 -918.373 0.
343.315 -102.933 0.
335.47 -126.437 0.
327.623 -149.942 0.
-763.055 -663.136 0.
-791.904 -730.076 0.
-656.262 -676.661 0.
-521.423 -353.482 0.
-386.584 -30.3044 0.
24.0239 237.876 0.
-84.6652 -8.89309 0.
-193.354 -255.662 0.
-188.647 -237.842 0.
-107.244 -50.0046 0.
-25.8407 137.833 0.
-556.06 -165.641 0.
-625.058 -320.358 0.
-322.803 525.631 0.
-218.041 285.048 0.
-341.953 3.01707 0.
-225.253 -148.209 0.
-240.093 -185.514 0.
-254.933 -222.819 0.
-82.2744 -261.251 0.
-211.658 -561.436 0.
-341.041 -861.621 0.
-193.967 -738.804 0.
-63.7071 -437.216 0.
66.5535 -135.627 0.
-750.006 -676.02 0.
-894.466 -1011.41 0.
-839.954 -1215.48 0.
-639.436 -745.028 0.
-438.919 -274.581 0.
-123.132 -198.34 0.
-707.918 -1553.26 0.
-1292.7 -2908.18 0.
-1823.76 -3163.3 0.
-1316.45 -1983.53 0.
-809.147 -803.749 0.
-1042.82 -758.675 0.
-1111.53 -923.566 0.
-1705.22 -1313.49 0.
-1446.62 -1030.36 0.
-1350.94 -808.384 0.
-1397.84 -728.345 0.
-1487.21 -937.207 0.
-1576.57 -1146.07 0.
-1456.29 -1008.88 0.
-1230.81 -485.323 0.
-1005.34 38.2397 0.
-1515.51 -689.032 0.
-2055.71 -1949.39 0.
-2595.9 -3209.75 0.
-3728.2 -3526.67 0.
-3541.83 -3094.29 0.
-1345.07 -1857.72 0.
-1526.21 -2275.61 0.
-1707.34 -2693.51 0.
1029.54 -2132.74 0.
351.429 -3699.65 0.
-326.656 -5266.55 0.
2076.82 -3023.67 0.
3890.39 1246.85 0.
5703.93 5517.34 0.
25443.4 4687.85 0.
18207.7 -11981.1 0.
2895.39 -32065 0.
15211.2 -12728.6 0.
22707.4 4542.9 0.
6870.71 7162.55 0.
4636.22 1928.28 0.
2401.66 -3306.02 0.
-1308.68 -6272.3 0.
-395.625 -4147.24 0.
517.436 -2022.17 0.
-1603.74 -2193.28 0.
-1428.03 -1782.62 0.
-1252.31 -1371.95 0.
-2087.87 -1244.32 0.
-1835.28 -653.395 0.
-1629.36 -295.982 0.
-2126.97 -1450.45 0.
-2624.58 -2604.92 0.
-2571.48 -2858.02 0.
-2104.69 -1765.65 0.
-1637.89 -673.272 0.
-1350.8 -353.532 0.
-1500.5 -701.411 0.
-1650.2 -1049.29 0.
-1311.11 -880.668 0.
-1256.51 -762.823 0.
-591.188 -380.896 0.
-737.826 -621.76 0.
-833.983 -840.989 0.
-1233.82 -1451.58 0.
-1838.89 -2859.52 0.
-2443.96 -4267.47 0.
-1892.69 -4000.86 0.
-1207.62 -2404.33 0.
-522.543 -807.798 0.
-113.258 -265.656 0.
-120.861 -289.004 0.
-128.466 -312.353 0.
-669.535 -592.948 0.
-698.302 -659.98 0.
-402.387 -537.544 0.
-267.366 -214.441 0.
-132.345 108.661 0.
-236.23 158.55 0.
-344.255 -88.5631 0.
-452.281 -335.676 0.
-145.469 -189.971 0.
-64.462 -2.04703 0.
16.5451 185.877 0.
-177.134 28.5107 0.
-247.526 -125.486 0.
-878.791 -352.167 0.
-438.141 56.5215 0.
-553.979 -216.276 0.
-727.703 -872.583 0.
-478.185 -288.179 0.
-320.028 83.0681 0.
-271.242 -1107.17 0.
602.261 936.813 0.
485.94 670.8 0.
253.785 -192.302 0.
-122.836 -1068.64 0.
315 -44.5885 0.
-391.863 84.6104 0.
-435.346 -22.3727 0.
-744.51 -684.61 0.
-522.319 -175.429 0.
-977.245 -1246.2 0.
-929.446 -2083.78 0.
-713.505 -1582.62 0.
-270.024 -550.561 0.
-25.2115 -296.318 0.
5.56414 -226.939 0.
49.5197 -126.85 0.
-912.96 -352.053 0.
-1216.6 -1058.13 0.
-1133.97 -753.555 0.
-1056.11 -517.261 0.
-1352.73 -1222.08 0.
-1337.64 -866.816 0.
-928.042 85.5431 0.
-605.638 834.459 0.
-1577.38 -2124.6 0.
-1195.25 -1237.62 0.
-764.723 -237.633 0.
-163.08 171.559 0.
-1176.52 -2190.5 0.
-2014.39 -4143 0.
-2065.16 -3788.56 0.
-1664.77 -2851.86 0.
236.911 -2243.81 0.
87.2326 -2587.09 0.
141.81 -2453.88 0.
3072.75 -1889.99 0.
2822.83 -2476.36 0.
3412.38 -1104.12 0.
6193.59 20.894 0.
6134.13 -124.586 0.
5889.59 -694.54 0.
14410.3 2352.21 0.
14354.1 2233.1 0.
3325.39 -4636.56 0.
9611.57 -84.6068 0.
10086 1012.2 0.
6956.04 651.865 0.
6284.6 -923.253 0.
5631.71 -2455.06 0.
2539.44 -1927.85 0.
3214.76 -355.975 0.
3250.27 -276.989 0.
-132.12 -2491.96 0.
-358.413 -3020.28 0.
985.169 114.535 0.
-842.641 -1167.22 0.
-1559.07 -2832.53 0.
-2076.93 -2784.52 0.
-1016.91 -310.058 0.
-1494.55 -1423.49 0.
-757.343 -1383.22 0.
-833.525 -1561.25 0.
-602.673 -1022.82 0.
-1922.5 -1718.81 0.
-878.972 716.778 0.
-821.449 851.747 0.
-1377.63 -1094.77 0.
-1740.23 -1939.95 0.
-794.931 -456.156 0.
-1423.81 -1367.2 0.
-1826.91 -2311.28 0.
381.809 -262.926 0.
-62.4845 -1300.8 0.
-15.7299 -1192.82 0.
-586.316 -1285.82 0.
-371.329 -782.249 0.
-194.118 -366.756 0.
-1041.15 -1553.88 0.
-1009.87 -1475.62 0.
-1403.46 -2388.77 0.
-565.453 -473.982 0.
-74.9518 668.012 0.
628.997 1429.61 0.
506.154 1130.27 0.
364.814 787.609 0.
-454.365 194.146 0.
-485.535 117.942 0.
-32.1318 1172.41 0.
129.282 389.282 0.
-59.9137 -51.8461 0.
-141.231 -241.221 0.
461.551 832.776 0.
115.334 13.0861 0.
-500.082 -248.035 0.
-597.816 -325.796 0.
-626.396 -395.072 0.
-450.363 -349.447 0.
-410.312 -255.26 0.
-370.262 -161.073 0.
266.48 63.3959 0.
150.537 -200.383 0.
34.5934 -464.161 0.
-4.71689 -569.384 0.
-18.4469 -599.627 0.
-32.1775 -629.87 0.
-686.911 -830.995 0.
-630.406 -702.528 0.
-603.055 -605.268 0.
-663.95 -752.078 0.
-724.847 -898.888 0.
-228.168 -821.718 0.
-328.924 -1058.32 0.
-429.681 -1294.93 0.
-748.306 -1500 0.
-724.239 -1445.95 0.
-700.172 -1391.9 0.
-1089.74 -1395.84 0.
-986.068 -1152.73 0.
-887.098 -911.46 0.
-1322.41 -1091.58 0.
-1308.54 -1071.28 0.
-1126.28 -1012.07 0.
-1195.11 -1174.58 0.
-1263.93 -1337.1 0.
-931.764 -1309.37 0.
-977.194 -1419.19 0.
-1022.62 -1529 0.
-467.274 -1354.19 0.
-495 -1415.26 0.
-522.722 -1476.33 0.
-431.808 -1822.1 0.
-662.814 -2359.16 0.
905.523 -2096.92 0.
723.664 -2513.5 0.
541.81 -2930.07 0.
2843.42 -2230.36 0.
2748.37 -2454.36 0.
2653.32 -2678.37 0.
4699.64 -1542.58 0.
5039.54 -761.422 0.
5379.43 19.7316 0.
11486.6 1578.5 0.
10663.7 -336.154 0.
4253.53 -4643.24 0.
7849.67 -1535.01 0.
8674.21 385.01 0.
5499.17 99.7557 0.
5233.09 -523.967 0.
4967.01 -1147.68 0.
2262.63 -2614.16 0.
2211.85 -2736.55 0.
2161.07 -2858.94 0.
355.47 -3190.12 0.
714.894 -2350.21 0.
1074.32 -1510.29 0.
-561.545 -1996.26 0.
-469.12 -1776.79 0.
-1270 -1995.71 0.
-1379.19 -2250.1 0.
-1488.37 -2504.49 0.
-1069.55 -2322.33 0.
-878.531 -1878.56 0.
-687.516 -1434.79 0.
-1215.35 -1290.43 0.
-1026.06 -845.467 0.
-836.763 -400.5 0.
-1338.23 -731.42 0.
-1448.63 -985.918 0.
-1153.85 -1065.81 0.
-1396.61 -1570.86 0.
-1607.55 -2062.26 0.
-227.061 -1771.77 0.
-228.848 -1774.11 0.
-230.636 -1776.45 0.
-672.95 -1788.35 0.
-469.217 -1312.34 0.
-265.486 -836.339 0.
-638.787 -731.738 0.
-524.963 -462.682 0.
-411.141 -193.624 0.
-591.393 -375.474 0.
-664.213 -547.006 0.
-41.8163 -403.558 0.
-3.23898 -321.414 0.
35.3386 -239.27 0.
-679.969 -522.665 0.
-707.367 -586.832 0.
-734.764 -650.999 0.
-210.232 -423.605 0.
-187.115 -369.098 0.
-163.999 -314.59 0.
-79.6568 -211.618 0.
-36.3745 -118.845 0.
-75.7349 -37.4293 0.
-577.298 -287.758 0.
-605.815 -356.92 0.
-367.649 -280.413 0.
-327.209 -186.82 0.
-286.77 -93.2279 0.
327.014 120.522 0.
210.833 -142.977 0.
94.6521 -406.476 0.
-105.68 -579.606 0.
-119.34 -610.288 0.
-133.001 -640.971 0.
-551.275 -742.058 0.
-495.557 -613.08 0.
-454.721 -510.13 0.
-517.106 -656.218 0.
-579.492 -802.305 0.
-16.1058 -701.252 0.
-117.2 -937.618 0.
-218.294 -1173.98 0.
-986.359 -1571.98 0.
-962.358 -1517.49 0.
-938.358 -1463 0.
-741.571 -1214.86 0.
-637.301 -971.996 0.
-551.316 -736.757 0.
-1329.41 -1062.09 0.
-1315.76 -1041.74 0.
-774.945 -829.719 0.
-844.621 -992.314 0.
-914.297 -1154.91 0.
-552.849 -1117.64 0.
-598.79 -1227.33 0.
-644.731 -1337.03 0.
-23.1133 -1133.47 0.
-51.2244 -1194.48 0.
-79.3319 -1255.5 0.
554.105 -1366.85 0.
323.214 -1904.54 0.
1662.61 -1742.79 0.
1480.3 -2158.83 0.
1297.99 -2574.86 0.
2756.69 -2238.72 0.
2661.56 -2461.6 0.
2566.43 -2684.48 0.
3707.51 -1935.24 0.
4048.98 -1155.03 0.
4390.44 -374.823 0.
8328.99 257.555 0.
7510.3 -1654.07 0.
897.662 -6054.03 0.
6466.13 -2100.7 0.
7287.93 -181.034 0.
4020.05 -504.778 0.
3752.53 -1126.17 0.
3485 -1747.55 0.
2298.65 -2570.71 0.
2247.76 -2693.45 0.
2196.87 -2816.19 0.
1334.23 -2742.31 0.
1693.45 -1900.81 0.
2052.67 -1059.3 0.
233.828 -1625.86 0.
327.411 -1406.72 0.
-677.877 -1707.47 0.
-786.473 -1961.99 0.
-895.068 -2216.5 0.
-940.645 -2232.5 0.
-749.117 -1789.09 0.
-557.589 -1345.69 0.
-557.84 -978.679 0.
-369.288 -532.648 0.
-180.734 -86.6173 0.
-1463.99 -753.242 0.
-1575.14 -1007.42 0.
-913.189 -933.511 0.
-1240.66 -1473.19 0.
-1452.79 -1963.41 0.
-166.366 -1718.93 0.
-168.874 -1719.91 0.
-171.382 -1720.89 0.
-499.397 -1683.05 0.
-294.914 -1207.06 0.
-90.4314 -731.065 0.
-559.106 -662.536 0.
-444.588 -393.787 0.
-330.072 -125.038 0.
-657.166 -369.888 0.
-730.415 -541.237 0.
114.817 -305.037 0.
152.026 -221.434 0.
189.236 -137.832 0.
-565.821 -446.332 0.
-594.198 -509.672 0.
-622.575 -573.01 0.
-183.212 -381.391 0.
-160.214 -326.861 0.
-137.216 -272.331 0.
-178.348 -223.491 0.
-136.368 -130.15 0.
301.1 455.716 0.
-285.05 164.51 0.
-313.505 96.0058 0.
-123.567 86.996 0.
-246.8 -205.658 0.
-370.033 -498.313 0.
-32.5468 -526.745 0.
-77.2147 -641.128 0.
-121.883 -755.512 0.
-238.302 -844.238 0.
-235.481 -838.588 0.
-232.659 -832.939 0.
-572.737 -1098.51 0.
-650.837 -1275.78 0.
-792.115 -1467.2 0.
-777.445 -1434.36 0.
-762.775 -1401.52 0.
-223.922 -1154.96 0.
-219.412 -1143.83 0.
-214.902 -1132.7 0.
-844.258 -1396.12 0.
-845.89 -1401.47 0.
-847.52 -1406.81 0.
-640.619 -1288.68 0.
-619.789 -1241.87 0.
-313.864 -1072.81 0.
-1289.21 -1547.39 0.
-1317.01 -1615.33 0.
-867.275 -1493.62 0.
-919.67 -1616.6 0.
-972.067 -1739.59 0.
-527.781 -1682.1 0.
-615.161 -1895.48 0.
-702.542 -2108.87 0.
-235.168 -2103.63 0.
-341.802 -2350.13 0.
-448.437 -2596.62 0.
573.077 -2708.49 0.
245.411 -3468.72 0.
1104.23 -3671.95 0.
1095.14 -3688.63 0.
1086.05 -3705.31 0.
2118.35 -3085.78 0.
2431.7 -2347.79 0.
2745.05 -1609.81 0.
3509.31 -801.403 0.
3701.25 -351.611 0.
3893.19 98.1824 0.
6752.28 953.16 0.
6441.94 228.812 0.
106.252 -3078.83 0.
6416.57 144.136 0.
6691.56 781.07 0.
3265.25 -370.556 0.
3067.18 -834.469 0.
2869.12 -1298.38 0.
2448.33 -1769.25 0.
2353.98 -1983.23 0.
2259.63 -2197.21 0.
1645.98 -2533.16 0.
1633.38 -2560.49 0.
1620.79 -2587.82 0.
114.114 -2868.17 0.
319.728 -2388.41 0.
-523.555 -2386.75 0.
-422.419 -2148.49 0.
-321.281 -1910.23 0.
-678.002 -1925.59 0.
-666.217 -1894.65 0.
-654.433 -1863.72 0.
-510.991 -1703.63 0.
-435.355 -1533.1 0.
-359.72 -1362.57 0.
-1825.49 -1814.21 0.
-1721.46 -1580.49 0.
-789.578 -1011.55 0.
-1063.76 -1424.48 0.
-1213.54 -1784.12 0.
-79.978 -1552.51 0.
-146.706 -1717.35 0.
-213.435 -1882.2 0.
-580.244 -2020.81 0.
-480.495 -1784.42 0.
-380.747 -1548.02 0.
-762.588 -1425.98 0.
-598.466 -1045.18 0.
-434.344 -664.381 0.
-836.731 -763.437 0.
-809.173 -700.117 0.
203.85 -245.068 0.
135.712 -405.92 0.
67.574 -566.773 0.
-694.152 -853.534 0.
-518.733 -452.684 0.
-343.311 -51.8321 0.
118.68 158.667 0.
10.8987 -89.3172 0.
-96.8822 -337.301 0.
-151.69 -286.989 0.
-83.5162 -126.812 0.
332.733 503.733 0.
-27.1711 307.24 0.
-56.3606 239.363 0.
40.0309 188.465 0.
-83.1433 -104.448 0.
-206.318 -397.362 0.
-230.824 -580.369 0.
-275.091 -695.396 0.
-319.359 -810.423 0.
-150.586 -775.528 0.
-147.544 -770.689 0.
-144.502 -765.85 0.
-367.035 -978.043 0.
-444.541 -1156.33 0.
-726.908 -1410.52 0.
-713.081 -1377.23 0.
-699.254 -1343.94 0.
-419.489 -1206.72 0.
-415.191 -1195.36 0.
-410.893 -1184 0.
-446.936 -1195.46 0.
-448.237 -1200.73 0.
-449.538 -1206 0.
-626.202 -1254.07 0.
-606.315 -1206.81 0.
25.6156 -897.178 0.
-651.191 -1242.68 0.
-678.86 -1311 0.
-713.378 -1396.55 0.
-766.65 -1519.52 0.
-819.922 -1642.49 0.
-207.332 -1517.38 0.
-296.112 -1729.89 0.
-384.894 -1942.4 0.
-132.798 -2028.07 0.
-241.203 -2273.91 0.
-349.61 -2519.74 0.
1088.93 -2458.58 0.
760.647 -3218.73 0.
1075.46 -3654.92 0.
1066.56 -3671.44 0.
1057.65 -3687.96 0.
1560.47 -3292.22 0.
1874.54 -2554.94 0.
2188.6 -1817.66 0.
2825.12 -1061.23 0.
3017.47 -612.185 0.
3209.83 -163.133 0.
5325.77 369.694 0.
5015.32 -353.55 0.
1631.23 -2394.48 0.
5344.34 -283.709 0.
5618.3 352.899 0.
2793.94 -539.26 0.
2595.79 -1003.7 0.
2397.65 -1468.15 0.
1966.39 -1943.38 0.
1872.28 -2158.73 0.
1778.18 -2374.08 0.
1283.08 -2654.16 0.
1269.8 -2681.34 0.
1256.52 -2708.52 0.
410.669 -2711.5 0.
616.218 -2231.56 0.
-10.6371 -2137.89 0.
90.748 -1898.47 0.
192.134 -1659.05 0.
-463.434 -1802.43 0.
-451.719 -1771.09 0.
-440.004 -1739.75 0.
-247.231 -1562.48 0.
-171.604 -1391.99 0.
-95.9772 -1221.5 0.
-1438.89 -1613.28 0.
-1334.67 -1379.54 0.
-868.293 -1014.69 0.
-799.503 -1279.96 0.
-949.772 -1639.11 0.
-67.5098 -1519 0.
-134.738 -1682.88 0.
-201.967 -1846.76 0.
-565.791 -1982.98 0.
-466.039 -1746.61 0.
-366.286 -1510.24 0.
-482.214 -1273.31 0.
-318.35 -892.092 0.
-154.486 -510.869 0.
-749.027 -696.905 0.
-722.504 -632.194 0.
234.844 -199.047 0.
166.862 -360.32 0.
98.8794 -521.593 0.
-657.255 -806.203 0.
-482.226 -404.66 0.
-307.196 -3.11608 0.
289.829 261.466 0.
181.832 13.7615 0.
73.8356 -233.942 0.
87.0479 -154.531 0.
155.594 6.28935 0.
114.213 -40.9134 0.
-25.8529 -134.866 0.
600.345 1331.43 0.
443.959 837.8 0.
72.0034 -21.8029 0.
37.2619 -94.4317 0.
-169.351 -55.8472 0.
-107.337 91.9717 0.
171.492 744.434 0.
651.104 958.265 0.
524.315 664.624 0.
226.704 -27.5398 0.
64.0337 -327.9 0.
-59.1242 -616.975 0.
-210.17 -296.821 0.
294.622 882.56 0.
43.8316 298.902 0.
95.2651 379.625 0.
-96.9849 -69.3021 0.
-328.962 -611.198 0.
416.954 99.9307 0.
419.965 106.213 0.
-217.866 -1382.67 0.
-367.959 -661.801 0.
120.333 470.283 0.
147.749 135.598 0.
460.677 165.409 0.
-12.6918 -944.998 0.
-496.559 -1154.16 0.
-142.735 -332.285 0.
-48.317 -115.756 0.
665.795 -53.852 0.
513.811 -411.442 0.
552.066 -324.742 0.
708.704 -231.302 0.
719.079 -211.087 0.
264.193 -1275.9 0.
2883.09 800.696 0.
2335.66 -481.043 0.
2447.12 -348.574 0.
2276.37 -759.289 0.
2359.99 -576.179 0.
2155.72 -796.238 0.
2564.19 147.46 0.
2434.42 -164.093 0.
2626.27 -200.676 0.
2970.69 604.085 0.
3178.32 1085.09 0.
4333.11 794.071 0.
4495.89 1175.41 0.
-1214.1 202.952 0.
4593.46 60.9599 0.
4664.94 227.153 0.
2670.36 79.995 0.
2222.15 -963.56 0.
1965.49 -1557.2 0.
2521.73 304.008 0.
2276.68 -269.393 0.
2254.6 -323.215 0.
1588.58 -1228.31 0.
1677.86 -1018.11 0.
1909.25 -476.828 0.
1391.55 -967.911 0.
1597.71 -483.893 0.
1226.18 -169.675 0.
1117.47 -424.302 0.
1150.86 -347.049 0.
39.1976 -995.856 0.
436.962 -73.7484 0.
15.8786 -1062.37 0.
203.955 -973.616 0.
501.91 -276.882 0.
662.838 99.8767 0.
-630.247 -437.487 0.
-88.2694 825.986 0.
-861.188 -237.186 0.
-173.859 -293.472 0.
171.915 510.984 0.
523.065 -131.13 0.
396.612 -429.857 0.
412.498 -396.683 0.
-43.2356 -776.474 0.
-27.8408 -738.056 0.
338.654 119.691 0.
353.14 177.275 0.
155.089 -282.716 0.
704.733 1001.46 0.
-320.028 180.55 0.
-167.553 540.856 0.
223.628 -251.979 0.
449.657 278.686 0.
527.698 463.92 0.
-614.388 -753.918 0.
-98.851 450.887 0.
-102.109 444.607 0.
103.774 -456.824 0.
424.028 288.664 0.
215.725 -198.972 0.
213.753 -270.151 0.
227.926 -230.567 0.
-233.631 -447.631 0.
-20.6201 -294.955 0.
15.3125 -207.92 0.
-79.4988 -230.395 0.
-230.753 -577.762 0.
-382.008 -925.127 0.
-445.527 -1111.35 0.
-416.35 -1042.68 0.
-387.172 -974.002 0.
-242.046 -1005.29 0.
-333.587 -1220.38 0.
-425.13 -1435.48 0.
-343.345 -1251.9 0.
-237.416 -1002.95 0.
-451.391 -919.383 0.
-520.842 -1080.22 0.
-590.293 -1241.05 0.
-488.017 -1330.73 0.
-578.916 -1541.5 0.
-669.814 -1752.28 0.
-308.071 -1601.13 0.
-230.85 -1420.11 0.
-153.629 -1239.09 0.
-509.752 -1403.86 0.
-537.708 -1472.78 0.
-205.126 -1387.39 0.
-472.905 -1518.28 0.
-480.999 -1541.91 0.
-192.053 -1470.76 0.
-268.227 -1652.33 0.
-344.399 -1833.89 0.
-159.018 -1822.76 0.
-136.103 -1772.25 0.
-113.188 -1721.74 0.
254.535 -1854.39 0.
6.80739 -2436.97 0.
-240.921 -3019.54 0.
1580.51 -2210.39 0.
1633.03 -2090.17 0.
1558.36 -2036.02 0.
1550.9 -2063.94 0.
1543.43 -2091.86 0.
1591.42 -2001.96 0.
1742.11 -1659.68 0.
1892.8 -1317.4 0.
1836.19 -971.558 0.
2075.16 -421.067 0.
2314.13 129.429 0.
3810.03 632.019 0.
3650.83 260.407 0.
-863.607 -1975.98 0.
3835.8 -74.8676 0.
3774.32 -214.028 0.
1757.52 -1187.57 0.
1718.7 -1273.08 0.
1679.88 -1358.59 0.
1804.48 -1454.81 0.
1673.65 -1763.87 0.
1542.82 -2072.93 0.
1041.52 -2430.1 0.
988.962 -2550.56 0.
936.401 -2671.02 0.
1004.59 -2321.82 0.
1188.64 -1892.08 0.
324.112 -1979 0.
263.137 -2120.24 0.
202.158 -2261.49 0.
-506.65 -2565.03 0.
-403.919 -2328.57 0.
-301.189 -2092.1 0.
-88.6722 -1915.23 0.
-86.5524 -1908.44 0.
-84.4326 -1901.66 0.
-1127.28 -2191.53 0.
-1021.26 -1946.03 0.
-778.497 -1650.8 0.
-610.109 -1519.02 0.
-577.036 -1445.17 0.
38.5397 -1182.03 0.
-39.3121 -1369.03 0.
-117.165 -1556.04 0.
-357.525 -1617.87 0.
-240.065 -1339.22 0.
-122.605 -1060.57 0.
-268.039 -1066.82 0.
-274.152 -1080.16 0.
-280.264 -1093.49 0.
-878.614 -1350.45 0.
-881.908 -1356.42 0.
-220.207 -1040.97 0.
-112.326 -791.225 0.
-4.44519 -541.485 0.
-418.278 -595.534 0.
-409.604 -577.841 0.
-400.931 -560.149 0.
182.672 -305.232 0.
186.427 -299.845 0.
190.182 -294.458 0.
-33.9655 -193.862 0.
84.622 88.4453 0.
-431.586 -504.631 0.
85.1428 -220.699 0.
121.885 -134.381 0.
-141.508 -222.04 0.
-292.213 -570.711 0.
-442.92 -919.381 0.
-212.204 -977.714 0.
-182.349 -910.048 0.
-152.494 -842.38 0.
-287.871 -991.155 0.
-377.997 -1207.26 0.
-468.125 -1423.37 0.
-342.772 -1221.02 0.
-237.545 -971.518 0.
-404.551 -867.591 0.
-473.511 -1028.83 0.
-542.471 -1190.08 0.
-288.314 -1213.35 0.
-379.938 -1423.5 0.
-471.56 -1633.66 0.
-285.515 -1561.48 0.
-208.353 -1379.95 0.
-131.19 -1198.43 0.
-277.697 -1275.44 0.
-307.046 -1343.12 0.
58.0396 -1242.13 0.
-717.198 -1595.16 0.
-724.849 -1619.3 0.
366.517 -1197.79 0.
290.19 -1379.82 0.
213.864 -1561.85 0.
-222.945 -1815.08 0.
-200.07 -1765.52 0.
-177.195 -1715.96 0.
567.489 -1688.77 0.
319.719 -2271.25 0.
71.9481 -2853.73 0.
1582.3 -2179.12 0.
1634.46 -2058.53 0.
1373.09 -2082.57 0.
1364.94 -2110.31 0.
1356.8 -2138.06 0.
1548.78 -1991.01 0.
1699.66 -1648.78 0.
1850.54 -1306.56 0.
1289.14 -1173.71 0.
1529.66 -624.405 0.
1770.17 -75.0894 0.
3274.85 435.614 0.
3115.99 63.7728 0.
-1939.21 -2405.02 0.
2992.24 -404.65 0.
2930.83 -544.347 0.
1320.74 -1338.7 0.
1282.56 -1424.95 0.
1244.38 -1511.19 0.
1866.23 -1397.9 0.
1736.01 -1707.19 0.
1605.79 -2016.48 0.
1017.93 -2410.43 0.
964.632 -2530.02 0.
911.334 -2649.62 0.
1258.77 -2181.42 0.
1443.21 -1751.56 0.
188.098 -2005.37 0.
126.136 -2145.48 0.
64.1707 -2285.59 0.
-337.93 -2463.63 0.
-235.268 -2226.63 0.
-132.607 -1989.63 0.
61.0867 -1820.98 0.
63.9912 -1814.55 0.
66.8958 -1808.12 0.
-798.87 -2018.25 0.
-692.495 -1773.12 0.
71.9422 -1256.04 0.
-485.573 -1434.93 0.
-453.095 -1360.99 0.
18.0395 -1156.09 0.
-59.7461 -1343.6 0.
-137.532 -1531.1 0.
-286.47 -1557.83 0.
-169.551 -1278.88 0.
-52.6326 -999.942 0.
-359.606 -1075.62 0.
-365.475 -1089.61 0.
-371.343 -1103.59 0.
-742.187 -1261.48 0.
-744.696 -1268.07 0.
-331.7 -1055.35 0.
-222.376 -806.984 0.
-113.051 -558.618 0.
-242.487 -485.166 0.
-232.612 -468.383 0.
-222.738 -451.601 0.
216.012 -260.014 0.
220.447 -254.668 0.
224.884 -249.323 0.
-360.759 -302.182 0.
-241.31 -18.8542 0.
-221.753 -195.074 0.
135.643 -263.005 0.
45.5525 -473.484 0.
-357.897 -753.539 0.
-242.346 -484.429 0.
-126.797 -215.319 0.
325.617 33.6679 0.
221.983 -210.765 0.
118.349 -455.199 0.
-153.757 -628.757 0.
-135.685 -585.123 0.
-117.613 -541.489 0.
-198.567 -790.283 0.
-339.311 -1117.98 0.
-559.149 -1466.41 0.
-592.548 -1542.81 0.
-625.946 -1619.2 0.
-318.221 -1528.7 0.
-320.999 -1533.88 0.
-323.777 -1539.06 0.
-264.437 -1507.17 0.
-255.714 -1485.24 0.
-246.992 -1463.31 0.
-314.47 -1532.27 0.
-343 -1600.61 0.
291.612 -1384.62 0.
-745.564 -1889.99 0.
-774.301 -1957.51 0.
295.103 -1543.16 0.
294.406 -1543.5 0.
293.707 -1543.84 0.
-77.6218 -1805.39 0.
-202.62 -2097.8 0.
-327.619 -2390.21 0.
467.357 -2129.96 0.
474.477 -2109.25 0.
481.597 -2088.55 0.
1668.24 -1802.27 0.
1528.63 -2125.21 0.
985.346 -2566.56 0.
1190.47 -2092.12 0.
1395.6 -1617.68 0.
1669.58 -1182.74 0.
1757.48 -972.636 0.
1845.39 -762.528 0.
1251.09 -904.519 0.
1295.39 -795.844 0.
1339.68 -687.169 0.
2513.93 -219.785 0.
2481.36 -296.86 0.
-5875.02 -3941.18 0.
2577.64 -331.121 0.
2574.45 -344.605 0.
1222.32 -950.818 0.
1165.96 -1076.92 0.
1109.61 -1203.03 0.
1804.52 -1111.02 0.
1620.45 -1535.26 0.
1436.38 -1959.49 0.
1003.29 -2204.14 0.
1041.3 -2110.58 0.
1079.3 -2017.01 0.
1454.37 -1665.83 0.
1557.69 -1414.71 0.
295.618 -1785.32 0.
269.578 -1845.85 0.
243.539 -1906.39 0.
-46.1489 -2028.63 0.
3.80922 -1907.36 0.
53.7678 -1786.09 0.
117.558 -1648.11 0.
176.599 -1509.79 0.
235.641 -1371.47 0.
-400.045 -1768.68 0.
-491.862 -1981.52 0.
276.811 -1815.35 0.
-680.775 -1977.84 0.
-550.965 -1674.24 0.
-82.1126 -1288.39 0.
-94.6319 -1306.97 0.
-107.151 -1325.56 0.
-130.72 -1323.42 0.
-108.101 -1272.45 0.
-85.4807 -1221.47 0.
-387.531 -1267.76 0.
-340.211 -1156.03 0.
-292.89 -1044.29 0.
-563.276 -1052.78 0.
-501.113 -908.627 0.
-156.507 -639.341 0.
-101.527 -505.325 0.
-46.5466 -371.309 0.
-71.3399 -361.881 0.
-129.752 -495.984 0.
-188.163 -630.086 0.
86.6822 -357.263 0.
254.356 38.5174 0.
422.029 434.296 0.
-191.72 322.39 0.
-131.956 459.397 0.
134.698 -12.6126 0.
230.5 -192.354 0.
138.809 -402.548 0.
-226.203 -664.01 0.
-111.275 -395.345 0.
3.65277 -126.679 0.
388.053 91.7931 0.
284.562 -152.999 0.
181.072 -397.791 0.
-127.866 -584.628 0.
-109.161 -541.51 0.
-90.4563 -498.391 0.
-279.803 -796.839 0.
-420.651 -1123.61 0.
-344.43 -1343.64 0.
-377.451 -1420.03 0.
-410.473 -1496.42 0.
-227.028 -1459.4 0.
-229.338 -1464.74 0.
-231.647 -1470.09 0.
-262.423 -1477.28 0.
-253.984 -1455.02 0.
-245.545 -1432.75 0.
-334.665 -1509.95 0.
-363.58 -1577.86 0.
-191.936 -1559.77 0.
-244.732 -1645.82 0.
-273.742 -1713.2 0.
-24.2933 -1650 0.
-25.2548 -1649.88 0.
-26.2182 -1649.76 0.
357.429 -1585.69 0.
232.46 -1879.26 0.
107.491 -2172.83 0.
410.291 -2123.24 0.
417.477 -2103.39 0.
424.663 -2083.54 0.
1514.83 -1834.76 0.
1375.77 -2157.56 0.
768.909 -2628.55 0.
973.389 -2153.97 0.
1177.87 -1679.4 0.
1192.28 -1356.13 0.
1280.62 -1147.53 0.
1368.97 -938.923 0.
1426.21 -791.829 0.
1471.22 -684.588 0.
1516.22 -577.346 0.
1895.11 -453.872 0.
1862.63 -530.944 0.
6797 1520.68 0.
2380.62 -382.362 0.
2376.15 -394.688 0.
1058.42 -988.197 0.
1001.83 -1114.48 0.
945.238 -1240.77 0.
1313.67 -1291.73 0.
1129.17 -1715.4 0.
944.668 -2139.06 0.
800.987 -2260.82 0.
839.103 -2167.8 0.
877.221 -2074.79 0.
1190.89 -1744.46 0.
1294.7 -1494.76 0.
484.37 -1672.78 0.
459.042 -1734.62 0.
433.715 -1796.47 0.
70.5886 -1944.76 0.
121.461 -1824.48 0.
172.333 -1704.2 0.
-43.6184 -1687.65 0.
16.057 -1549.59 0.
75.7335 -1411.54 0.
4.58213 -1561.37 0.
-87.2378 -1774.26 0.
265.818 -1789.6 0.
-667.981 -1942.12 0.
-538.225 -1638.55 0.
-146.228 -1283.53 0.
-158.029 -1302.86 0.
-169.83 -1322.19 0.
-29.6739 -1247.36 0.
-8.37006 -1196.15 0.
12.9336 -1144.94 0.
-139.252 -1131.03 0.
-92.4847 -1020.34 0.
-45.7171 -909.651 0.
-464.424 -980.108 0.
-402.44 -835.677 0.
-59.6776 -567.003 0.
-3.84411 -433.496 0.
51.9895 -299.99 0.
59.1775 -273.636 0.
0.946984 -408.066 0.
-57.2832 -542.497 0.
-121.033 -414.828 0.
46.5 -18.841 0.
214.032 377.145 0.
-95.2442 395.975 0.
-36.6227 532.665 0.
861.477 1123.33 0.
454.702 190.506 0.
375.857 -0.18048 0.
344.06 449.125 0.
204.56 122.826 0.
497.335 806.459 0.
68.1041 -731.107 0.
224.328 -368.167 0.
368.432 -34.1869 0.
-199.805 -780.413 0.
80.0981 -124.011 0.
171.799 93.7208 0.
-57.7093 -94.1324 0.
127.701 341.695 0.
771.336 883.639 0.
33.8082 -836.147 0.
120.68 -631.871 0.
433.738 -63.8842 0.
671.835 492 0.
610.788 349.778 0.
643.327 661.961 0.
476.178 267.399 0.
569.721 481.584 0.
197.457 -214.015 0.
625.875 783.899 0.
657.237 344.701 0.
702.744 -351.537 0.
1037.52 429.395 0.
547.679 300.972 0.
518.767 238.795 0.
148.939 -618.797 0.
1577.23 461.023 0.
1131.12 -573.317 0.
1168.76 -479.074 0.
1484.65 532.919 0.
1302.8 105.511 0.
1222.03 -86.8265 0.
2787.63 1473.41 0.
2269.84 270.097 0.
1572.37 -328.112 0.
2094.4 884.408 0.
1711.95 -13.0177 0.
1374.16 18.5096 0.
1211.84 -365.67 0.
1262.05 -249.863 0.
1825.37 -147.272 0.
1742.85 -346.06 0.
2311.26 974.69 0.
1453.69 -268.65 0.
1935.8 859.335 0.
-5958.13 -51.7021 0.
2882.5 1205.22 0.
2511.4 340.629 0.
1527.31 450.863 0.
1291.39 -97.8463 0.
1166.36 -388.903 0.
1262.42 -445.412 0.
1556.27 235.005 0.
1176.24 -654.493 0.
2026.7 1039.43 0.
1734.43 350.885 0.
1487.3 -233.98 0.
1946.06 554.822 0.
1905.27 452.748 0.
1679.28 800.216 0.
1143.88 -450.829 0.
1304.22 -78.8533 0.
1028.08 90.1737 0.
817.528 -397.915 0.
713.154 -638.626 0.
682.429 341.214 0.
425.244 -260.887 0.
406.525 -306.402 0.
860.958 -290.399 0.
880.082 -244.135 0.
1095.94 593.728 0.
145.288 -45.6625 0.
384.152 515.597 0.
410.388 162.974 0.
264.121 -177.683 0.
-188.144 -1233.18 0.
551.016 -42.0124 0.
775.928 479.422 0.
769.506 461.363 0.
664.031 316.156 0.
571.39 103.078 0.
770.195 569.889 0.
116.529 220.209 0.
-51.9167 -174.316 0.
778.132 1251.43 0.
420.867 419.866 0.
-53.1512 -684.717 0.
484.853 494.774 0.
869.314 1397.44 0.
788.195 1213.75 0.
4.66376 288.531 0.
88.4199 480.704 0.
583.801 1634.24 0.
217.17 987.192 0.
174.759 888.244 0.
-350.088 -863.139 0.
96.2938 -461.277 0.
156.09 -325.455 0.
78.9134 -285.774 0.
24.8376 -408.74 0.
-29.2367 -531.704 0.
-67.9283 -580.221 0.
-37.676 -510.922 0.
-7.42522 -441.624 0.
-125.678 -522.864 0.
-165.911 -612.917 0.
-206.144 -702.969 0.
-158.815 -756.656 0.
-199.046 -851.32 0.
63.7894 -811.892 0.
-11.9486 -988.261 0.
-87.6861 -1164.63 0.
-161.087 -1336.48 0.
-217.889 -1470.51 0.
-274.691 -1604.53 0.
-375.332 -1658.75 0.
-337.189 -1573.88 0.
-299.045 -1489.01 0.
-347.359 -1474.71 0.
-334.525 -1448.33 0.
-52.5685 -1306.51 0.
227.328 -1347.99 0.
138.393 -1554.71 0.
-152.067 -1823.32 0.
-181.412 -1887.92 0.
-210.757 -1952.53 0.
652.731 -1651.11 0.
604.074 -1760.37 0.
555.418 -1869.62 0.
419.037 -1980.95 0.
401.606 -2024.38 0.
384.174 -2067.8 0.
1318.51 -1625.29 0.
1349.84 -1549.7 0.
953.54 -1664.79 0.
979.55 -1608.87 0.
1005.56 -1552.96 0.
601.068 -1651.13 0.
671.768 -1490.17 0.
742.471 -1329.21 0.
1266.25 -919.088 0.
1389.7 -638.368 0.
1513.15 -357.647 0.
1418.39 -248.925 0.
1487.59 -88.9798 0.
-1055.32 -1052.8 0.
1682.76 -103.707 0.
1565.66 -378.904 0.
1025.65 -768.558 0.
1040.79 -735.969 0.
1055.93 -703.381 0.
1275.2 -692.08 0.
1177.21 -922.804 0.
1079.22 -1153.53 0.
728.593 -1414.84 0.
687.235 -1516.29 0.
645.878 -1617.74 0.
1234.48 -1393.41 0.
1224.77 -1422.42 0.
538.629 -1707.49 0.
636.131 -1484.92 0.
733.633 -1262.35 0.
363.547 -1332.75 0.
324.903 -1421.51 0.
286.26 -1510.26 0.
81.641 -1591.54 0.
121.181 -1502.48 0.
160.72 -1413.43 0.
254.727 -1201.26 0.
355.558 -961.933 0.
350.42 -770.405 0.
-189.039 -1215.78 0.
-304.451 -1479.8 0.
-313.456 -1623.1 0.
-266.272 -1512.88 0.
-219.088 -1402.67 0.
-71.55 -1233.78 0.
-7.33564 -1083.51 0.
56.8789 -933.237 0.
129.403 -829.842 0.
155.724 -764.72 0.
182.045 -699.598 0.
-321.934 -892.511 0.
-314.657 -877.412 0.
-130.798 -821.438 0.
-217.716 -1022.62 0.
-304.634 -1223.8 0.
-162.504 -1115.38 0.
35.3786 -648.626 0.
233.26 -181.878 0.
24.1717 -134.818 0.
12.7088 -163.016 0.
1.2468 -191.213 0.
-515.611 -633.296 0.
-653.895 -956.81 0.
-773.711 -1011.2 0.
17.6633 -460.553 0.
76.2745 -325.034 0.
155.049 -224.503 0.
99.4375 -346.925 0.
43.8279 -469.345 0.
-298.397 -648.839 0.
-268.183 -579.547 0.
-237.97 -510.255 0.
-155.912 -506.46 0.
-196.061 -596.704 0.
-236.21 -686.948 0.
81.8476 -622.521 0.
41.7547 -717.694 0.
106.085 -761.315 0.
29.8747 -937.735 0.
-46.3353 -1114.16 0.
-204.746 -1321.88 0.
-261.298 -1455.61 0.
-317.85 -1589.35 0.
-389.723 -1638.72 0.
-352.818 -1553.03 0.
-315.913 -1467.33 0.
-332.878 -1434.18 0.
-320.015 -1408.45 0.
-736.412 -1566.85 0.
183.355 -1337.14 0.
94.5288 -1543.95 0.
124.66 -1675.32 0.
95.202 -1740.12 0.
65.7452 -1804.92 0.
648.74 -1619.57 0.
600.94 -1729.51 0.
553.139 -1839.46 0.
451.235 -1933.34 0.
433.299 -1976.09 0.
415.363 -2018.83 0.
1162.64 -1662.02 0.
1194.22 -1586.26 0.
914.335 -1650.26 0.
939.826 -1593.74 0.
965.32 -1537.22 0.
547.323 -1643.51 0.
617.368 -1482.49 0.
687.415 -1321.48 0.
1007.16 -998.338 0.
1130.07 -717.268 0.
1252.98 -436.197 0.
1380.92 -235.46 0.
1449.66 -74.9011 0.
-1806.91 -1344.3 0.
914.247 -401.082 0.
796.636 -674.984 0.
1066.57 -721.15 0.
1082.31 -689.145 0.
1098.05 -657.141 0.
1439.06 -587.748 0.
1341.52 -819.424 0.
1243.97 -1051.1 0.
441.545 -1507.74 0.
400.218 -1608.78 0.
358.893 -1709.82 0.
1399.59 -1291.16 0.
1389.37 -1320.2 0.
479.853 -1700.24 0.
578.186 -1478.55 0.
676.52 -1256.86 0.
308.943 -1324.5 0.
270.991 -1413.3 0.
233.039 -1502.09 0.
376.842 -1434.77 0.
417.321 -1346.31 0.
457.8 -1257.85 0.
6.33084 -1274.38 0.
107.251 -1034.41 0.
226.518 -791.457 0.
31.4107 -1089.78 0.
-83.5917 -1354.16 0.
-245.771 -1563.27 0.
-198.888 -1452.71 0.
-152.005 -1342.15 0.
-194.621 -1256.46 0.
-131.02 -1106.05 0.
-67.4183 -955.638 0.
92.3254 -812.952 0.
118.865 -748.541 0.
145.404 -684.13 0.
-258.709 -833.842 0.
-250.966 -819.217 0.
-139.725 -795.11 0.
-226.751 -996.403 0.
-313.777 -1197.7 0.
-91.4266 -1050.76 0.
106.609 -584.322 0.
304.645 -117.89 0.
284.73 6.04637 0.
273.053 -21.9784 0.
261.377 -50.0025 0.
-546.038 -615.505 0.
-683.883 -938.79 0.
-233.216 53.2265 0.
189.012 -68.8606 0.
100.804 -273.852 0.
-22.2014 -428.252 0.
60.1402 -238.118 0.
142.482 -47.983 0.
-106.968 -212.994 0.
-297.641 -652.118 0.
-488.312 -1091.24 0.
-406.384 -1125.53 0.
-352.702 -1000.69 0.
-299.019 -875.842 0.
187.28 -696.118 0.
158.609 -756.345 0.
-35.7687 -881.411 0.
-48.1944 -911.159 0.
-60.6198 -940.906 0.
-178.277 -1040.62 0.
-227.174 -1151.5 0.
-276.07 -1262.37 0.
-195.679 -1270.18 0.
-194.086 -1271.64 0.
-192.495 -1273.11 0.
-198.092 -1246.75 0.
-181.799 -1205.25 0.
-62.6957 -1119.23 0.
196.793 -1156.13 0.
116.974 -1342.94 0.
339.26 -1411.38 0.
211.555 -1712.33 0.
83.8496 -2013.28 0.
389.801 -1979.65 0.
448.53 -1845.73 0.
507.261 -1711.81 0.
569.043 -1692.89 0.
534.532 -1778.57 0.
500.021 -1864.25 0.
1096.94 -1571.8 0.
1124.06 -1510.93 0.
810.101 -1595.13 0.
844.467 -1513.89 0.
878.834 -1432.65 0.
581.157 -1455.99 0.
670.826 -1244.91 0.
760.495 -1033.84 0.
753.15 -984.91 0.
735.513 -1030.14 0.
717.877 -1075.38 0.
1176.93 -637.734 0.
1352.14 -234.258 0.
-1037.16 -933.552 0.
750.872 -356.288 0.
652.576 -587.054 0.
907.666 -698.418 0.
724.467 -1121.5 0.
541.269 -1544.57 0.
1070.52 -1446.03 0.
1144.83 -1270.97 0.
1219.15 -1095.9 0.
335.725 -1482.85 0.
294.204 -1575.33 0.
252.684 -1667.8 0.
1281.85 -1328.8 0.
1225.97 -1447.75 0.
456.399 -1844.74 0.
530.232 -1665.06 0.
604.065 -1485.38 0.
148.117 -1597.59 0.
133.1 -1631.12 0.
118.082 -1664.65 0.
309.116 -1610.36 0.
290.677 -1650.5 0.
272.239 -1690.64 0.
-164.903 -1761.62 0.
-94.7527 -1596.99 0.
213.37 -1343.45 0.
-159.056 -1533.69 0.
-173.941 -1570.23 0.
-229.277 -1579.07 0.
-169.514 -1439.36 0.
-109.751 -1299.65 0.
-160.883 -1219.81 0.
-108.29 -1098.75 0.
-55.6967 -977.695 0.
-67.0297 -985.125 0.
-93.4718 -1047.94 0.
-119.915 -1110.76 0.
-278.206 -1052.34 0.
-199.939 -867.326 0.
-87.7945 -654.033 0.
-7.72763 -467.719 0.
72.3397 -281.404 0.
279.133 -141.289 0.
228.895 -261.358 0.
178.656 -381.426 0.
98.0699 -396.671 0.
145.923 -284.794 0.
193.777 -172.917 0.
-179.658 11.4057 0.
39.5892 510.639 0.
366.119 337.857 0.
294.691 7.21755 0.
206.269 -198.449 0.
-247.555 -492.043 0.
-165.973 -301.82 0.
-84.3907 -111.596 0.
133.633 -78.6184 0.
-56.5168 -518.786 0.
-246.667 -958.951 0.
-314.379 -1056.26 0.
-261.092 -931.492 0.
-207.804 -806.72 0.
303.969 -611.663 0.
276.245 -673.217 0.
-245.75 -940.206 0.
-258.873 -969.963 0.
-271.996 -999.72 0.
-336.566 -1077.31 0.
-384.686 -1189.01 0.
-432.806 -1300.71 0.
-60.816 -1178.67 0.
-58.991 -1180.53 0.
-57.167 -1182.4 0.
-46.158 -1150.68 0.
-29.6758 -1109.75 0.
10.9897 -1058.43 0.
125.524 -1155.39 0.
45.0451 -1341.08 0.
361.533 -1372.21 0.
233.384 -1672.27 0.
105.235 -1972.33 0.
174.303 -2043.02 0.
231.594 -1907.88 0.
288.886 -1772.74 0.
602.457 -1646.82 0.
568.126 -1732.53 0.
533.795 -1818.25 0.
1025.44 -1573.73 0.
1052.18 -1511.85 0.
564.987 -1667.7 0.
598.689 -1585.9 0.
632.392 -1504.11 0.
552.55 -1441.54 0.
641.596 -1229.45 0.
730.641 -1017.36 0.
418.296 -1093.93 0.
401.522 -1140.01 0.
384.751 -1186.09 0.
1161.72 -614.446 0.
1336.62 -210.864 0.
-342.714 -603.181 0.
1127.93 -161.458 0.
1029.63 -392.048 0.
481.239 -850.356 0.
298.397 -1273.46 0.
115.556 -1696.56 0.
921.222 -1479.98 0.
996.842 -1306.15 0.
1072.46 -1132.32 0.
346.908 -1447.04 0.
306.795 -1540.82 0.
266.683 -1634.6 0.
904.101 -1458.25 0.
848.951 -1578.26 0.
592.791 -1754.47 0.
667.644 -1575.59 0.
742.498 -1396.71 0.
115.734 -1580.8 0.
100.447 -1614.39 0.
85.1593 -1647.98 0.
58.4221 -1683.93 0.
39.8038 -1723.47 0.
21.1866 -1763.01 0.
199.367 -1579.37 0.
268.367 -1414 0.
391.899 -1232.84 0.
-323.651 -1570.55 0.
-338.432 -1607.4 0.
-194.175 -1534.19 0.
-134.22 -1394.31 0.
-74.2661 -1254.44 0.
34.1486 -1105.92 0.
87.7318 -985.338 0.
141.314 -864.754 0.
-208.261 -1013.81 0.
-233.675 -1077.17 0.
-259.09 -1140.52 0.
-122.981 -952.331 0.
-44.9501 -767.85 0.
-66.7803 -615.404 0.
13.2382 -428.562 0.
93.257 -241.72 0.
212.024 -137.816 0.
161.374 -257.4 0.
110.723 -376.984 0.
-134.897 -465.398 0.
-87.2477 -353.751 0.
-39.5984 -242.104 0.
85.7933 154.176 0.
304.678 652.754 0.
906.664 534.171 0.
735.008 903.518 0.
554.619 475.963 0.
251.037 1115.16 0.
-243.365 -45.7266 0.
-115.105 246.912 0.
275.492 -166.544 0.
388.975 99.7547 0.
484.476 324.035 0.
583.231 892.104 0.
417.249 506.644 0.
551.74 822.559 0.
1043.54 935.482 0.
919.654 650.835 0.
131.63 363.086 0.
-221.57 -461.725 0.
67.4089 212.435 0.
173.35 431.797 0.
242.893 599.174 0.
364.995 888.877 0.
587.914 112.912 0.
668.591 311.949 0.
935.535 945.56 0.
714.407 342.967 0.
602.344 85.2586 0.
563.08 -790.613 0.
69.6305 -1141.53 0.
970.43 963.165 0.
1072.63 261.18 0.
1385 995.021 0.
1184.77 533.53 0.
849.938 -25.1947 0.
977.52 266.129 0.
630.884 -548.329 0.
1425.43 240.228 0.
1388.34 156.009 0.
1440.39 279.685 0.
1361.42 -617.45 0.
1190.18 -1022.83 0.
893.525 -388.221 0.
978.314 -185.367 0.
1248.8 448.347 0.
1410.96 651.192 0.
1265.96 310.058 0.
1562.41 999.021 0.
1056.72 1057.32 0.
801.805 459.305 0.
373.094 -544.945 0.
1431.84 69.1959 0.
1704.29 706.858 0.
-1141.01 -222.111 0.
1716.8 516.388 0.
1281.57 -497.654 0.
498.605 39.6137 0.
1110.71 1467.26 0.
466.815 -34.6601 0.
1159.21 -613.267 0.
1388.2 -83.445 0.
913.385 -1193.83 0.
1141.41 403.309 0.
849.437 -273.933 0.
1195.5 537.325 0.
1381.27 389.938 0.
1091.32 -293.994 0.
1425.64 -36.2033 0.
1574.53 314.315 0.
1488.66 117.18 0.
254.558 -1168.14 0.
900.362 340.826 0.
852.49 231.354 0.
354.581 -488.571 0.
441.699 -283.324 0.
793.573 540.242 0.
1177.25 46.2791 0.
1022.07 -313.377 0.
1014.91 1397.45 0.
531.572 760.68 0.
338.72 310.307 0.
642.044 380.869 0.
270.224 -488.746 0.
660.805 420.065 0.
602.544 -125.221 0.
725.88 164.718 0.
1066.86 962.336 0.
151.271 99.6528 0.
116.504 19.7196 0.
-320.192 -996.493 0.
600.272 470.691 0.
244.581 -357.913 0.
250.427 126.748 0.
691.325 1154.4 0.
481.302 663.077 0.
-107.935 -734.092 0.
255.756 112.511 0.
186.771 -50.5218 0.
-434.948 -701.186 0.
-434.271 -699.094 0.
188.099 752.473 0.
435.427 518.791 0.
167.158 -98.7403 0.
-116.87 -764.904 0.
-288.869 -654.995 0.
-251.297 -572.225 0.
-106.662 -475.941 0.
-144.551 -571.097 0.
-182.44 -666.253 0.
63.0244 -625.37 0.
40.013 -677.571 0.
17.0019 -729.771 0.
-150.723 -870.05 0.
-197.142 -979.422 0.
-243.559 -1088.79 0.
94.8012 -926.04 0.
112.361 -881.22 0.
-412.607 -1082.4 0.
-441.459 -1152.76 0.
-470.311 -1223.12 0.
-419.787 -1193.57 0.
-345.975 -1017.83 0.
-272.163 -842.091 0.
184.008 -722.281 0.
38.3424 -1055.21 0.
-107.323 -1388.15 0.
-35.8562 -1438.75 0.
-54.0764 -1475.19 0.
-250.265 -1588.1 0.
-81.1669 -1477.66 0.
-55.8243 -1421.03 0.
404.361 -1191.07 0.
383.943 -1237.7 0.
363.526 -1284.34 0.
318.54 -1342.99 0.
293.53 -1407.53 0.
268.519 -1472.07 0.
595.574 -1275.33 0.
663.598 -1119.28 0.
731.62 -963.239 0.
1034.17 -1046.96 0.
899.148 -1368.55 0.
230.088 -1882.23 0.
304.22 -1711.96 0.
378.352 -1541.68 0.
510.474 -1286.01 0.
683.85 -887.766 0.
857.226 -489.519 0.
260.536 -487.891 0.
371.801 -230.85 0.
483.065 26.1919 0.
1280.21 66.5979 0.
1047.53 -480.406 0.
943.26 -972.719 0.
1395.76 -572.282 0.
1503.74 -320.163 0.
138.658 -720.485 0.
194.684 -593.004 0.
250.711 -465.522 0.
997.562 -164.392 0.
911.94 -364.908 0.
826.319 -565.424 0.
693.682 -804.797 0.
591.951 -1040.33 0.
490.22 -1275.86 0.
623.793 -1168.9 0.
664.801 -1078.09 0.
922.797 -928.667 0.
809.561 -1185.44 0.
696.325 -1442.22 0.
38.1574 -1795.86 0.
122.829 -1595.01 0.
207.499 -1394.16 0.
132.302 -1346.33 0.
146.584 -1314.91 0.
160.866 -1283.48 0.
331.632 -1198.29 0.
335.296 -1189.67 0.
651.515 -1043.92 0.
-460.138 -1424.76 0.
-409.14 -1307.68 0.
103.258 -1027.03 0.
79.0917 -1089.11 0.
54.9255 -1151.19 0.
170.562 -1202.15 0.
91.094 -1386.98 0.
11.6259 -1571.82 0.
-365.671 -1583.77 0.
-212.017 -1223.71 0.
-58.3609 -863.652 0.
-54.6362 -639.538 0.
58.4323 -377.082 0.
54.1092 -201.856 0.
43.6709 -226.59 0.
33.2325 -251.324 0.
17.092 -330.623 0.
-69.588 -534.778 0.
-156.268 -738.934 0.
-264.289 -733.28 0.
-150.267 -468.261 0.
-36.2445 -203.243 0.
132.006 -150.463 0.
85.234 -251.625 0.
-674.832 -977.993 0.
-709.615 -807.426 0.
-672.645 -724.039 0.
309.014 -264.375 0.
270.922 -360.103 0.
232.829 -455.832 0.
57.6771 -598.499 0.
34.6235 -650.611 0.
11.5702 -702.723 0.
-104.748 -817.572 0.
-151.012 -927.698 0.
-197.276 -1037.82 0.
-77.6284 -969.38 0.
-60.0358 -924.727 0.
-297.831 -1000.87 0.
-327.932 -1069.91 0.
-358.033 -1138.96 0.
-275.878 -1102.94 0.
-201.963 -926.93 0.
-128.05 -750.925 0.
142.301 -711.579 0.
-3.25437 -1044.64 0.
-148.81 -1377.7 0.
-0.895787 -1391.78 0.
-19.3654 -1428.17 0.
752.802 -1126.04 0.
-74.5209 -1446.54 0.
-47.9925 -1390.84 0.
368.383 -1174.58 0.
348.981 -1222.18 0.
329.579 -1269.78 0.
373.688 -1287.77 0.
349.007 -1352.84 0.
324.324 -1417.92 0.
391.571 -1330.57 0.
460.752 -1175.54 0.
529.932 -1020.5 0.
877.059 -1082.41 0.
741.893 -1403.52 0.
224.3 -1850.14 0.
298.529 -1680.34 0.
372.758 -1510.53 0.
441.067 -1285.57 0.
614.675 -887.452 0.
788.284 -489.332 0.
108.634 -521.413 0.
220.893 -265.071 0.
333.152 -8.72812 0.
1128.56 34.1063 0.
896.711 -513.49 0.
-2577.31 -2448.87 0.
1579.75 -462.721 0.
1687.89 -211.035 0.
115.249 -698.612 0.
171.609 -571.961 0.
227.97 -445.31 0.
582.091 -309.754 0.
496.239 -510.248 0.
410.387 -710.743 0.
795.032 -731.048 0.
693.623 -967.224 0.
592.214 -1203.4 0.
533.3 -1175.98 0.
574.644 -1084.99 0.
789.816 -955.339 0.
676.843 -1211.7 0.
563.87 -1468.05 0.
118.096 -1730.02 0.
202.477 -1529.03 0.
286.856 -1328.05 0.
329.882 -1228.68 0.
344.698 -1197.53 0.
359.512 -1166.38 0.
-33.3605 -1327.97 0.
-29.0445 -1319.89 0.
261.94 -1175.72 0.
-510.933 -1412.61 0.
-459.222 -1296.36 0.
196.36 -955.507 0.
172.157 -1018.11 0.
147.955 -1080.72 0.
221.353 -1147.72 0.
142.579 -1333.19 0.
63.8048 -1518.65 0.
-100.973 -1440.38 0.
53.8151 -1081.18 0.
208.605 -721.974 0.
-257.63 -694.303 0.
-144.474 -432.146 0.
-1.4107 -193.987 0.
-11.7766 -218.379 0.
-22.1426 -242.772 0.
-23.9085 -315.767 0.
-110.696 -519.991 0.
-197.483 -724.217 0.
-23.9236 -600.108 0.
90.2869 -335.522 0.
204.498 -70.9354 0.
130.147 -117.785 0.
83.1621 -220.22 0.
-504.399 -244.523 0.
-686.979 -645.609 0.
-784.327 -869.447 0.
178.053 -617.836 0.
140.149 -702.125 0.
102.247 -786.413 0.
-14.6451 -795.163 0.
80.6712 -571.636 0.
175.988 -348.109 0.
135.846 -310.219 0.
128.163 -330.251 0.
120.48 -350.283 0.
191.792 -340.847 0.
178.318 -374.81 0.
-162.479 -573.221 0.
-281.33 -852.593 0.
-400.181 -1131.96 0.
-169.082 -1162.08 0.
-133.643 -1081.16 0.
-98.2039 -1000.25 0.
9.99337 -928.794 0.
6.34227 -940.86 0.
2.69088 -952.926 0.
132.942 -864.184 0.
162.625 -791.888 0.
1181.35 -295.483 0.
174.9 -1099.23 0.
-36.749 -1588.51 0.
-40.0026 -1850.71 0.
119.678 -1475.47 0.
279.359 -1100.24 0.
479.404 -926.617 0.
385.625 -1140.4 0.
291.845 -1354.18 0.
328.095 -1367.9 0.
351.33 -1311.82 0.
374.564 -1255.74 0.
838.965 -993.496 0.
873.737 -907.575 0.
464.865 -1005.38 0.
487.228 -956.417 0.
509.59 -907.454 0.
527.525 -831.776 0.
601.655 -659.491 0.
675.783 -487.204 0.
41.9596 -780.023 0.
-27.8431 -937.324 0.
-97.6468 -1094.62 0.
806.079 -644.982 0.
867.605 -494.68 0.
-556.394 -983.579 0.
1678.39 66.136 0.
1725.07 176.532 0.
263.58 -407.075 0.
188.964 -581.036 0.
114.35 -754.995 0.
279.998 -778.115 0.
268.4 -809.386 0.
256.804 -840.657 0.
692.301 -743.714 0.
632.217 -879.697 0.
572.134 -1015.68 0.
669.155 -925.522 0.
707.068 -837.891 0.
569.658 -847.411 0.
526.264 -953.518 0.
482.87 -1059.62 0.
460.979 -1054.3 0.
550.04 -847.065 0.
639.101 -639.826 0.
518.86 -740.05 0.
406.156 -996.355 0.
293.453 -1252.66 0.
-149.355 -1394.75 0.
-94.484 -1271.31 0.
567.705 -892.323 0.
-462.072 -1406.97 0.
-503.737 -1498.49 0.
46.0245 -1307.34 0.
62.6858 -1261.53 0.
79.3474 -1215.73 0.
155.105 -1106.41 0.
220.752 -952.58 0.
286.397 -798.751 0.
272.791 -755.288 0.
280.416 -740.467 0.
288.04 -725.646 0.
-460.095 -1006.79 0.
-434.676 -947.056 0.
-244.336 -813.795 0.
-177.119 -657.165 0.
-109.902 -500.535 0.
-124.694 -393.699 0.
-85.0712 -303.745 0.
-45.449 -213.792 0.
285.145 -35.2324 0.
292.851 -18.4804 0.
300.557 -1.72885 0.
81.4668 -136.066 0.
65.4261 -183.061 0.
-306.988 -125.814 0.
-404.421 -497.935 0.
-502.101 -720.368 0.
-144.801 -722.048 0.
-182.095 -806.534 0.
-219.389 -891.019 0.
50.9135 -736.748 0.
145.958 -513.361 0.
241.004 -289.974 0.
166.895 -263.978 0.
159.205 -284.382 0.
151.514 -304.786 0.
404.302 -221.11 0.
390.679 -255.018 0.
-345.949 -616.011 0.
-464.305 -895.09 0.
-582.661 -1174.17 0.
38.4053 -1045.41 0.
73.1081 -962.758 0.
107.812 -880.111 0.
-18.6971 -911.711 0.
-21.4396 -923.664 0.
-24.1823 -935.616 0.
-80.7929 -922.769 0.
-50.7759 -851.21 0.
116.491 -721.091 0.
434.353 -957.837 0.
223.209 -1448 0.
-265.84 -1913.74 0.
-105.3 -1539.86 0.
55.2397 -1165.97 0.
328.868 -957.075 0.
236.043 -1172.02 0.
143.219 -1386.96 0.
433.637 -1291.75 0.
457.262 -1236.52 0.
480.888 -1181.29 0.
826.362 -966.306 0.
862.683 -880.98 0.
207.896 -1081.75 0.
230.564 -1033.63 0.
253.23 -985.511 0.
364.203 -871.76 0.
439.907 -701.484 0.
515.611 -531.207 0.
313.226 -629.339 0.
245.199 -788.234 0.
177.169 -947.128 0.
874.909 -580.212 0.
938.576 -431.888 0.
-3083.86 -2034.74 0.
1241.44 -88.2299 0.
1286.8 22.9803 0.
359.56 -336.255 0.
283.706 -509.145 0.
207.854 -682.032 0.
475.85 -664.101 0.
464.635 -696.089 0.
453.42 -728.077 0.
379.738 -845.051 0.
320.593 -981.548 0.
261.447 -1118.05 0.
852.904 -815.115 0.
891.602 -727.787 0.
102.714 -1017.7 0.
58.042 -1123.04 0.
13.3706 -1228.38 0.
546.509 -989.195 0.
634.651 -781.036 0.
722.792 -572.877 0.
290.399 -804.38 0.
176.661 -1059.77 0.
62.9231 -1315.15 0.
35.3686 -1288.27 0.
88.5398 -1163.55 0.
358.078 -947.733 0.
-279.33 -1295.55 0.
-320.468 -1387.73 0.
-10.2104 -1300.84 0.
6.64214 -1255.7 0.
23.4949 -1210.56 0.
-79.4543 -1174.91 0.
-13.71 -1021.55 0.
52.0333 -868.204 0.
244.484 -735.897 0.
252.288 -721.239 0.
260.09 -706.581 0.
-388.785 -945.748 0.
-362.217 -886.394 0.
-103.532 -720.469 0.
-35.833 -563.66 0.
31.8676 -406.852 0.
-215.543 -401.014 0.
-175.926 -311.292 0.
-136.31 -221.57 0.
248.612 -18.0298 0.
256.409 -2.12229 0.
264.206 13.7848 0.
1.43257 -139.668 0.
-15.0076 -187.676 0.
-395.953 -672.928 0.
476.774 1088.67 0.
242.53 538.368 0.
-89.9081 36.926 0.
-584.082 -1117.67 0.
68.5905 403.482 0.
752.987 817.025 0.
199.52 -477.871 0.
383.556 -50.9489 0.
247.838 -95.1976 0.
-57.8657 -808.012 0.
520.354 542.089 0.
858.613 470.79 0.
497.672 -370.028 0.
-102.312 316.397 0.
31.0732 631.798 0.
-756.691 -1202.58 0.
711.777 176.101 0.
769.219 316.044 0.
899.8 626.122 0.
567.043 527.91 0.
682.879 796.702 0.
351.001 21.3113 0.
82.1478 -110.908 0.
292.823 377.039 0.
50.0632 302.17 0.
1179.93 311.7 0.
1244.79 465.386 0.
428.403 168.267 0.
601.589 576.799 0.
298.391 -126.309 0.
542.185 -154.854 0.
-220.074 -1935.46 0.
871.179 608.88 0.
1448.13 916.491 0.
1175.88 282.69 0.
976.206 -182.032 0.
1782.87 1328.46 0.
1317.42 244.027 0.
272.081 -425.626 0.
481.348 65.2633 0.
897.046 1037.14 0.
881.383 650.829 0.
707.665 242.746 0.
836.941 541.392 0.
705.379 -192.6 0.
886.645 223.463 0.
612.155 -423.883 0.
687.566 -1099.71 0.
1251.83 216.552 0.
-1355.21 -281.927 0.
971.331 132.107 0.
803.842 -248.685 0.
331.828 -551.238 0.
333.516 -541.368 0.
940.657 881.944 0.
680.253 -553.258 0.
416.309 -1168.98 0.
822.45 -219.231 0.
738.224 620.817 0.
499.936 65.9152 0.
792.522 749.632 0.
1514.53 410.271 0.
1602 622.311 0.
298.609 332.15 0.
169.272 37.3562 0.
-328.499 -1117.44 0.
536.444 -1132.37 0.
688.384 -776.634 0.
1241.61 514.663 0.
476.67 116.971 0.
491.838 155.054 0.
695.48 631.678 0.
1203.38 1111.2 0.
460.97 -616.42 0.
231.493 20.603 0.
808.732 922.767 0.
568.746 364.343 0.
1217.04 1718.2 0.
355.331 -293.766 0.
465.56 -37.7047 0.
203.964 -43.9044 0.
273.925 114.371 0.
205.282 -50.4316 0.
616.22 216.88 0.
410.544 -260.944 0.
276.371 -571.697 0.
260.994 448.073 0.
185.455 272.994 0.
141.376 -379.671 0.
581.72 653.798 0.
302.515 7.50392 0.
-186.998 -132.152 0.
-72.3404 139.153 0.
26.5788 373.149 0.
366.953 356.402 0.
-18.9707 -542.298 0.
-63.9486 -643.147 0.
-428.288 -963.246 0.
-195.512 -417.285 0.
318.908 -318.359 0.
-97.7158 -412.217 0.
-137.526 -507.999 0.
-292.261 -665.303 0.
-335.05 -765.443 0.
-377.838 -865.582 0.
-32.1617 -729.693 0.
9.66246 -637.101 0.
51.4849 -544.507 0.
44.9892 -613.765 0.
-17.9142 -760.043 0.
-80.818 -906.321 0.
207.238 -764.795 0.
217.565 -734.958 0.
-442.153 -991.955 0.
-410.229 -914.005 0.
-378.306 -836.054 0.
154.302 -557.73 0.
157.949 -550.758 0.
161.596 -543.785 0.
172.76 -580.839 0.
119.789 -699.969 0.
66.819 -819.098 0.
-271.435 -1201.56 0.
-416.423 -1541.22 0.
-151.085 -1703.98 0.
466.147 -1173.8 0.
608.91 -837.643 0.
59.5541 -913.636 0.
-81.807 -1242.24 0.
-223.168 -1570.83 0.
-268.276 -1670.97 0.
-178.553 -1464.16 0.
-88.8288 -1257.36 0.
337.107 -1071.79 0.
285.687 -1187.48 0.
234.267 -1303.17 0.
603.132 -1004.61 0.
689.751 -794.582 0.
79.3556 -904.895 0.
101.702 -850.248 0.
124.05 -795.6 0.
235.359 -763.737 0.
159.72 -940.835 0.
84.0817 -1117.93 0.
222.065 -1035 0.
316.366 -821.167 0.
410.669 -607.329 0.
1117.69 -338.295 0.
1064.3 -454.729 0.
-2490.12 -2070.04 0.
544.417 -751.702 0.
553.355 -729.107 0.
241.598 -868.116 0.
195.818 -972.105 0.
150.038 -1076.09 0.
372.381 -1017.12 0.
385.7 -983.085 0.
399.019 -949.049 0.
198.725 -1130.43 0.
116.019 -1323.96 0.
33.3131 -1517.49 0.
594.51 -1077.71 0.
723.943 -780.532 0.
-183.985 -944.662 0.
-129.571 -815.829 0.
-75.1552 -686.996 0.
575.122 -382.953 0.
512.35 -527.407 0.
449.578 -671.86 0.
171.49 -889.107 0.
124.651 -998.391 0.
77.8114 -1107.67 0.
288.007 -916.318 0.
365.643 -734.922 0.
889.358 -365.163 0.
226.517 -566.614 0.
268.871 -465.778 0.
64.5762 -517.363 0.
11.0241 -639.309 0.
-42.527 -761.254 0.
-64.0665 -771.715 0.
-10.98 -649.227 0.
42.1066 -526.739 0.
123.046 -593.7 0.
26.3454 -823.089 0.
-70.3563 -1052.48 0.
-142.325 -918.307 0.
-32.7995 -664.056 0.
-86.3143 -504.057 0.
-97.113 -526.031 0.
-107.914 -548.006 0.
-197.713 -537.712 0.
-108.094 -328.797 0.
-18.4754 -119.881 0.
82.9614 -122.678 0.
-20.2304 -360.591 0.
-123.422 -598.504 0.
-93.3287 -607.048 0.
-88.5203 -591.171 0.
1023.33 9.83457 0.
1.73038 -338.644 0.
-38.1561 -434.181 0.
-152.839 -573.639 0.
-195.867 -673.151 0.
-238.894 -772.662 0.
-165.398 -754.642 0.
-123.026 -662.821 0.
-80.6564 -570.999 0.
84.765 -566.977 0.
21.7821 -713.279 0.
-41.2011 -859.579 0.
70.526 -791.595 0.
80.7281 -761.589 0.
-160.763 -843.286 0.
-128.779 -764.821 0.
-96.7946 -686.355 0.
-122.081 -643.282 0.
-117.81 -636.962 0.
-113.539 -630.641 0.
289.89 -498.23 0.
237.246 -617.444 0.
184.602 -736.658 0.
-115.591 -1102.73 0.
-261.116 -1442.27 0.
268.919 -1491.19 0.
387.466 -1174.95 0.
530.317 -838.757 0.
193.949 -826.223 0.
52.0811 -1154.15 0.
-89.7867 -1482.08 0.
-447.859 -1715.56 0.
-358.082 -1508.61 0.
-268.304 -1301.66 0.
36.6415 -1169.11 0.
-13.8099 -1285.54 0.
-64.2617 -1401.97 0.
396.917 -1061.14 0.
482.638 -849.922 0.
113.965 -859.591 0.
136.206 -805.251 0.
158.446 -750.911 0.
202.033 -748.258 0.
126.821 -926.381 0.
51.6081 -1104.5 0.
85.114 -1059.88 0.
179.451 -846.433 0.
273.789 -632.983 0.
1259.6 -246.33 0.
1206.08 -362.561 0.
-1942.22 -1803.89 0.
502.684 -737.24 0.
510.715 -714.113 0.
320.001 -805.159 0.
273.83 -909.155 0.
227.659 -1013.15 0.
254.521 -1033.87 0.
267.595 -1000.17 0.
280.669 -966.469 0.
475.693 -982.62 0.
392.663 -1175.27 0.
309.634 -1367.93 0.
267.169 -1185.92 0.
396.921 -889.268 0.
-83.1256 -865.723 0.
-27.6921 -738.06 0.
27.7419 -610.397 0.
242.792 -494.328 0.
180.12 -638.785 0.
117.448 -783.241 0.
344.742 -783.983 0.
296.798 -892.465 0.
248.854 -1000.95 0.
255.383 -897.425 0.
333.779 -716.694 0.
1559.07 -47.5444 0.
313.364 -499.086 0.
356.198 -398.571 0.
-160.771 -580.919 0.
-214.09 -702.274 0.
-267.407 -823.629 0.
5.2046 -713.684 0.
58.3004 -591.248 0.
111.396 -468.811 0.
-34.0481 -626.323 0.
-129.803 -856.831 0.
-225.559 -1087.34 0.
101.146 -780.221 0.
211.005 -525.836 0.
-287.152 -560.031 0.
-297.916 -582.28 0.
-308.681 -604.529 0.
23.563 -409.599 0.
112.711 -200.713 0.
201.858 8.17222 0.
2.81733 -126.119 0.
-100.345 -364.634 0.
-203.507 -603.15 0.
144.404 -475.266 0.
148.539 -459.271 0.
1107.54 -142.538 0.
-72.5186 -574.677 0.
34.3101 -322.732 0.
84.3028 -123.509 0.
73.8683 -150.474 0.
63.4331 -177.438 0.
50.1693 -254.564 0.
-3.78778 -379.563 0.
-57.7451 -504.559 0.
78.471 -517.07 0.
42.7185 -600.75 0.
6.96649 -684.43 0.
-68.2886 -795.63 0.
-105.465 -882.745 0.
-67.5876 -908.067 0.
13.9357 -716.101 0.
95.4597 -524.136 0.
-138.824 -566.619 0.
-241.323 -798.487 0.
-343.822 -1030.35 0.
59.7697 -914.021 0.
90.4261 -839.743 0.
121.083 -765.465 0.
117.955 -730.561 0.
129.505 -701.648 0.
690.242 -437.291 0.
537.35 -677.102 0.
445.375 -892.964 0.
111.294 -1147.96 0.
208.857 -924.917 0.
306.419 -701.875 0.
-161.97 -838.157 0.
-216.582 -964.176 0.
-271.193 -1090.2 0.
7.27993 -941.225 0.
65.4548 -806.108 0.
123.63 -670.991 0.
473.262 -443.66 0.
510.996 -359.728 0.
263.545 -416.847 0.
186.381 -598.174 0.
109.216 -779.502 0.
34.6856 -889.389 0.
77.0215 -790.878 0.
119.358 -692.366 0.
124.012 -679.451 0.
98.7276 -736.705 0.
73.4425 -793.96 0.
1489.12 -121.281 0.
1544.49 5.0644 0.
-1175.9 -1058.79 0.
574.188 -534.392 0.
458.381 -809.462 0.
178.698 -1051.95 0.
303.664 -775.344 0.
428.632 -498.731 0.
465.339 -424.136 0.
390.936 -599.68 0.
316.532 -775.226 0.
547.039 -722.35 0.
543.643 -731.77 0.
540.248 -741.189 0.
169.986 -1041.03 0.
85.5656 -1229.55 0.
-297.851 -1514.06 0.
-226.302 -1347.31 0.
-154.754 -1180.55 0.
-117.811 -1096.9 0.
-148.727 -1174.9 0.
-179.643 -1252.89 0.
287.578 -931.724 0.
420.415 -622.77 0.
553.254 -313.816 0.
402.777 -477.784 0.
303.729 -706.7 0.
62.203 -981.301 0.
197.898 -729.666 0.
298.673 -493.376 0.
-184.337 -561.22 0.
-194.785 -587.04 0.
-205.233 -612.859 0.
156.807 -436.906 0.
181.926 -375.129 0.
207.045 -313.353 0.
-108.219 -470.662 0.
-132.89 -521.23 0.
-157.561 -571.797 0.
257.845 -350.404 0.
283.201 -292.96 0.
-242.298 -474.727 0.
-229.405 -445.986 0.
-216.512 -417.244 0.
146.913 -297.723 0.
74.0968 -463.089 0.
1.27957 -628.453 0.
-267.287 -708.004 0.
-189.863 -530.247 0.
-112.439 -352.491 0.
291.977 -91.6943 0.
334.425 6.86193 0.
889.185 -205.854 0.
-96.6431 -552.788 0.
10.5688 -301.024 0.
88.6418 -90.8441 0.
78.7292 -118.425 0.
68.8159 -146.005 0.
205.143 -152.158 0.
152.347 -278.734 0.
99.5506 -405.308 0.
-0.986001 -520.31 0.
-37.3045 -603.815 0.
-73.6225 -687.319 0.
-221.245 -829.679 0.
-258.615 -916.274 0.
-8.6826 -851.336 0.
71.6604 -658.088 0.
152.004 -464.841 0.
15.0833 -473.871 0.
-88.1591 -704.594 0.
-191.401 -935.317 0.
-139.785 -967.087 0.
-109.106 -892.661 0.
-78.4276 -818.236 0.
187.311 -670.036 0.
199.523 -641.778 0.
322.787 -565.298 0.
508.186 -658.234 0.
416.513 -874.055 0.
144.137 -1101.69 0.
242.662 -879.108 0.
341.187 -656.53 0.
-158.94 -804.976 0.
-213.06 -931.606 0.
-267.181 -1058.24 0.
19.803 -904.243 0.
78.1693 -769.523 0.
136.536 -634.803 0.
246.466 -508.331 0.
283.651 -423.648 0.
177.366 -424.308 0.
100.531 -605.222 0.
23.6968 -786.136 0.
-161.403 -942.947 0.
-120.043 -844.113 0.
-78.6828 -745.28 0.
-15.8492 -709.274 0.
-39.5842 -768.595 0.
-63.3195 -827.916 0.
1811.14 50.4611 0.
1867.01 176.329 0.
-1382.23 -1115.1 0.
605.327 -488.658 0.
488.992 -762.746 0.
77.0673 -1068.33 0.
200.486 -789.893 0.
323.906 -511.454 0.
508.473 -376.62 0.
433.857 -551.636 0.
359.241 -726.653 0.
210.121 -837.392 0.
205.757 -845.927 0.
201.394 -854.461 0.
145.731 -1019.62 0.
62.2186 -1209.02 0.
-200.411 -1438.79 0.
-129.39 -1271.66 0.
-58.37 -1104.53 0.
1.00767 -1016.05 0.
-31.5925 -1092.44 0.
-64.1937 -1168.83 0.
167.058 -953.648 0.
300.121 -644.608 0.
433.184 -335.566 0.
385.332 -453.032 0.
285.625 -681.118 0.
66.0233 -952.299 0.
107.11 -741.17 0.
207.672 -505.025 0.
-19.7049 -460.007 0.
-30.7015 -485.042 0.
-41.6985 -510.076 0.
212.571 -383.999 0.
238.221 -322.275 0.
263.871 -260.551 0.
-267.155 -503.888 0.
-291.729 -554.869 0.
-316.302 -605.849 0.
2.61244 -429.122 0.
28.0643 -371.308 0.
14.038 -335.254 0.
26.5899 -306.249 0.
39.1412 -277.244 0.
136.299 -266.405 0.
62.7046 -431.08 0.
-10.8903 -595.753 0.
-214.334 -656.381 0.
-136.501 -479.064 0.
-58.6675 -301.747 0.
81.9593 -151.008 0.
124.589 -52.7063 0.
864.735 -106.415 0.
69.1501 -61.7425 0.
-465.4 -1305.79 0.
-507.579 -1470.81 0.
475.782 828.218 0.
433.963 735.041 0.
799.744 978.449 0.
383.907 12.0355 0.
296.817 -187.033 0.
370.555 534.924 0.
160.901 44.997 0.
222.509 187.486 0.
-2.23212 -1.75371 0.
-402.213 -937.586 0.
526.015 333.435 0.
727.867 802.248 0.
747.29 845.981 0.
394.134 162.25 0.
334.465 24.5033 0.
487.931 382.908 0.
-18.7976 -280.356 0.
130.605 59.6989 0.
-224.51 -775.643 0.
611.05 207.094 0.
678.7 366.489 0.
1345.58 315.832 0.
347.2 -924.732 0.
514.084 -539.424 0.
526.959 -249.101 0.
502.827 -309.538 0.
752.072 268.693 0.
435.009 601.444 0.
776.361 1401.94 0.
175.502 5.08707 0.
507.53 236.532 0.
636.635 539.876 0.
231.828 -402.881 0.
671.093 949.797 0.
368.058 233.667 0.
118.894 -376.728 0.
-8.84226 -680.155 0.
-65.659 -818.435 0.
-110.205 -417.525 0.
-11.1555 -184.55 0.
8.79371 -135.797 0.
287.726 284.272 0.
89.5644 -174.747 0.
-289.979 -1056.77 0.
2085.92 95.1063 0.
2531.29 1130.1 0.
-9575.56 -2540.88 0.
1244.92 995.984 0.
716.532 -239.435 0.
-106.187 -1270.95 0.
115.559 -760.069 0.
-15.9739 -1073.32 0.
237.123 -1062.33 0.
264.103 -1000.75 0.
623.998 -162.014 0.
658.258 873.614 0.
-4.03063 -673.871 0.
321.687 85.7854 0.
526.683 -52.8104 0.
1033.15 1133.28 0.
365.391 -263.813 0.
475.649 -7.31084 0.
795.315 740.61 0.
829.081 734.616 0.
635.874 285.831 0.
632.82 280.331 0.
422.765 -100.447 0.
1059.1 1383.89 0.
762.04 688.743 0.
705.383 357.002 0.
625.682 178.04 0.
-131.932 -270.372 0.
1107.39 1785.05 0.
388.199 109.782 0.
93.2387 -488.662 0.
-266.791 -1328.97 0.
108.095 -454.952 0.
258.623 -353.335 0.
439.451 77.3492 0.
-10.435 -963.143 0.
-198.103 -15.4796 0.
-201.739 -32.2583 0.
-746.03 -1310.02 0.
-158.982 -293.964 0.
183.512 510.439 0.
146.997 -467.409 0.
714.499 852.632 0.
419.022 159.059 0.
104.569 -267.256 0.
227.964 20.0899 0.
113.235 -249.368 0.
-68.4663 -384.716 0.
256.857 381.074 0.
53.855 -86.4463 0.
500.263 1194.08 0.
-88.7278 -188.849 0.
137.522 -660.946 0.
-53.3459 -552.058 0.
1.14368 -421.596 0.
42.9974 -348.891 0.
5.11222 -435.292 0.
-32.7741 -521.691 0.
21.1095 -502.557 0.
53.0806 -425.156 0.
85.05 -347.755 0.
2.77047 -330.867 0.
31.9694 -263.512 0.
61.1688 -196.156 0.
-202.739 -311.125 0.
-207.507 -324.317 0.
244.731 -163.035 0.
138.223 -418.314 0.
31.7142 -673.595 0.
-115.057 -889.683 0.
-141.758 -957.432 0.
-168.46 -1025.18 0.
-12.7432 -921.404 0.
43.9985 -794.965 0.
100.742 -668.524 0.
159.637 -668.35 0.
130.255 -734.505 0.
446.793 -652.609 0.
226.258 -765.378 0.
220.048 -781.408 0.
199.341 -780.788 0.
212.827 -748.073 0.
226.313 -715.36 0.
-155.271 -900.435 0.
-186.765 -974.415 0.
-218.259 -1048.39 0.
-35.3163 -873.463 0.
52.5349 -665.748 0.
140.385 -458.033 0.
-20.1961 -622.119 0.
-85.3512 -778.658 0.
-176.485 -914.038 0.
-73.0867 -674.133 0.
30.3117 -434.228 0.
41.4474 -360.477 0.
-59.5449 -598.264 0.
-160.537 -836.052 0.
-164.574 -974.872 0.
-216.921 -1088.52 0.
-269.268 -1202.17 0.
1670.73 -226.833 0.
1782.64 35.7122 0.
-2595.17 -1627.76 0.
430.183 -293.395 0.
450.316 -246.505 0.
187.319 -338.65 0.
159.004 -406.273 0.
130.688 -473.897 0.
555.282 -383.673 0.
487.761 -541.231 0.
420.24 -698.789 0.
-54.61 -837.071 0.
36.2802 -629.671 0.
127.171 -422.272 0.
380.987 -383.326 0.
324.592 -514.404 0.
321.063 -618.017 0.
295.196 -678.545 0.
269.329 -739.074 0.
89.4381 -826.836 0.
119.431 -760.303 0.
149.425 -693.769 0.
-60.7717 -826.82 0.
-120.724 -966.907 0.
-180.676 -1107 0.
142.44 -836.015 0.
239.942 -602.311 0.
762.311 -186.299 0.
43.3833 -627.459 0.
-27.6686 -789.413 0.
6.74923 -825.596 0.
142.066 -513.08 0.
277.384 -200.564 0.
197.542 -231.861 0.
37.9911 -600.063 0.
-121.561 -968.264 0.
-459.155 -976.944 0.
-278.365 -561.901 0.
-97.5732 -146.856 0.
-171.817 -426.442 0.
-335.093 -804.673 0.
-149.05 -975.904 0.
-84.0949 -825.887 0.
-19.1402 -675.87 0.
-45.888 -572.365 0.
12.5756 -437.849 0.
71.0383 -303.332 0.
-30.6101 -347.674 0.
-74.9092 -447.535 0.
-119.207 -547.397 0.
165.436 -509.842 0.
123.051 -612.774 0.
212.777 -602.514 0.
70.949 -468.503 0.
125.56 -338.334 0.
146.392 -272.42 0.
109.547 -359.893 0.
72.7019 -447.364 0.
-138.384 -537.072 0.
-105.419 -460.348 0.
-72.4558 -383.623 0.
22.7414 -289.835 0.
51.798 -222.317 0.
80.8551 -154.799 0.
-268.962 -307.367 0.
-274.199 -320.476 0.
177.604 -161.702 0.
70.4604 -416.658 0.
-36.6833 -671.615 0.
-165.347 -880.146 0.
-192.107 -948.198 0.
-218.868 -1016.25 0.
346.841 -735.55 0.
403.117 -608.78 0.
459.394 -482.009 0.
86.9506 -668.867 0.
57.9662 -734.869 0.
-478.076 -1018.52 0.
2.19177 -831.128 0.
-3.83521 -846.948 0.
93.9031 -795.816 0.
107.682 -762.92 0.
121.461 -730.025 0.
-82.2577 -839.916 0.
-113.715 -913.421 0.
-145.172 -986.926 0.
-93.7512 -865.773 0.
-4.9917 -659.388 0.
83.7673 -453.001 0.
-26.7604 -593.36 0.
-92.7997 -749.393 0.
-241.191 -909.698 0.
-137.503 -670.348 0.
-33.8156 -430.996 0.
217.863 -254.079 0.
116.438 -492.463 0.
15.0138 -730.847 0.
-44.7511 -891.415 0.
-96.654 -1006.19 0.
-148.557 -1120.97 0.
1338.54 -337.711 0.
1450.91 -75.2384 0.
-5471.27 -2827.81 0.
127.312 -391.061 0.
147.965 -344.632 0.
68.8284 -357.73 0.
40.8032 -426.043 0.
12.7784 -494.357 0.
603.309 -331.384 0.
535.919 -490.009 0.
468.529 -648.635 0.
-12.0599 -785.032 0.
79.0955 -578.312 0.
170.251 -371.591 0.
393.892 -346.072 0.
337.88 -477.598 0.
467.186 -522.084 0.
441.733 -583.288 0.
416.281 -644.494 0.
25.1017 -822.87 0.
54.8751 -756.688 0.
84.6487 -690.506 0.
-255.17 -877.772 0.
-315.067 -1018.91 0.
-374.963 -1160.06 0.
93.4547 -825.068 0.
190.197 -591.328 0.
727.185 -173.91 0.
19.6077 -608.489 0.
-51.9782 -769.724 0.
89.5759 -759.935 0.
225.299 -447.231 0.
361.023 -134.527 0.
79.8636 -251.027 0.
-79.9173 -618.359 0.
-239.698 -985.689 0.
-258.912 -861.2 0.
-78.435 -445.69 0.
102.042 -30.1776 0.
-98.8063 -362.356 0.
-261.134 -741.427 0.
-234.481 -979.389 0.
-169.401 -829.56 0.
-104.322 -679.73 0.
-51.5584 -544.149 0.
6.38711 -409.239 0.
64.3316 -274.327 0.
14.8411 -296.781 0.
-29.0464 -397.018 0.
-72.9327 -497.255 0.
665.653 -266.084 0.
622.342 -368.11 0.
-173.043 -217.563 0.
164.307 -330.3 0.
38.3621 -626.524 0.
-185.927 -882.793 0.
-106.417 -693.851 0.
-26.9081 -504.908 0.
-156.189 -464.025 0.
-142.321 -429.285 0.
-128.453 -394.545 0.
52.2664 -263.324 0.
81.7942 -190.261 0.
111.321 -117.196 0.
-328.487 -486.813 0.
-435.417 -740.909 0.
-80.8541 -759.011 0.
-4.12116 -579.759 0.
72.6118 -400.507 0.
-24.2853 -375.96 0.
-65.5764 -469.896 0.
-106.868 -563.833 0.
577.733 -363.512 0.
524.015 -483.678 0.
470.298 -603.842 0.
66.7968 -743.25 0.
96.2155 -673.57 0.
282.352 -535.108 0.
-44.1308 -620.876 0.
-20.3585 -556.757 0.
159.809 -470.517 0.
75.6862 -663.765 0.
-8.4373 -857.013 0.
-181.317 -918.675 0.
-56.3318 -624.228 0.
68.6519 -329.781 0.
131.849 -244.339 0.
111.125 -293.342 0.
90.4001 -342.346 0.
89.3144 -409.388 0.
51.2043 -495.629 0.
-64.615 -600.197 0.
-43.7126 -547.707 0.
-22.8094 -495.217 0.
188.725 -387.312 0.
179.321 -411.369 0.
169.918 -435.425 0.
74.7 -460.764 0.
101.273 -401.195 0.
127.845 -341.626 0.
1375.21 186.066 0.
1371.72 175.493 0.
-866.065 -790.938 0.
45.8977 -276.803 0.
108.388 -128.976 0.
307.41 17.2435 0.
227.305 -165.072 0.
147.203 -347.388 0.
487.655 -319.429 0.
451.419 -403.869 0.
415.184 -488.31 0.
99.7922 -550.423 0.
173.105 -378.226 0.
246.418 -206.03 0.
344.617 -452.164 0.
172.012 -854.096 0.
158.447 -1124.88 0.
247.429 -920.032 0.
336.411 -715.187 0.
-23.1489 -808.951 0.
-82.659 -948.46 0.
-142.169 -1087.97 0.
-247.44 -1047.16 0.
-130.989 -774.065 0.
-14.5383 -500.978 0.
148.183 -414.708 0.
134.66 -451.688 0.
143.043 -480.129 0.
-15.3395 -472.507 0.
27.9288 -378.107 0.
419.334 -162.357 0.
385.093 -243.732 0.
350.852 -325.107 0.
-130.19 -594.847 0.
-156.559 -659.721 0.
-182.929 -724.594 0.
-132.345 -559.867 0.
-13.8112 -281.407 0.
104.722 -2.94707 0.
62.9534 -15.6013 0.
55.5215 -31.4663 0.
98.3152 -42.9606 0.
24.2878 -222.026 0.
-49.7391 -401.092 0.
4.26264 -443.321 0.
70.4879 -299.027 0.
136.713 -154.73 0.
46.1111 -195.502 0.
-6.66497 -319.878 0.
-59.4397 -444.255 0.
612.682 -349.914 0.
496.837 -617.133 0.
365.482 43.4012 0.
152.012 -304.849 0.
26.222 -600.958 0.
-436.998 -958.369 0.
-356.703 -769.929 0.
-276.408 -581.487 0.
-101.997 -407.629 0.
-87.8042 -373.3 0.
-73.6115 -338.971 0.
104.598 -210.378 0.
135.476 -138.805 0.
166.353 -67.2307 0.
-179.536 -388.878 0.
-285.868 -643.82 0.
6.42075 -691.504 0.
83.1817 -511.975 0.
159.943 -332.446 0.
-132.627 -389.845 0.
-173.7 -484.122 0.
-214.772 -578.4 0.
433.137 -394.369 0.
379.86 -514.551 0.
326.582 -634.733 0.
190.556 -657.557 0.
219.785 -587.154 0.
1002.81 -191.677 0.
-129.632 -627.581 0.
-104.391 -564.394 0.
94.6762 -465.461 0.
11.3547 -658.77 0.
-71.9679 -852.079 0.
-380.964 -974.801 0.
-255.989 -680.565 0.
-131.016 -386.33 0.
114.933 -221.15 0.
93.78 -269.873 0.
72.6269 -318.597 0.
226.282 -318.686 0.
188.309 -405.034 0.
125.707 -487.011 0.
146.567 -434.834 0.
167.428 -382.658 0.
101.468 -394.399 0.
92.1242 -419.376 0.
82.7803 -444.353 0.
-157.153 -527.659 0.
-131.114 -468.074 0.
-105.076 -408.49 0.
1291.2 181.181 0.
1287.24 170.891 0.
-1454.49 -1011.1 0.
23.8853 -255.838 0.
86.4014 -108.309 0.
661.428 198.49 0.
581.572 15.3872 0.
501.718 -167.716 0.
164.598 -421.915 0.
129.374 -508.114 0.
94.1508 -594.315 0.
110.762 -512.389 0.
184.938 -341.002 0.
259.114 -169.616 0.
368.25 -409.821 0.
196.175 -812.322 0.
-77.4239 -1192.67 0.
11.9518 -988.307 0.
101.327 -783.941 0.
-65.2233 -796.625 0.
-125.352 -935.609 0.
-185.481 -1074.59 0.
155.729 -843.015 0.
272.521 -571.138 0.
389.314 -299.264 0.
-51.2253 -471.238 0.
-65.3319 -508.392 0.
461.041 -309.867 0.
-169.807 -504.832 0.
-126.445 -410.724 0.
551.85 -74.6567 0.
517.846 -156.165 0.
483.843 -237.673 0.
-127.39 -560.116 0.
-154.407 -624.28 0.
-181.425 -688.443 0.
-292.943 -599.411 0.
-174.296 -320.867 0.
-55.6497 -42.3244 0.
66.9344 19.9745 0.
59.7032 4.15502 0.
63.5958 -25.6911 0.
-10.4347 -204.388 0.
-84.4648 -383.087 0.
77.2284 -383.709 0.
142.737 -238.298 0.
208.245 -92.8851 0.
0.192375 -183.667 0.
-51.9187 -308.328 0.
-104.028 -432.99 0.
156.641 -514.566 0.
41.3298 -781.896 0.
-170.711 346.586 0.
-8.50682 -615.876 0.
634.241 878.475 0.
-94.2909 335.605 0.
-318.031 -182.429 0.
-124.944 272.462 0.
-330.845 -1016.98 0.
215.603 260.591 0.
-202.497 -711.661 0.
358.896 329.17 0.
279.002 143.866 0.
331.198 266.97 0.
379.392 658.504 0.
276.192 421.132 0.
112.111 -583.219 0.
280.766 -193.734 0.
222.779 -332.781 0.
-110.497 -104.912 0.
277.304 798.594 0.
-357.364 -684.293 0.
338.279 -294.181 0.
605.009 324.448 0.
935.525 1092.75 0.
550.082 -10.0258 0.
1029.27 1107.57 0.
560.427 433.285 0.
117.966 143.283 0.
169.125 264.086 0.
79.4882 -349.024 0.
-131.273 -843.43 0.
-94.0345 -759.605 0.
-224.169 -209.505 0.
-118.052 39.9434 0.
-281.439 -339.231 0.
867.867 1585.73 0.
552.817 849.322 0.
-21.803 -492.217 0.
-102.433 -1308.5 0.
164.494 -685.599 0.
654.432 425.986 0.
755.669 662.884 0.
439.196 -74.5205 0.
196.246 25.1559 0.
123.218 -150.216 0.
230.451 94.9674 0.
44.8628 409.625 0.
155.709 666.038 0.
-821.981 -1617.36 0.
1087.05 -96.5598 0.
1509.47 883.005 0.
-1752.24 -426.448 0.
294.882 459.546 0.
-119.97 -513.369 0.
590.522 -615.279 0.
897.077 96.6672 0.
838.581 -42.6663 0.
-116.288 -418.946 0.
151.197 198.322 0.
465.213 924.685 0.
569.001 570.326 0.
303.32 -48.1198 0.
445.805 285.924 0.
597.616 100.753 0.
703.762 348.992 0.
568.391 797.999 0.
146.31 -194.062 0.
244.216 30.4124 0.
533.647 712.184 0.
156.247 -164.716 0.
325.928 234.995 0.
617.292 -501.3 0.
696.712 -310.139 0.
764.801 -146.413 0.
-32.4378 -39.3331 0.
-143.526 -291.209 0.
-424.455 -273.161 0.
116.246 487.098 0.
-382.675 -676.072 0.
960.523 669.306 0.
585.27 -210.983 0.
358.936 -743.613 0.
5.82008 -216.087 0.
129.119 67.3744 0.
-368.918 -1100.48 0.
-127.708 119.422 0.
68.7774 572.805 0.
-364.014 -443.176 0.
-119.144 -387.817 0.
-153.842 -466.256 0.
-57.9435 -222.788 0.
299.753 614.668 0.
514.193 1117.75 0.
304.024 25.6646 0.
197.208 -224.073 0.
413.292 279.575 0.
350.03 749.576 0.
0.498071 -59.475 0.
109.793 201.025 0.
-95.6466 -234.504 0.
128.806 287.477 0.
-405.295 -573.559 0.
35.0555 -369.771 0.
51.7102 -332.627 0.
-259.638 -426.853 0.
-213.067 -316.196 0.
-166.496 -205.539 0.
131.71 -29.8558 0.
123.272 -48.7671 0.
114.834 -67.6781 0.
-151.685 -314.433 0.
-253.567 -549.735 0.
-355.449 -785.036 0.
-115.805 -576.769 0.
-44.1881 -405.02 0.
216.343 -194.628 0.
113.515 -436.841 0.
10.6878 -679.054 0.
-221.821 -854.594 0.
-132.343 -643.421 0.
-42.8637 -432.25 0.
85.4632 -341.875 0.
36.7979 -457.385 0.
-11.8679 -572.896 0.
304.554 -417.118 0.
342.23 -331.106 0.
118.269 -356.973 0.
-22.2389 -286.485 0.
37.6009 -145.724 0.
380.053 62.3469 0.
325.116 -66.1073 0.
270.177 -194.561 0.
-255.685 -408.406 0.
-174.413 -217.636 0.
-93.1402 -26.8646 0.
67.3104 -33.4029 0.
-36.923 -275.886 0.
-141.157 -518.369 0.
121.147 -389.149 0.
145.555 -332.731 0.
307.818 -216.429 0.
312.583 -202.458 0.
317.348 -188.487 0.
335.728 -134.889 0.
390.123 -8.49626 0.
444.519 117.896 0.
-325.476 -190.079 0.
-343.918 -238.155 0.
-362.36 -286.231 0.
941.107 176.722 0.
881.592 35.0994 0.
-1997.26 -1317.29 0.
-125.074 -603.75 0.
-169.41 -710.112 0.
503.44 -497.853 0.
478.599 -554.928 0.
453.758 -612.003 0.
-260.08 -890.345 0.
-195.486 -734.108 0.
-130.891 -577.871 0.
189.938 -515 0.
90.936 -739.359 0.
-8.06596 -963.718 0.
185.997 -562.674 0.
383.802 -102.097 0.
287.497 153.712 0.
159.124 -147.738 0.
30.7513 -449.188 0.
-24.3943 -597.779 0.
20.195 -495.735 0.
64.7845 -393.692 0.
527.61 -170.876 0.
533.181 -162.396 0.
538.751 -153.918 0.
-74.0063 -289.275 0.
6.85866 -100.57 0.
442.949 239.212 0.
-222.195 -321.247 0.
-369.042 -661.656 0.
389.729 -560.606 0.
378.936 -587.555 0.
368.142 -614.505 0.
-245.635 -824.37 0.
-169.57 -645.799 0.
-93.5058 -467.227 0.
-331.767 -587.568 0.
-385.457 -715.005 0.
-439.147 -842.442 0.
-326.737 -626.36 0.
-222.884 -382.065 0.
61.6023 -75.4934 0.
88.8328 -11.9465 0.
116.064 51.6013 0.
458.411 144.347 0.
327.359 -165.935 0.
196.308 -476.217 0.
-424.972 -860.154 0.
-426.774 -858.887 0.
-428.576 -857.619 0.
-458.166 -893.24 0.
-475.415 -933.34 0.
811.058 -20.6546 0.
-27.2995 -364.309 0.
-10.9905 -326.818 0.
-43.4494 -303.669 0.
2.77882 -192.932 0.
49.0071 -82.195 0.
198.791 30.4461 0.
190.69 11.2167 0.
182.589 -8.01263 0.
-423.269 -399.28 0.
-524.394 -635.68 0.
-625.52 -872.08 0.
-59.937 -519.301 0.
12.5935 -348.467 0.
157.367 -186.207 0.
54.6958 -428.604 0.
-47.9755 -671.002 0.
51.9885 -705.701 0.
141.422 -494.109 0.
230.857 -282.518 0.
-184.722 -428.34 0.
-232.779 -544.192 0.
-280.836 -660.044 0.
236.613 -415.108 0.
275.493 -329.465 0.
-471.351 -579.787 0.
44.4104 -225.664 0.
105.031 -85.2201 0.
547.192 165.852 0.
493.025 37.3094 0.
438.858 -91.2336 0.
-177.045 -343.48 0.
-95.6864 -152.946 0.
-14.3278 37.5885 0.
-46.4952 -52.472 0.
-150.605 -295.15 0.
-254.715 -537.828 0.
-74.4159 -438.913 0.
-50.0095 -383.101 0.
237.035 -215.178 0.
241.259 -201.714 0.
245.482 -188.249 0.
603.676 10.9557 0.
657.519 137.034 0.
711.363 263.112 0.
-444.637 -211.079 0.
-463.483 -259.064 0.
-482.328 -307.05 0.
638.348 78.462 0.
578.292 -63.3224 0.
-1485.5 -1066.44 0.
-65.6526 -547.257 0.
-109.97 -654.085 0.
346.513 -530.105 0.
322.227 -588.166 0.
297.941 -646.228 0.
-170.169 -820.312 0.
-104.899 -665.415 0.
-39.6297 -510.518 0.
307.259 -431.358 0.
209.315 -656.522 0.
111.371 -881.686 0.
47.0648 -589.809 0.
245.319 -129.984 0.
298.698 191.649 0.
170.879 -111.1 0.
43.0597 -413.85 0.
-1.3778 -553.777 0.
43.5241 -452.812 0.
88.4264 -351.847 0.
263.688 -251.695 0.
269.257 -243.569 0.
274.824 -235.444 0.
18.2283 -221.025 0.
98.6427 -32.5159 0.
29.3392 94.0662 0.
-195.038 -277.453 0.
-341.894 -618.348 0.
352.254 -543.555 0.
341.699 -571.289 0.
331.144 -599.024 0.
-220.228 -780.536 0.
-144.736 -601.714 0.
-69.245 -422.892 0.
-194.826 -497.428 0.
-248.7 -624.484 0.
-302.573 -751.54 0.
-438.568 -643.792 0.
-334.074 -399.322 0.
144.037 -7.1551 0.
172.435 55.8748 0.
200.834 118.906 0.
604.925 241.06 0.
474.323 -69.2358 0.
343.721 -379.533 0.
-512.045 -865.356 0.
-513.55 -863.971 0.
-515.054 -862.585 0.
-540.874 -898.245 0.
-558.223 -938.067 0.
-704.019 -931.738 0.
-48.4037 -435.475 0.
64.9855 -169.346 0.
195.228 18.9297 0.
94.8015 -219.381 0.
-5.62509 -457.693 0.
-52.6144 -496.475 0.
54.4954 -239.781 0.
161.604 16.912 0.
-349.43 -37.4099 0.
-273.412 139.121 0.
-197.394 315.652 0.
248.344 261.377 0.
84.5363 -113.92 0.
60.6774 -388.93 0.
93.1152 -311.663 0.
125.554 -234.397 0.
308.245 -141.867 0.
264.868 -241.481 0.
221.49 -341.096 0.
-285.963 -518.375 0.
-206.159 -329.432 0.
-126.355 -140.491 0.
380.856 78.8714 0.
351.518 15.9938 0.
384.653 -20.0958 0.
62.7149 -179.937 0.
47.807 -206.55 0.
490.766 2.40212 0.
547.52 136.781 0.
604.276 271.159 0.
-108.719 -103.412 0.
-258.73 -447.439 0.
-408.741 -791.465 0.
-353.466 -788.945 0.
-301.392 -662.626 0.
-249.317 -536.309 0.
-184.538 -441.353 0.
-151.629 -365.162 0.
153.85 -194.183 0.
91.8556 -343.322 0.
29.8614 -492.462 0.
475.605 -390.076 0.
462.888 -420.136 0.
450.171 -450.196 0.
-543.799 -732.239 0.
-398.361 -390.646 0.
-252.923 -49.0533 0.
453.974 252.528 0.
413.045 158.803 0.
-350.157 -245.747 0.
31.4371 -309.328 0.
-93.0983 -594.349 0.
204.145 -610.706 0.
292.627 -401.377 0.
381.11 -192.048 0.
103.044 -253.635 0.
55.5586 -365.04 0.
8.07325 -476.446 0.
291.921 -365.874 0.
312.422 -318.336 0.
332.923 -270.798 0.
-2.30817 -477.442 0.
-45.3811 -572.664 0.
21.1299 -609.795 0.
14.627 -616.814 0.
8.12335 -623.833 0.
-14.8254 -609.086 0.
39.2966 -480.516 0.
93.4186 -351.946 0.
142.563 -215.143 0.
203.41 -69.0102 0.
264.257 77.1223 0.
173.822 -62.8091 0.
94.3087 -249.29 0.
228.529 -335.59 0.
-295.283 -540.35 0.
-284.358 -513.012 0.
505.419 -138.114 0.
530.551 -72.8781 0.
555.682 -7.64297 0.
-1.36541 -190.179 0.
39.304 -96.7168 0.
79.9735 -3.25456 0.
4.70657 -96.0703 0.
-58.3324 -242.328 0.
-121.373 -388.585 0.
-388.347 -522.977 0.
-394.396 -537.968 0.
35.9755 -381.887 0.
-46.3584 -574.624 0.
-128.693 -767.361 0.
92.8159 -739.265 0.
154.328 -595.909 0.
215.842 -452.553 0.
-284.247 -480.528 0.
-159.141 -188.073 0.
-34.0354 104.382 0.
-121.504 -151.806 0.
-303.958 -573.608 0.
445.224 -405.469 0.
64.4131 -354.981 0.
177.759 -88.6896 0.
265.604 77.6845 0.
164.942 -160.505 0.
64.2793 -398.694 0.
-142.105 -500.49 0.
-34.4616 -244.349 0.
73.1805 11.791 0.
-268.913 25.1201 0.
-193.388 202.453 0.
-117.864 379.785 0.
166.772 260.393 0.
3.54726 -114.926 0.
128.052 -330.87 0.
160.496 -253.456 0.
192.94 -176.043 0.
113.49 -193.151 0.
70.7307 -292.71 0.
27.9706 -392.269 0.
-157.203 -431.444 0.
-76.5781 -242.688 0.
4.04616 -53.9323 0.
303.87 76.019 0.
273.742 14.1785 0.
671.921 136.723 0.
27.7623 -162.375 0.
13.0875 -189.06 0.
397.259 -9.34632 0.
453.629 125.606 0.
509.999 260.557 0.
-247.075 -129.357 0.
-396.761 -474.076 0.
-546.448 -818.795 0.
-184.94 -684.192 0.
-132.942 -557.922 0.
-80.943 -431.652 0.
-224.279 -425.479 0.
-191.342 -349.568 0.
42.1934 -209.469 0.
-20.256 -358.751 0.
-82.705 -508.033 0.
346.082 -411.685 0.
332.522 -441.62 0.
318.963 -471.554 0.
-87.5189 -507.795 0.
57.3323 -165.926 0.
202.184 175.943 0.
116.572 138.829 0.
75.5456 44.7784 0.
-598.515 -319.83 0.
8.90023 -286.463 0.
-114.826 -571.904 0.
134.917 -605.45 0.
224.121 -396.979 0.
313.325 -188.508 0.
114.821 -216.335 0.
66.9665 -327.995 0.
19.1119 -439.655 0.
105.574 -413.476 0.
125.672 -365.479 0.
145.77 -317.482 0.
-59.4614 -473.111 0.
-101.8 -568.677 0.
180.797 -508.767 0.
173.828 -515.88 0.
166.857 -522.992 0.
16.5998 -563.699 0.
70.4754 -435.398 0.
124.351 -307.096 0.
94.2581 -205.876 0.
155.985 -60.3361 0.
217.712 85.2044 0.
355.601 48.3885 0.
276.428 -138.561 0.
934.367 -3.42111 0.
-272.471 -499.161 0.
-262.665 -470.35 0.
508.299 -108.464 0.
533.931 -43.709 0.
559.563 21.0453 0.
-86.5629 -195.454 0.
-45.0444 -102.66 0.
-3.52555 -9.86508 0.
-24.1963 -75.1758 0.
-87.7135 -221.103 0.
-151.232 -367.028 0.
-260.729 -435.934 0.
-267.12 -451.024 0.
124.629 -314.431 0.
41.9859 -506.871 0.
-40.6579 -699.31 0.
-232.198 -848.156 0.
-170.878 -704.45 0.
-109.556 -560.744 0.
-27.1771 -338.602 0.
97.7513 -45.8019 0.
222.679 246.998 0.
198.02 13.5791 0.
16.3667 -409.562 0.
-249.431 843.786 0.
213.952 -174.927 0.
264.641 -58.5782 0.
32.5329 -577.394 0.
270.45 -14.209 0.
532.692 603.148 0.
-63.3632 -136.793 0.
56.1739 147.951 0.
175.66 432.394 0.
70.3263 688.65 0.
-251.19 -60.4063 0.
-754.951 -1233.53 0.
-226.735 -463.39 0.
56.5991 194.264 0.
34.1562 -652.058 0.
282.486 -67.8301 0.
83.8692 -524.118 0.
182.158 350.241 0.
279.879 574.129 0.
464.001 1001.08 0.
180.706 140.781 0.
-298.5 -978.493 0.
-43.6226 -385.326 0.
35.0009 -370.616 0.
316.794 290.257 0.
199.31 22.0924 0.
-29.3102 -202.413 0.
38.0409 -49.0675 0.
355.318 98.7042 0.
642.932 774.8 0.
502.315 452.173 0.
-600.312 -659.458 0.
-638.887 -746.423 0.
-458.165 -322.513 0.
454.315 515.388 0.
58.8359 -404.043 0.
-176.426 -949.872 0.
-202.215 -258.415 0.
83.8744 407.868 0.
-61.495 -206.991 0.
-431.647 -1066.74 0.
-224.729 -579.735 0.
454.253 123.806 0.
84.3521 -739.122 0.
66.1946 -781.165 0.
37.1435 -1047.66 0.
107.429 -882.326 0.
336.491 -346.401 0.
-480.558 -584.314 0.
6.00153 548.315 0.
-878.583 46.4149 0.
208.533 273.219 0.
253.096 378.694 0.
614.735 677.016 0.
106.225 -507.337 0.
243.443 -185.056 0.
499.076 681.136 0.
312.117 246.351 0.
45.5303 -374.3 0.
-342.389 -1059.97 0.
-27.9254 -332.385 0.
341.957 525.023 0.
396.745 726.625 0.
85.2244 1.8014 0.
282.739 -540.184 0.
61.8102 -1054.79 0.
556.833 100.39 0.
69.8558 -465.057 0.
266.692 -13.2648 0.
-102.737 -881.87 0.
504.528 877.294 0.
529.989 930.841 0.
751.106 1441.41 0.
489.239 33.8216 0.
739.398 623.968 0.
222.613 63.7991 0.
110.577 372.644 0.
66.706 266.88 0.
89.8528 -1050.04 0.
195.184 -802.975 0.
849.277 724.431 0.
89.6043 413.467 0.
-87.4838 0.84726 0.
142.242 536.783 0.
42.5864 164.369 0.
16.3551 104.379 0.
-103.538 -175.116 0.
4.18819 -28.6168 0.
-70.1885 -199.986 0.
219.54 -226.477 0.
-7.17419 -748.218 0.
568.562 600.217 0.
8.21094 332.179 0.
84.5744 515.67 0.
-586.415 -1044.85 0.
392.033 192.378 0.
343.535 77.6752 0.
380.478 160.148 0.
430.236 -19.6932 0.
618.547 414.724 0.
791.786 440.442 0.
212.818 57.4886 0.
127.743 -141.538 0.
32.6708 -278.445 0.
93.4186 -133.952 0.
154.165 10.5424 0.
-130.546 -126.721 0.
-226.318 -351.292 0.
-322.091 -575.863 0.
-273.029 -631.331 0.
-285.987 -662.548 0.
-298.947 -693.765 0.
-361.412 -622.901 0.
-299.216 -481.606 0.
156.407 -182.934 0.
131.313 -239.957 0.
106.219 -296.98 0.
-109.887 -374.823 0.
-31.433 -195.185 0.
47.0223 -15.5461 0.
243.318 74.3016 0.
182.076 -62.5107 0.
120.834 -199.323 0.
-35.7733 -293.075 0.
-33.0946 -293.068 0.
447.855 -88.3174 0.
-142.579 -291.551 0.
-113.553 -230.072 0.
95.0008 -102.682 0.
91.8175 -112.075 0.
88.634 -121.47 0.
-299.618 -241.342 0.
-229.341 -81.3699 0.
-159.064 78.6021 0.
165.314 250.414 0.
152.181 216.913 0.
139.047 183.412 0.
3.6767 -10.2409 0.
-69.87 -182.804 0.
-38.3947 -280.601 0.
24.3128 -132.878 0.
87.0209 14.8431 0.
150.95 81.3994 0.
89.1331 -65.4225 0.
27.3163 -212.244 0.
250.529 -222.6 0.
194.333 -357.396 0.
138.137 -492.191 0.
-169.341 -550.898 0.
-104.836 -400.949 0.
-570.193 -478.359 0.
115.276 41.0449 0.
232.155 316.246 0.
354.45 474.534 0.
175.846 63.8017 0.
-2.7576 -346.929 0.
-119.984 -598.418 0.
-132.989 -634.033 0.
-145.993 -669.648 0.
56.0609 -543.043 0.
98.5216 -447.38 0.
140.981 -351.717 0.
-122.44 -392.713 0.
-87.4625 -309.866 0.
320.147 -89.0819 0.
259.857 -232.819 0.
199.567 -376.556 0.
-66.1895 -501.021 0.
35.9466 -266.249 0.
138.082 -31.4772 0.
68.0608 -134.598 0.
-77.3992 -471.835 0.
-222.859 -809.072 0.
108.341 -718.477 0.
108.764 -713.604 0.
37.5571 -735.127 0.
-288.658 -628.819 0.
-153.128 -322.15 0.
331.141 43.0988 0.
245.336 -161.027 0.
159.529 -365.154 0.
-333.905 -581.146 0.
-225.163 -329.727 0.
-116.421 -78.3077 0.
46.1497 -30.3225 0.
-19.6413 -181.851 0.
-85.4311 -333.379 0.
-138.578 -393.788 0.
-154.854 -430.215 0.
28.7673 -367.633 0.
66.5491 -279.597 0.
104.332 -191.562 0.
-117.328 -209.654 0.
-76.5641 -113.947 0.
-35.799 -18.2407 0.
344.741 69.3763 0.
245.579 -168.405 0.
146.415 -406.188 0.
383.049 77.4295 0.
671.916 743.935 0.
1066.65 593.685 0.
102.766 39.7756 0.
17.9917 -158.789 0.
-110.675 -307.87 0.
-48.6785 -164.369 0.
13.3165 -20.8667 0.
-197.184 -120.616 0.
-291.404 -345.834 0.
-385.626 -571.05 0.
17.1623 -477.064 0.
4.17362 -508.476 0.
-8.81729 -539.889 0.
-424.201 -617.087 0.
-362.357 -476.069 0.
81.3956 -183.475 0.
56.6537 -240.727 0.
31.9126 -297.98 0.
-67.8224 -326.763 0.
10.1613 -146.205 0.
88.1459 34.3532 0.
365.634 157.055 0.
304.476 21.1293 0.
243.319 -114.797 0.
-143.478 -309.457 0.
-141.109 -308.862 0.
480.529 -43.707 0.
-215.554 -290.647 0.
-186.68 -228.957 0.
-97.0733 -153.759 0.
-100.777 -162.941 0.
-104.48 -172.124 0.
-129.604 -136.727 0.
-60.0964 23.2676 0.
9.41202 183.263 0.
-23.5383 201.385 0.
-35.4683 166.883 0.
-47.3983 132.38 0.
147.025 83.5377 0.
74.244 -89.5041 0.
46.5975 -212.084 0.
109.462 -64.8153 0.
172.326 82.453 0.
-173.137 -22.9013 0.
-234.509 -170.113 0.
-295.882 -317.325 0.
102.112 -254.991 0.
45.8169 -389.366 0.
-10.4776 -523.742 0.
221.359 -351.724 0.
285.91 -201.738 0.
-132.603 -260.062 0.
127.732 77.9431 0.
244.161 353.51 0.
160.219 423.656 0.
-18.8647 13.17 0.
-197.948 -397.314 0.
-184.918 -594.665 0.
-198.056 -630.23 0.
-211.194 -665.795 0.
290.943 -410.245 0.
332.887 -313.982 0.
374.83 -217.72 0.
-154.544 -376.392 0.
-120.617 -291.944 0.
150.111 -132.097 0.
88.7914 -275.149 0.
27.4708 -418.2 0.
-197.931 -528.691 0.
-96.8707 -293.817 0.
4.1888 -58.9439 0.
74.9515 -101.47 0.
-70.7113 -438.673 0.
-216.374 -775.876 0.
47.5534 -714.439 0.
48.7432 -709.833 0.
564.683 -479.172 0.
-233.177 -573.181 0.
-97.4551 -266.46 0.
70.4956 -37.6871 0.
-14.2712 -242.653 0.
-99.0393 -447.621 0.
-315.404 -541.128 0.
-206.062 -289.977 0.
-96.7186 -38.8252 0.
168.008 53.1204 0.
102.702 -98.8244 0.
37.3975 -250.77 0.
-104.783 -346.8 0.
-120.41 -384.056 0.
-113.941 -397.079 0.
-76.1496 -309.041 0.
-38.3563 -221.003 0.
32.456 -113.945 0.
73.7884 -18.5704 0.
115.122 76.8033 0.
367.741 111.353 0.
268.232 -126.648 0.
168.723 -364.65 0.
292.731 66.8736 0.
581.34 733.55 0.
1080.05 -12.6487 0.
132.242 -136.269 0.
315.99 293.952 0.
138.71 435.896 0.
3.68776 125.806 0.
-131.335 -184.283 0.
-299.392 -383.125 0.
-283.795 -343.029 0.
-268.201 -302.933 0.
178.053 -261.288 0.
45.2338 -569.237 0.
-87.5862 -877.186 0.
-414.98 -783.524 0.
-256.963 -408.075 0.
102.669 31.524 0.
162.57 170.222 0.
222.471 308.919 0.
106.629 290.59 0.
40.1403 137.863 0.
-26.3478 -14.863 0.
274.215 -42.7119 0.
178.45 -270.996 0.
82.6857 -499.281 0.
-324.744 -621.771 0.
-265.593 -482.294 0.
672.961 32.738 0.
-297.134 -289 0.
-245.906 -168.689 0.
-154.178 -57.9127 0.
-157.076 -65.0393 0.
-159.973 -72.1666 0.
120.936 57.1663 0.
133.587 83.2739 0.
146.239 109.381 0.
-168.94 34.8973 0.
-126.871 135.056 0.
-84.8027 235.215 0.
159.107 176.954 0.
57.4299 -59.975 0.
18.8653 -256.09 0.
12.84 -265.095 0.
6.81444 -274.1 0.
-502.661 -494.522 0.
-509.418 -501.367 0.
-516.175 -508.212 0.
-32.8571 -233.063 0.
32.3226 -78.1317 0.
97.5014 76.7986 0.
595.964 176.477 0.
499.077 -47.1523 0.
-554.294 -680.571 0.
-170.57 -582.411 0.
-204.158 -663.843 0.
-428.474 -765.791 0.
-310.927 -493.687 0.
-193.381 -221.583 0.
-127.739 -89.5438 0.
-153.624 -146.816 0.
-179.51 -204.088 0.
529.508 -151.541 0.
345.577 -583.227 0.
161.645 -1014.91 0.
-277.548 -885.465 0.
-63.4961 -391.08 0.
54.8295 35.8997 0.
122.378 191.395 0.
189.927 346.89 0.
34.2554 286.129 0.
-84.9147 6.35743 0.
-204.085 -273.415 0.
34.5864 -302.352 0.
14.7893 -351.62 0.
-5.00801 -400.887 0.
68.7137 -285.776 0.
128.483 -140.061 0.
482.241 127.622 0.
43.0367 -131.858 0.
3.4548 -219.924 0.
-62.3961 -246.07 0.
73.7361 78.7815 0.
209.869 403.63 0.
82.7751 335.588 0.
-105.917 -106.463 0.
-294.609 -548.515 0.
-64.0589 -464.823 0.
23.4769 -261.94 0.
111.012 -59.0558 0.
-45.8522 -67.4502 0.
-21.0895 -11.0054 0.
-15.1947 26.1203 0.
-31.9164 -12.6858 0.
-48.6362 -51.492 0.
-64.6993 -139.644 0.
-157.135 -355.378 0.
-249.571 -571.111 0.
185.993 -478.818 0.
172.445 -507.451 0.
158.899 -536.085 0.
70.277 -394.454 0.
198.837 -94.4021 0.
798.204 -101.047 0.
513.479 60.0748 0.
697.557 490.453 0.
133.535 464.797 0.
-0.0749598 154.955 0.
-133.686 -154.887 0.
-185.216 -301.657 0.
-168.016 -261.751 0.
-150.818 -221.845 0.
95.8437 -267.018 0.
-36.4065 -575.28 0.
-168.658 -883.542 0.
-141.315 -631.884 0.
17.9337 -257.711 0.
29.8622 30.985 0.
89.7157 169.354 0.
149.57 307.722 0.
-112.032 230.37 0.
-178.112 77.3444 0.
-244.192 -75.681 0.
196.028 -46.5918 0.
99.4866 -273.604 0.
2.94585 -500.617 0.
-316.585 -589.537 0.
-257.358 -450.549 0.
49.177 -205.358 0.
-388.761 -294.394 0.
-337.851 -174.309 0.
-171.879 -35.0974 0.
-175.568 -42.0982 0.
-179.258 -49.0992 0.
400.128 209.192 0.
412.605 234.992 0.
425.081 260.791 0.
-120.939 88.2104 0.
-78.0552 187.328 0.
-35.1723 286.447 0.
-26.896 128.13 0.
-127.68 -109.193 0.
-68.661 -260.497 0.
-74.7014 -269.844 0.
-80.7421 -279.191 0.
-474.212 -450.091 0.
-480.992 -457.32 0.
-487.773 -464.548 0.
-215.652 -282.702 0.
-150.732 -127.603 0.
-85.8121 27.4953 0.
600.788 212.654 0.
505.042 -11.6514 0.
876.263 -36.1842 0.
-187.385 -556.834 0.
-220.89 -637.839 0.
-363.319 -705.776 0.
-245.884 -433.908 0.
-128.45 -162.039 0.
-421.086 -181.086 0.
-445.373 -239.79 0.
-469.662 -298.495 0.
629.107 -76.964 0.
445.94 -508.356 0.
262.773 -939.748 0.
28.5941 -722.241 0.
243.691 -228.077 0.
-148.311 -20.0378 0.
-80.6952 135.707 0.
-13.0789 291.453 0.
-79.6954 271.172 0.
-197.83 -9.95535 0.
-315.965 -291.085 0.
168.174 -212.809 0.
148.369 -262.694 0.
128.563 -312.578 0.
-231.934 -382.264 0.
-171.203 -237.419 0.
-1105.89 -520.01 0.
246.384 -12.562 0.
207.039 -100.321 0.
88.298 -148.91 0.
225.158 175.519 0.
362.018 499.946 0.
136.805 390.52 0.
-51.227 -51.7995 0.
-239.259 -494.121 0.
-159.763 -473.407 0.
-71.8165 -270.94 0.
16.1304 -68.4719 0.
-189.988 -97.5966 0.
-165.127 -41.3459 0.
-42.7274 47.8922 0.
-58.3668 8.72353 0.
-74.0042 -30.4452 0.
-368.57 -241.219 0.
-461.041 -456.301 0.
-553.512 -671.382 0.
360.69 -370.835 0.
347.846 -400.012 0.
335.003 -429.19 0.
120.987 -341.306 0.
249.545 -40.7631 0.
-642.293 -358.676 0.
713.356 -133.809 0.
769.14 -0.4396 0.
112.663 433.818 0.
-226.886 -345.047 0.
141.442 527.74 0.
232.751 447.823 0.
-126.425 -378.142 0.
44.2835 31.4863 0.
166.618 95.2608 0.
-2.16224 -298.994 0.
-7.33906 -311.719 0.
564.396 525.053 0.
535.805 460.102 0.
-401.948 -813.822 0.
395.287 1046.63 0.
-294.067 -560.17 0.
-651.595 -608.815 0.
-652.11 -606.896 0.
-779.831 -902.996 0.
39.5315 -245.814 0.
-22.5212 -392.748 0.
61.5752 -199.509 0.
101.574 416.819 0.
-170.361 -216.83 0.
-1018.26 -847.9 0.
-515.413 -389.586 0.
-566.184 -499.833 0.
-547.926 -849.379 0.
177.631 845.877 0.
-356.327 -395.963 0.
510.519 -28.045 0.
899.597 883.804 0.
338.07 -421.721 0.
-147.024 -55.6215 0.
-148.023 -56.6868 0.
252.907 880.112 0.
-273.661 -55.1737 0.
-302.387 -125.02 0.
-257.639 -499.798 0.
-151.896 -252.306 0.
-209.727 -386.333 0.
-136.809 323.816 0.
-23.84 587.102 0.
-467.404 -447.942 0.
-474.576 -521.705 0.
-422.829 -391.25 0.
-286.447 -63.015 0.
579.564 194.743 0.
610.384 260.304 0.
-2141.48 -406.196 0.
-257.958 -654.686 0.
-121.324 -339.819 0.
-116.385 -218.238 0.
-161.473 -324.965 0.
-233.909 -495.934 0.
-885.074 -683.634 0.
-281.107 730.325 0.
-311.969 663.349 0.
367.19 -844.446 0.
280.815 -1040.99 0.
814.578 209.301 0.
361.47 -513.444 0.
550.235 -66.5395 0.
-345.433 -72.6026 0.
-519.587 -479.741 0.
-79.6586 545.636 0.
101.433 947.02 0.
-359.117 -128.061 0.
-483.353 -419.471 0.
117.065 -554.607 0.
-59.1629 -966.696 0.
510.712 363.162 0.
-308.653 46.5013 0.
-152.926 410.999 0.
298.952 -698.702 0.
267.04 -332.534 0.
286.287 -277.175 0.
0.261468 -616.302 0.
514.345 590.72 0.
-202.75 -1073.93 0.
-98.0872 -222.74 0.
278.172 656.304 0.
157.986 377.019 0.
-379.856 -785.142 0.
-321.218 -655.78 0.
54.7382 215.863 0.
-389.217 -260.372 0.
-399.042 -286.158 0.
-19.9312 188.003 0.
-27.0702 174.254 0.
-204.057 -236.417 0.
-932.049 -992.165 0.
-370.081 316.216 0.
-785.802 -656.713 0.
567.533 -146.182 0.
660.955 69.8617 0.
753.102 284.531 0.
419.476 314.036 0.
-9.35829 -689.989 0.
666.667 402.476 0.
520.946 177.066 0.
376.779 -157.937 0.
-295.035 -620.953 0.
-232.492 -470.275 0.
-169.95 -319.598 0.
113.38 -77.2643 0.
174.944 70.7758 0.
236.503 218.817 0.
-17.0849 98.4297 0.
-64.158 -8.11132 0.
-111.23 -114.654 0.
281.676 -20.9945 0.
236.01 -119.483 0.
-254.678 -360.546 0.
-73.3618 63.8888 0.
107.954 488.323 0.
59.6785 570.461 0.
-136.526 116.852 0.
-332.731 -336.755 0.
-35.0527 -231.405 0.
92.611 59.1464 0.
220.275 349.699 0.
-380.118 -20.8501 0.
-486.833 -268.455 0.
1.95909 -259.979 0.
-651.463 -415.973 0.
-588.827 -267.979 0.
177.601 156.692 0.
175.132 150.868 0.
172.662 145.046 0.
704.301 350.407 0.
671.965 281.911 0.
639.63 213.416 0.
-98.0169 -83.0455 0.
-61.8625 1.24481 0.
-25.7083 85.5358 0.
-320.799 16.833 0.
-298.065 69.1276 0.
-152.529 138.036 0.
-272.661 -145.185 0.
-392.793 -428.408 0.
-287.249 -468.179 0.
-173.909 -212.113 0.
-60.5679 43.9547 0.
-267.297 -11.335 0.
-327.35 -154.047 0.
-387.404 -296.76 0.
227.619 -78.58 0.
210.334 -120.348 0.
-650.397 -522.403 0.
-145.278 -122.073 0.
-48.6754 101.754 0.
198.568 357.3 0.
205.559 372.932 0.
212.549 388.565 0.
-445.851 9.48629 0.
-568.969 -270.742 0.
-692.086 -550.97 0.
279.749 -149.028 0.
322.506 -44.8375 0.
365.266 59.3531 0.
162.534 -159.688 0.
75.0956 -360.785 0.
-362.725 -667.127 0.
-202.651 -297.102 0.
-42.5772 72.9227 0.
128.541 280.655 0.
23.4134 36.1202 0.
-81.7148 -208.416 0.
17.29 -198.968 0.
71.0109 -73.022 0.
124.735 52.9237 0.
-271.762 -166.738 0.
-322.251 -280.915 0.
-14.7443 -234.531 0.
404.508 -85.8248 0.
389.881 -122.659 0.
225.444 -235.393 0.
188.437 -322.035 0.
151.429 -408.676 0.
-552.238 -611.979 0.
-385.726 -217.157 0.
-219.214 177.665 0.
302.254 377.124 0.
197.063 130.859 0.
91.8717 -115.404 0.
-312.601 -227.259 0.
-258.653 -102.998 0.
-154.004 34.2646 0.
-129.92 93.2886 0.
-105.834 152.312 0.
-138.305 136.419 0.
-189.575 10.3361 0.
-240.844 -115.747 0.
-20.0288 -59.7035 0.
-10.1326 -35.6529 0.
-0.233976 -11.6008 0.
310.723 -56.7141 0.
186.548 -347.552 0.
27.2229 162.458 0.
141.136 45.2919 0.
-2.02739 -290.191 0.
-223.208 -558.792 0.
-158.948 -408.015 0.
-94.6894 -257.238 0.
270.804 25.3056 0.
335.473 172.876 0.
400.139 320.448 0.
-234.542 35.2792 0.
-281.709 -70.0873 0.
-328.874 -175.456 0.
242.046 -9.13959 0.
195.303 -106.574 0.
-299.157 -348.013 0.
-117.495 76.2662 0.
64.1655 500.544 0.
323.452 711.988 0.
126.894 258.703 0.
-69.6635 -194.579 0.
-118.595 -232.96 0.
10.8293 57.1921 0.
140.255 347.347 0.
-723.37 -136.593 0.
-829.944 -383.714 0.
-530.65 -457.044 0.
-785.067 -443.537 0.
-723.166 -294.877 0.
559.989 351.419 0.
556.056 345.723 0.
552.123 340.028 0.
752.428 400.151 0.
718.978 331.941 0.
685.529 263.732 0.
-0.240083 -10.1046 0.
36.1538 72.9836 0.
72.5475 156.072 0.
-403.724 15.9407 0.
-378.769 66.0209 0.
-339.319 88.2922 0.
-459.489 -194.374 0.
-579.659 -477.04 0.
-33.3219 -327.843 0.
79.4748 -71.405 0.
192.273 185.034 0.
-259.272 23.0429 0.
-318.544 -119.53 0.
-377.816 -262.103 0.
-38.3577 -156.371 0.
-53.8765 -199.361 0.
-1122.55 -691.004 0.
-264.192 -140.4 0.
-166.686 82.6614 0.
295.073 429.853 0.
302.669 445.492 0.
310.266 461.131 0.
-246.688 128.366 0.
-368.42 -152.867 0.
-490.15 -434.1 0.
-175.095 -310.711 0.
-132.601 -206.076 0.
-90.1034 -101.44 0.
-249.172 -306.701 0.
-335.497 -508.094 0.
-47.047 -498.981 0.
113.807 -129.76 0.
274.662 239.462 0.
521.076 483.524 0.
416.969 238.088 0.
312.861 -7.34999 0.
-266.509 -286.374 0.
-212.659 -160.632 0.
-158.805 -34.8909 0.
-100.243 -63.8331 0.
-152.039 -177.172 0.
141.244 -136.545 0.
456.635 -32.9189 0.
441.255 -69.557 0.
328.11 -160.598 0.
291.214 -247.037 0.
254.317 -333.475 0.
-890.795 -726.807 0.
-724.419 -331.162 0.
-558.042 64.4825 0.
542.279 510.737 0.
436.365 265.293 0.
330.451 19.8496 0.
-218.383 -156.615 0.
-164.561 -32.6084 0.
-225.81 35.0512 0.
-200.937 94.0369 0.
-176.062 153.022 0.
259.897 339.126 0.
209.137 212.539 0.
158.376 85.9525 0.
-772.903 -350.064 0.
-762.616 -325.701 0.
-752.326 -301.336 0.
391.555 7.12096 0.
267.064 -282.31 0.
