# vtk DataFile Version 2.0
test grain
ASCII
DATASET UNSTRUCTURED_GRID
POINTS 5000 float
0.499932 0.00100106 0.
0.501933 0.00100108 0.
0.503934 0.00100106 0.
0.505935 0.00100102 0.
0.507935 0.00100091 0.
0.509935 0.00100081 0.
0.511936 0.00100065 0.
0.513937 0.00100042 0.
0.515938 0.00100018 0.
0.517939 0.00100022 0.
0.519939 0.00100041 0.
0.52194 0.00100061 0.
0.52394 0.00100065 0.
0.52594 0.00100067 0.
0.52794 0.00100071 0.
0.529941 0.001001 0.
0.531941 0.00100129 0.
0.533942 0.0010013 0.
0.535943 0.00100071 0.
0.537944 0.00100012 0.
0.539944 0.00100001 0.
0.541944 0.00100031 0.
0.543944 0.00100061 0.
0.545944 0.0010009 0.
0.547944 0.00100119 0.
0.549944 0.00100148 0.
0.551942 0.00100162 0.
0.55394 0.00100176 0.
0.555938 0.00100182 0.
0.557936 0.00100153 0.
0.559934 0.00100124 0.
0.561932 0.0010012 0.
0.56393 0.00100146 0.
0.565929 0.00100173 0.
0.567928 0.00100138 0.
0.569927 0.0010007 0.
0.571925 0.00100001 0.
0.573922 0.00100039 0.
0.575919 0.00100092 0.
0.577916 0.00100148 0.
0.579911 0.00100219 0.
0.581906 0.00100289 0.
0.583899 0.00100342 0.
0.58589 0.00100356 0.
0.587881 0.00100369 0.
0.58987 0.00100297 0.
0.591858 0.00100149 0.
0.593845 0.00100001 0.
0.595885 0.00100159 0.
0.597942 0.00100426 0.
0.6 0.00100694 0.
0.602058 0.00100431 0.
0.604117 0.00100168 0.
0.606156 0.00100002 0.
0.608144 0.00100106 0.
0.610132 0.0010021 0.
0.612121 0.00100277 0.
0.614113 0.001003 0.
0.616104 0.00100323 0.
0.618097 0.00100324 0.
0.620092 0.00100318 0.
0.622086 0.00100311 0.
0.62408 0.0010028 0.
0.626074 0.00100245 0.
0.628069 0.00100203 0.
0.630068 0.00100118 0.
0.632068 0.00100033 0.
0.634067 0.001 0.
0.636067 0.00100062 0.
0.638066 0.00100124 0.
0.640065 0.00100141 0.
0.642064 0.00100127 0.
0.644064 0.00100113 0.
0.646062 0.00100148 0.
0.64806 0.00100195 0.
0.650058 0.00100239 0.
0.652057 0.00100164 0.
0.654056 0.0010009 0.
0.656056 0.0010003 0.
0.658057 0.00100014 0.
0.660059 0.000999986 0.
0.66206 0.00100014 0.
0.664062 0.00100066 0.
0.666064 0.00100117 0.
0.668064 0.00100138 0.
0.670064 0.00100147 0.
0.672063 0.00100155 0.
0.674063 0.00100134 0.
0.676062 0.00100111 0.
0.678062 0.00100092 0.
0.680061 0.00100105 0.
0.682061 0.00100118 0.
0.684061 0.00100122 0.
0.686062 0.00100112 0.
0.688063 0.00100102 0.
0.690064 0.00100103 0.
0.692064 0.00100113 0.
0.694064 0.00100123 0.
0.696064 0.00100122 0.
0.698064 0.00100119 0.
0.499934 0.00300319 0.
0.501934 0.00300324 0.
0.503935 0.00300317 0.
0.505935 0.00300305 0.
0.507935 0.00300274 0.
0.509936 0.00300243 0.
0.511937 0.00300196 0.
0.513937 0.00300125 0.
0.515938 0.00300053 0.
0.517939 0.00300065 0.
0.519939 0.00300124 0.
0.52194 0.00300183 0.
0.52394 0.00300195 0.
0.52594 0.003002 0.
0.527939 0.00300214 0.
0.52994 0.003003 0.
0.531941 0.00300386 0.
0.533941 0.0030039 0.
0.535941 0.00300214 0.
0.537941 0.00300037 0.
0.539942 0.00300002 0.
0.541944 0.00300092 0.
0.543947 0.00300182 0.
0.545946 0.0030027 0.
0.547945 0.00300357 0.
0.549944 0.00300443 0.
0.551942 0.00300487 0.
0.55394 0.00300529 0.
0.555937 0.00300544 0.
0.557936 0.00300459 0.
0.559934 0.00300373 0.
0.561933 0.00300359 0.
0.563931 0.00300439 0.
0.56593 0.00300518 0.
0.567929 0.00300414 0.
0.569928 0.00300208 0.
0.571927 0.00300004 0.
0.573925 0.00300115 0.
0.575922 0.00300277 0.
0.577919 0.00300446 0.
0.579914 0.00300656 0.
0.58191 0.00300867 0.
0.583904 0.00301026 0.
0.585896 0.00301067 0.
0.587887 0.00301108 0.
0.589879 0.0030089 0.
0.591871 0.00300445 0.
0.593863 0.00300001 0.
0.595898 0.00300481 0.
0.597949 0.00301281 0.
0.6 0.00302082 0.
0.602051 0.00301293 0.
0.604102 0.00300507 0.
0.606138 0.00300004 0.
0.608129 0.00300317 0.
0.610121 0.00300629 0.
0.612113 0.00300831 0.
0.614106 0.003009 0.
0.616099 0.0030097 0.
0.618093 0.00300973 0.
0.620089 0.00300954 0.
0.622084 0.00300935 0.
0.624078 0.00300839 0.
0.626073 0.00300735 0.
0.628067 0.0030061 0.
0.630066 0.00300354 0.
0.632065 0.00300099 0.
0.634064 0.00300001 0.
0.636065 0.00300186 0.
0.638065 0.00300371 0.
0.640065 0.00300424 0.
0.642064 0.00300381 0.
0.644064 0.00300339 0.
0.646062 0.00300444 0.
0.648059 0.00300585 0.
0.650057 0.00300718 0.
0.652055 0.00300494 0.
0.654053 0.0030027 0.
0.656053 0.0030009 0.
0.658056 0.00300043 0.
0.66006 0.00299996 0.
0.662062 0.00300043 0.
0.664064 0.00300197 0.
0.666065 0.00300351 0.
0.668065 0.00300414 0.
0.670064 0.00300439 0.
0.672063 0.00300464 0.
0.674062 0.00300402 0.
0.676061 0.00300332 0.
0.678061 0.00300277 0.
0.680061 0.00300315 0.
0.682061 0.00300354 0.
0.684061 0.00300367 0.
0.686062 0.00300336 0.
0.688062 0.00300304 0.
0.690063 0.00300309 0.
0.692063 0.00300339 0.
0.694063 0.0030037 0.
0.696064 0.00300367 0.
0.698064 0.00300356 0.
0.499936 0.0050053 0.
0.501935 0.00500538 0.
0.503935 0.00500527 0.
0.505935 0.0050051 0.
0.507936 0.00500457 0.
0.509937 0.00500405 0.
0.511937 0.00500327 0.
0.513937 0.00500208 0.
0.515938 0.00500089 0.
0.517938 0.00500107 0.
0.519939 0.00500205 0.
0.52194 0.00500304 0.
0.52394 0.00500325 0.
0.525939 0.00500334 0.
0.527939 0.00500355 0.
0.52994 0.00500499 0.
0.53194 0.00500643 0.
0.533941 0.00500651 0.
0.53594 0.00500356 0.
0.537938 0.00500061 0.
0.53994 0.00500003 0.
0.541944 0.00500153 0.
0.543949 0.00500304 0.
0.545948 0.00500451 0.
0.547946 0.00500594 0.
0.549944 0.00500738 0.
0.551942 0.0050081 0.
0.553939 0.00500881 0.
0.555937 0.00500906 0.
0.557936 0.00500763 0.
0.559935 0.0050062 0.
0.561934 0.00500598 0.
0.563932 0.00500731 0.
0.565931 0.00500864 0.
0.56793 0.00500689 0.
0.569929 0.00500348 0.
0.571929 0.00500006 0.
0.573927 0.00500193 0.
0.575924 0.00500463 0.
0.577922 0.00500744 0.
0.579918 0.00501094 0.
0.581914 0.00501444 0.
0.583909 0.00501708 0.
0.585902 0.00501777 0.
0.587894 0.00501846 0.
0.589888 0.0050148 0.
0.591884 0.00500738 0.
0.59388 0.00499997 0.
0.595912 0.00500807 0.
0.597956 0.00502137 0.
0.600001 0.00503469 0.
0.602044 0.00502157 0.
0.604088 0.00500849 0.
0.606119 0.00500004 0.
0.608115 0.00500525 0.
0.61011 0.00501047 0.
0.612105 0.00501384 0.
0.614099 0.00501498 0.
0.616093 0.00501613 0.
0.618089 0.00501619 0.
0.620085 0.00501588 0.
0.622082 0.00501558 0.
0.624076 0.00501398 0.
0.626071 0.00501225 0.
0.628066 0.00501016 0.
0.630064 0.0050059 0.
0.632062 0.00500164 0.
0.634062 0.00500003 0.
0.636063 0.00500311 0.
0.638064 0.00500619 0.
0.640065 0.00500705 0.
0.642064 0.00500634 0.
0.644064 0.00500565 0.
0.646062 0.00500739 0.
0.648059 0.00500974 0.
0.650056 0.00501195 0.
0.652053 0.00500823 0.
0.65405 0.00500451 0.
0.656049 0.0050015 0.
0.658055 0.00500072 0.
0.660061 0.00499993 0.
0.662064 0.00500073 0.
0.664065 0.00500329 0.
0.666066 0.00500585 0.
0.668065 0.00500689 0.
0.670064 0.00500731 0.
0.672063 0.00500774 0.
0.674062 0.00500669 0.
0.676061 0.00500552 0.
0.67806 0.00500461 0.
0.680061 0.00500524 0.
0.682061 0.00500589 0.
0.684061 0.00500613 0.
0.686061 0.00500559 0.
0.688061 0.00500507 0.
0.690062 0.00500516 0.
0.692062 0.00500566 0.
0.694063 0.00500617 0.
0.696063 0.00500612 0.
0.698064 0.00500593 0.
0.499937 0.00700785 0.
0.501936 0.00700804 0.
0.503936 0.00700806 0.
0.505936 0.00700802 0.
0.507937 0.00700772 0.
0.509938 0.00700742 0.
0.511938 0.00700731 0.
0.513938 0.00700741 0.
0.515938 0.00700751 0.
0.517939 0.00700784 0.
0.519939 0.0070083 0.
0.52194 0.00700878 0.
0.52394 0.00700918 0.
0.52594 0.00700956 0.
0.52794 0.00700994 0.
0.52994 0.00701056 0.
0.531941 0.00701118 0.
0.533942 0.00701161 0.
0.535941 0.00701153 0.
0.537941 0.00701145 0.
0.539942 0.00701139 0.
0.541944 0.00701136 0.
0.543946 0.00701134 0.
0.545946 0.00701185 0.
0.547944 0.00701254 0.
0.549943 0.00701324 0.
0.551942 0.00701361 0.
0.553941 0.00701397 0.
0.55594 0.00701424 0.
0.557939 0.00701419 0.
0.559938 0.00701414 0.
0.561937 0.00701432 0.
0.563936 0.0070148 0.
0.565935 0.00701528 0.
0.567934 0.00701524 0.
0.569932 0.00701494 0.
0.571931 0.00701464 0.
0.573929 0.00701614 0.
0.575927 0.00701793 0.
0.577924 0.00701971 0.
0.579922 0.00702129 0.
0.581919 0.00702287 0.
0.583916 0.00702398 0.
0.585912 0.00702404 0.
0.587908 0.0070241 0.
0.589905 0.00701984 0.
0.591904 0.0070118 0.
0.593903 0.00700377 0.
0.595929 0.00701442 0.
0.597965 0.00703118 0.
0.6 0.00704797 0.
0.602036 0.00703151 0.
0.604071 0.0070151 0.
0.606097 0.00700443 0.
0.608095 0.00701106 0.
0.610093 0.0070177 0.
0.612091 0.0070216 0.
0.614088 0.00702233 0.
0.616085 0.00702305 0.
0.618082 0.00702297 0.
0.620079 0.0070226 0.
0.622077 0.00702223 0.
0.624073 0.00702073 0.
0.62607 0.00701913 0.
0.628067 0.00701757 0.
0.630065 0.00701642 0.
0.632063 0.00701527 0.
0.634062 0.00701475 0.
0.636062 0.00701526 0.
0.638062 0.00701577 0.
0.640062 0.00701543 0.
0.642061 0.00701452 0.
0.644061 0.00701361 0.
0.64606 0.00701432 0.
0.648059 0.00701542 0.
0.650058 0.00701648 0.
0.652056 0.00701551 0.
0.654055 0.00701455 0.
0.656054 0.00701403 0.
0.658057 0.00701485 0.
0.660059 0.00701568 0.
0.662061 0.00701576 0.
0.664061 0.007015 0.
0.666062 0.00701425 0.
0.668062 0.00701364 0.
0.670061 0.00701312 0.
0.672061 0.00701262 0.
0.67406 0.00701163 0.
0.67606 0.0070106 0.
0.67806 0.00700973 0.
0.68006 0.00700989 0.
0.682061 0.00701006 0.
0.684061 0.00701003 0.
0.686061 0.00700958 0.
0.688062 0.00700913 0.
0.690062 0.00700891 0.
0.692062 0.00700884 0.
0.694062 0.00700878 0.
0.696063 0.00700887 0.
0.698063 0.00700899 0.
0.499938 0.00901028 0.
0.501937 0.0090107 0.
0.503937 0.00901084 0.
0.505937 0.00901093 0.
0.507938 0.00901086 0.
0.509939 0.00901079 0.
0.511939 0.00901135 0.
0.513939 0.00901274 0.
0.515939 0.00901414 0.
0.517939 0.0090146 0.
0.519939 0.00901455 0.
0.521939 0.00901451 0.
0.52394 0.00901511 0.
0.52594 0.00901577 0.
0.527941 0.00901633 0.
0.529941 0.00901614 0.
0.531942 0.00901594 0.
0.533943 0.00901671 0.
0.535943 0.0090195 0.
0.537943 0.00902229 0.
0.539943 0.00902276 0.
0.541943 0.00902119 0.
0.543943 0.00901963 0.
0.545943 0.00901921 0.
0.547943 0.00901915 0.
0.549942 0.0090191 0.
0.551942 0.00901911 0.
0.553942 0.00901913 0.
0.555942 0.00901941 0.
0.557941 0.00902075 0.
0.55994 0.00902208 0.
0.561939 0.00902267 0.
0.563939 0.00902229 0.
0.565939 0.00902192 0.
0.567937 0.00902359 0.
0.569936 0.0090264 0.
0.571934 0.00902922 0.
0.573931 0.00903036 0.
0.575929 0.00903123 0.
0.577927 0.00903197 0.
0.579925 0.00903163 0.
0.581923 0.0090313 0.
0.583922 0.00903089 0.
0.585922 0.00903031 0.
0.587922 0.00902975 0.
0.589923 0.00902485 0.
0.591925 0.00901619 0.
0.593926 0.00900754 0.
0.595947 0.0090208 0.
0.597974 0.00904101 0.
0.6 0.00906125 0.
0.602027 0.00904148 0.
0.604054 0.00902175 0.
0.606074 0.0090088 0.
0.608075 0.00901685 0.
0.610076 0.00902491 0.
0.612077 0.00902938 0.
0.614076 0.00902968 0.
0.616076 0.00902997 0.
0.618075 0.00902974 0.
0.620073 0.00902931 0.
0.622071 0.00902888 0.
0.62407 0.0090275 0.
0.626069 0.00902601 0.
0.628067 0.00902497 0.
0.630065 0.00902692 0.
0.632063 0.00902888 0.
0.634062 0.00902947 0.
0.636061 0.00902741 0.
0.63806 0.00902535 0.
0.640059 0.00902381 0.
0.642058 0.00902269 0.
0.644058 0.00902157 0.
0.646058 0.00902125 0.
0.648058 0.00902112 0.
0.650059 0.009021 0.
0.652059 0.0090228 0.
0.654059 0.00902459 0.
0.656058 0.00902657 0.
0.658058 0.00902899 0.
0.660057 0.00903142 0.
0.662057 0.0090308 0.
0.664057 0.00902673 0.
0.666057 0.00902266 0.
0.668058 0.00902038 0.
0.670059 0.00901893 0.
0.672059 0.00901749 0.
0.674059 0.00901657 0.
0.676059 0.00901568 0.
0.678059 0.00901484 0.
0.68006 0.00901453 0.
0.682061 0.00901422 0.
0.684061 0.00901394 0.
0.686061 0.00901356 0.
0.688062 0.00901319 0.
0.690062 0.00901266 0.
0.692062 0.00901202 0.
0.694062 0.00901139 0.
0.696062 0.00901161 0.
0.698062 0.00901206 0.
0.499938 0.0110122 0.
0.501938 0.0110126 0.
0.503938 0.0110128 0.
0.505938 0.011013 0.
0.507939 0.0110132 0.
0.509939 0.0110135 0.
0.511939 0.0110144 0.
0.513939 0.0110161 0.
0.515939 0.0110179 0.
0.517939 0.0110184 0.
0.519939 0.0110183 0.
0.521939 0.0110181 0.
0.52394 0.0110188 0.
0.52594 0.0110194 0.
0.527941 0.01102 0.
0.529942 0.0110197 0.
0.531942 0.0110194 0.
0.533943 0.0110203 0.
0.535944 0.0110239 0.
0.537944 0.0110275 0.
0.539944 0.0110283 0.
0.541943 0.0110265 0.
0.543943 0.0110247 0.
0.545943 0.0110237 0.
0.547943 0.011023 0.
0.549943 0.0110223 0.
0.551943 0.0110225 0.
0.553943 0.0110226 0.
0.555943 0.0110231 0.
0.557943 0.0110249 0.
0.559942 0.0110267 0.
0.561942 0.0110275 0.
0.563942 0.011027 0.
0.565942 0.0110265 0.
0.56794 0.0110287 0.
0.569939 0.0110325 0.
0.571937 0.0110363 0.
0.573936 0.0110372 0.
0.575934 0.0110377 0.
0.577932 0.011038 0.
0.579932 0.0110366 0.
0.581931 0.0110353 0.
0.583932 0.011034 0.
0.585934 0.0110328 0.
0.587936 0.0110315 0.
0.589939 0.0110267 0.
0.591942 0.0110187 0.
0.593945 0.0110107 0.
0.595961 0.0110229 0.
0.597981 0.0110413 0.
0.600001 0.0110595 0.
0.60202 0.0110419 0.
0.60404 0.0110241 0.
0.606056 0.0110124 0.
0.608059 0.0110202 0.
0.610062 0.0110279 0.
0.612064 0.0110323 0.
0.614065 0.0110328 0.
0.616066 0.0110333 0.
0.618066 0.0110333 0.
0.620066 0.0110331 0.
0.622065 0.0110329 0.
0.624065 0.0110315 0.
0.626065 0.0110301 0.
0.628065 0.0110292 0.
0.630063 0.0110325 0.
0.632062 0.0110357 0.
0.634061 0.0110368 0.
0.63606 0.0110338 0.
0.638059 0.0110309 0.
0.640058 0.0110289 0.
0.642057 0.0110277 0.
0.644056 0.0110265 0.
0.646056 0.0110257 0.
0.648057 0.011025 0.
0.650058 0.0110243 0.
0.652059 0.0110273 0.
0.65406 0.0110303 0.
0.65606 0.0110332 0.
0.658058 0.0110358 0.
0.660057 0.0110384 0.
0.662056 0.0110375 0.
0.664056 0.0110324 0.
0.666056 0.0110274 0.
0.668057 0.0110246 0.
0.670058 0.0110227 0.
0.672058 0.0110209 0.
0.674059 0.01102 0.
0.676059 0.0110192 0.
0.678059 0.0110183 0.
0.68006 0.0110177 0.
0.68206 0.0110172 0.
0.68406 0.0110167 0.
0.686061 0.0110163 0.
0.688061 0.0110159 0.
0.690062 0.0110153 0.
0.692062 0.0110146 0.
0.694062 0.0110139 0.
0.696062 0.0110142 0.
0.698062 0.0110149 0.
0.499937 0.0130137 0.
0.501937 0.0130139 0.
0.503938 0.013014 0.
0.505938 0.0130142 0.
0.507939 0.0130148 0.
0.509939 0.0130154 0.
0.511939 0.0130163 0.
0.513939 0.0130175 0.
0.515939 0.0130187 0.
0.517939 0.0130193 0.
0.519939 0.0130194 0.
0.52194 0.0130196 0.
0.52394 0.0130201 0.
0.525941 0.0130206 0.
0.527941 0.013021 0.
0.529941 0.0130213 0.
0.531942 0.0130215 0.
0.533943 0.0130224 0.
0.535943 0.0130248 0.
0.537944 0.0130273 0.
0.539944 0.013028 0.
0.541944 0.0130273 0.
0.543944 0.0130266 0.
0.545944 0.0130255 0.
0.547944 0.0130242 0.
0.549944 0.013023 0.
0.551944 0.0130237 0.
0.553944 0.0130244 0.
0.555945 0.0130253 0.
0.557944 0.0130267 0.
0.559944 0.0130281 0.
0.561943 0.0130289 0.
0.563943 0.0130288 0.
0.565943 0.0130288 0.
0.567943 0.0130306 0.
0.569943 0.0130332 0.
0.571942 0.0130359 0.
0.573942 0.0130368 0.
0.575941 0.0130374 0.
0.577941 0.0130379 0.
0.579942 0.0130364 0.
0.581943 0.0130349 0.
0.583944 0.0130333 0.
0.585947 0.0130314 0.
0.58795 0.0130296 0.
0.589953 0.0130254 0.
0.591957 0.0130194 0.
0.593961 0.0130133 0.
0.595973 0.0130208 0.
0.597987 0.0130323 0.
0.600001 0.0130438 0.
0.602015 0.013033 0.
0.60403 0.0130222 0.
0.606042 0.0130152 0.
0.608046 0.013021 0.
0.610049 0.0130268 0.
0.612052 0.0130305 0.
0.614054 0.0130318 0.
0.616056 0.0130331 0.
0.618057 0.0130337 0.
0.620058 0.013034 0.
0.622059 0.0130343 0.
0.624059 0.0130329 0.
0.626059 0.0130314 0.
0.628059 0.0130304 0.
0.630059 0.0130332 0.
0.632059 0.0130359 0.
0.634059 0.0130369 0.
0.636058 0.0130347 0.
0.638058 0.0130325 0.
0.640057 0.0130308 0.
0.642056 0.0130297 0.
0.644055 0.0130285 0.
0.646056 0.0130277 0.
0.648056 0.013027 0.
0.650057 0.0130264 0.
0.652057 0.0130291 0.
0.654057 0.0130318 0.
0.656058 0.0130342 0.
0.658057 0.0130356 0.
0.660057 0.013037 0.
0.662057 0.013036 0.
0.664057 0.0130322 0.
0.666057 0.0130284 0.
0.668058 0.0130261 0.
0.670058 0.0130245 0.
0.672059 0.0130228 0.
0.674059 0.0130219 0.
0.676059 0.013021 0.
0.678059 0.0130201 0.
0.680059 0.0130195 0.
0.682059 0.0130188 0.
0.68406 0.0130182 0.
0.68606 0.0130178 0.
0.68806 0.0130173 0.
0.690061 0.0130169 0.
0.692061 0.0130165 0.
0.694061 0.0130162 0.
0.696062 0.0130167 0.
0.698062 0.0130174 0.
0.499936 0.0150152 0.
0.501937 0.0150151 0.
0.503938 0.0150151 0.
0.505939 0.0150153 0.
0.507939 0.0150163 0.
0.509939 0.0150174 0.
0.511939 0.0150182 0.
0.513938 0.0150189 0.
0.515938 0.0150196 0.
0.517939 0.0150201 0.
0.519939 0.0150206 0.
0.52194 0.0150211 0.
0.523941 0.0150214 0.
0.525941 0.0150217 0.
0.527941 0.015022 0.
0.529941 0.0150228 0.
0.531942 0.0150236 0.
0.533942 0.0150245 0.
0.535943 0.0150257 0.
0.537943 0.015027 0.
0.539944 0.0150277 0.
0.541944 0.0150281 0.
0.543945 0.0150284 0.
0.545945 0.0150272 0.
0.547945 0.0150254 0.
0.549945 0.0150236 0.
0.551945 0.0150248 0.
0.553946 0.0150262 0.
0.555946 0.0150274 0.
0.557946 0.0150284 0.
0.559945 0.0150294 0.
0.561945 0.0150302 0.
0.563945 0.0150307 0.
0.565945 0.0150312 0.
0.567946 0.0150324 0.
0.569946 0.015034 0.
0.571947 0.0150356 0.
0.573948 0.0150364 0.
0.575949 0.0150372 0.
0.57795 0.0150377 0.
0.579952 0.0150361 0.
0.581954 0.0150345 0.
0.583956 0.0150326 0.
0.58596 0.0150301 0.
0.587964 0.0150276 0.
0.589968 0.0150242 0.
0.591972 0.01502 0.
0.593976 0.0150158 0.
0.595984 0.0150186 0.
0.597993 0.0150234 0.
0.600002 0.0150282 0.
0.602011 0.0150242 0.
0.60402 0.0150202 0.
0.606028 0.0150181 0.
0.608032 0.0150219 0.
0.610037 0.0150257 0.
0.612041 0.0150287 0.
0.614043 0.0150307 0.
0.616046 0.0150328 0.
0.618048 0.015034 0.
0.62005 0.0150348 0.
0.622052 0.0150356 0.
0.624053 0.0150342 0.
0.626054 0.0150326 0.
0.628054 0.0150316 0.
0.630055 0.0150338 0.
0.632056 0.0150361 0.
0.634057 0.015037 0.
0.636057 0.0150355 0.
0.638057 0.015034 0.
0.640056 0.0150327 0.
0.642056 0.0150316 0.
0.644055 0.0150305 0.
0.646055 0.0150297 0.
0.648055 0.0150291 0.
0.650055 0.0150284 0.
0.652055 0.0150308 0.
0.654055 0.0150332 0.
0.656056 0.0150351 0.
0.658057 0.0150353 0.
0.660057 0.0150356 0.
0.662058 0.0150346 0.
0.664058 0.015032 0.
0.666059 0.0150294 0.
0.668059 0.0150277 0.
0.670059 0.0150262 0.
0.672059 0.0150248 0.
0.674059 0.0150238 0.
0.676059 0.0150229 0.
0.678059 0.015022 0.
0.680059 0.0150212 0.
0.682059 0.0150205 0.
0.684059 0.0150198 0.
0.686059 0.0150192 0.
0.68806 0.0150187 0.
0.69006 0.0150184 0.
0.69206 0.0150185 0.
0.694061 0.0150185 0.
0.696061 0.0150191 0.
0.698061 0.0150199 0.
0.499937 0.017017 0.
0.501937 0.017017 0.
0.503938 0.017017 0.
0.505938 0.0170172 0.
0.507938 0.0170182 0.
0.509938 0.0170193 0.
0.511938 0.0170202 0.
0.513938 0.0170208 0.
0.515938 0.0170214 0.
0.517939 0.0170216 0.
0.519939 0.0170218 0.
0.52194 0.0170219 0.
0.52394 0.0170222 0.
0.525941 0.0170225 0.
0.527941 0.0170229 0.
0.529941 0.0170239 0.
0.531942 0.0170249 0.
0.533943 0.0170258 0.
0.535943 0.0170266 0.
0.537944 0.0170273 0.
0.539944 0.0170278 0.
0.541945 0.0170281 0.
0.543946 0.0170284 0.
0.545946 0.0170277 0.
0.547946 0.0170265 0.
0.549946 0.0170254 0.
0.551947 0.0170265 0.
0.553947 0.0170276 0.
0.555947 0.0170287 0.
0.557947 0.0170295 0.
0.559947 0.0170304 0.
0.561947 0.017031 0.
0.563947 0.0170315 0.
0.565947 0.017032 0.
0.567948 0.0170332 0.
0.569949 0.0170348 0.
0.571949 0.0170364 0.
0.573951 0.0170368 0.
0.575953 0.0170369 0.
0.577954 0.0170369 0.
0.579957 0.0170352 0.
0.581959 0.0170334 0.
0.583962 0.0170315 0.
0.585966 0.0170291 0.
0.587969 0.0170266 0.
0.589973 0.0170238 0.
0.591977 0.0170205 0.
0.593981 0.0170172 0.
0.595987 0.0170188 0.
0.597994 0.0170219 0.
0.600001 0.0170251 0.
0.602009 0.0170227 0.
0.604017 0.0170203 0.
0.606024 0.0170191 0.
0.608028 0.0170221 0.
0.610032 0.0170251 0.
0.612036 0.0170276 0.
0.614038 0.0170294 0.
0.616041 0.0170312 0.
0.618044 0.0170327 0.
0.620046 0.0170339 0.
0.622048 0.0170352 0.
0.624049 0.0170342 0.
0.626051 0.017033 0.
0.628052 0.0170323 0.
0.630053 0.0170341 0.
0.632054 0.017036 0.
0.634054 0.0170368 0.
0.636055 0.0170357 0.
0.638055 0.0170346 0.
0.640055 0.0170337 0.
0.642055 0.0170329 0.
0.644054 0.0170321 0.
0.646054 0.0170314 0.
0.648054 0.0170307 0.
0.650054 0.0170301 0.
0.652054 0.0170317 0.
0.654055 0.0170333 0.
0.656055 0.0170346 0.
0.658056 0.017035 0.
0.660057 0.0170354 0.
0.662058 0.0170347 0.
0.664058 0.0170327 0.
0.666059 0.0170306 0.
0.668059 0.0170293 0.
0.670059 0.0170283 0.
0.672059 0.0170274 0.
0.674059 0.017026 0.
0.676059 0.0170245 0.
0.678059 0.0170232 0.
0.680059 0.0170226 0.
0.682059 0.0170219 0.
0.684059 0.0170212 0.
0.686059 0.0170206 0.
0.688059 0.01702 0.
0.69006 0.0170198 0.
0.69206 0.0170199 0.
0.694061 0.0170201 0.
0.696061 0.0170206 0.
0.698061 0.0170212 0.
0.499937 0.0190188 0.
0.501938 0.0190189 0.
0.503938 0.0190189 0.
0.505938 0.0190191 0.
0.507938 0.0190202 0.
0.509937 0.0190212 0.
0.511937 0.0190221 0.
0.513938 0.0190226 0.
0.515938 0.0190231 0.
0.517938 0.0190232 0.
0.519939 0.0190229 0.
0.52194 0.0190227 0.
0.52394 0.019023 0.
0.525941 0.0190233 0.
0.527941 0.0190237 0.
0.529941 0.019025 0.
0.531942 0.0190262 0.
0.533943 0.0190271 0.
0.535943 0.0190274 0.
0.537944 0.0190277 0.
0.539945 0.0190279 0.
0.541946 0.0190282 0.
0.543947 0.0190284 0.
0.545947 0.0190282 0.
0.547948 0.0190277 0.
0.549948 0.0190272 0.
0.551948 0.0190281 0.
0.553948 0.0190291 0.
0.555948 0.01903 0.
0.557949 0.0190306 0.
0.559949 0.0190313 0.
0.561949 0.0190319 0.
0.563949 0.0190323 0.
0.565949 0.0190327 0.
0.56795 0.0190339 0.
0.569951 0.0190356 0.
0.571952 0.0190372 0.
0.573954 0.0190371 0.
0.575957 0.0190367 0.
0.577959 0.0190362 0.
0.579962 0.0190343 0.
0.581965 0.0190324 0.
0.583968 0.0190303 0.
0.585971 0.019028 0.
0.587974 0.0190257 0.
0.589978 0.0190234 0.
0.591982 0.0190209 0.
0.593985 0.0190185 0.
0.59599 0.0190191 0.
0.597996 0.0190205 0.
0.600001 0.019022 0.
0.602008 0.0190212 0.
0.604014 0.0190204 0.
0.60602 0.0190202 0.
0.608024 0.0190224 0.
0.610027 0.0190246 0.
0.612031 0.0190265 0.
0.614034 0.0190281 0.
0.616037 0.0190297 0.
0.61804 0.0190314 0.
0.620042 0.0190331 0.
0.622045 0.0190347 0.
0.624046 0.0190342 0.
0.626048 0.0190334 0.
0.628049 0.019033 0.
0.63005 0.0190344 0.
0.632051 0.0190359 0.
0.634052 0.0190367 0.
0.636052 0.0190359 0.
0.638053 0.0190352 0.
0.640053 0.0190347 0.
0.642054 0.0190342 0.
0.644054 0.0190338 0.
0.646054 0.0190331 0.
0.648054 0.0190324 0.
0.650053 0.0190317 0.
0.652054 0.0190326 0.
0.654054 0.0190334 0.
0.656054 0.0190341 0.
0.658055 0.0190347 0.
0.660056 0.0190352 0.
0.662057 0.0190348 0.
0.664058 0.0190333 0.
0.666059 0.0190318 0.
0.668059 0.019031 0.
0.670059 0.0190305 0.
0.672059 0.0190299 0.
0.674059 0.0190281 0.
0.676059 0.0190262 0.
0.678059 0.0190245 0.
0.680059 0.0190239 0.
0.682059 0.0190233 0.
0.684059 0.0190227 0.
0.686059 0.019022 0.
0.688059 0.0190213 0.
0.690059 0.0190212 0.
0.69206 0.0190214 0.
0.69406 0.0190216 0.
0.696061 0.019022 0.
0.698061 0.0190225 0.
0.499938 0.0210208 0.
0.501938 0.021021 0.
0.503937 0.021021 0.
0.505937 0.0210212 0.
0.507937 0.021022 0.
0.509937 0.0210228 0.
0.511937 0.0210234 0.
0.513938 0.021024 0.
0.515938 0.0210246 0.
0.517939 0.0210245 0.
0.519939 0.0210242 0.
0.52194 0.0210239 0.
0.52394 0.021024 0.
0.525941 0.0210242 0.
0.527941 0.0210246 0.
0.529942 0.021026 0.
0.531943 0.0210273 0.
0.533943 0.0210283 0.
0.535944 0.0210282 0.
0.537945 0.0210281 0.
0.539945 0.0210282 0.
0.541946 0.0210285 0.
0.543947 0.0210287 0.
0.545948 0.0210288 0.
0.547948 0.0210287 0.
0.549949 0.0210286 0.
0.551949 0.0210294 0.
0.553949 0.0210301 0.
0.55595 0.0210308 0.
0.55795 0.0210314 0.
0.559951 0.0210319 0.
0.561951 0.0210325 0.
0.563951 0.0210331 0.
0.565952 0.0210337 0.
0.567953 0.0210347 0.
0.569954 0.0210358 0.
0.571955 0.0210369 0.
0.573958 0.0210366 0.
0.575961 0.0210359 0.
0.577964 0.0210352 0.
0.579967 0.0210334 0.
0.581969 0.0210316 0.
0.583972 0.0210296 0.
0.585975 0.0210272 0.
0.587978 0.0210248 0.
0.589981 0.0210229 0.
0.591985 0.0210211 0.
0.593988 0.0210194 0.
0.595992 0.0210194 0.
0.597997 0.0210199 0.
0.600001 0.0210205 0.
0.602007 0.0210205 0.
0.604012 0.0210205 0.
0.606017 0.0210209 0.
0.60802 0.0210224 0.
0.610023 0.0210238 0.
0.612027 0.0210254 0.
0.61403 0.021027 0.
0.616033 0.0210287 0.
0.618035 0.0210304 0.
0.620038 0.0210322 0.
0.622041 0.0210339 0.
0.624043 0.0210337 0.
0.626045 0.0210333 0.
0.628046 0.0210331 0.
0.630047 0.0210345 0.
0.632048 0.0210359 0.
0.634049 0.0210367 0.
0.63605 0.0210361 0.
0.638051 0.0210355 0.
0.640052 0.0210352 0.
0.642052 0.0210352 0.
0.644053 0.0210351 0.
0.646053 0.0210345 0.
0.648052 0.0210338 0.
0.650052 0.0210331 0.
0.652053 0.0210333 0.
0.654053 0.0210336 0.
0.656053 0.0210339 0.
0.658055 0.0210344 0.
0.660056 0.021035 0.
0.662057 0.0210348 0.
0.664058 0.0210339 0.
0.666058 0.0210329 0.
0.668059 0.0210324 0.
0.670059 0.021032 0.
0.672059 0.0210316 0.
0.674059 0.0210298 0.
0.676059 0.0210278 0.
0.678058 0.021026 0.
0.680059 0.0210254 0.
0.682059 0.0210249 0.
0.684059 0.0210242 0.
0.686059 0.0210235 0.
0.688059 0.0210227 0.
0.690059 0.0210226 0.
0.69206 0.0210229 0.
0.69406 0.0210232 0.
0.696061 0.0210236 0.
0.698061 0.021024 0.
0.499937 0.0230229 0.
0.501937 0.0230232 0.
0.503937 0.0230234 0.
0.505936 0.0230236 0.
0.507937 0.0230237 0.
0.509937 0.0230239 0.
0.511938 0.0230243 0.
0.513938 0.023025 0.
0.515939 0.0230257 0.
0.517939 0.0230258 0.
0.51994 0.0230256 0.
0.52194 0.0230254 0.
0.523941 0.0230253 0.
0.525942 0.0230253 0.
0.527943 0.0230254 0.
0.529943 0.0230268 0.
0.531943 0.0230283 0.
0.533944 0.0230292 0.
0.535945 0.023029 0.
0.537945 0.0230287 0.
0.539946 0.0230287 0.
0.541947 0.023029 0.
0.543948 0.0230292 0.
0.545948 0.0230294 0.
0.547949 0.0230296 0.
0.549949 0.0230298 0.
0.55195 0.0230303 0.
0.55395 0.0230307 0.
0.555951 0.0230312 0.
0.557952 0.0230318 0.
0.559953 0.0230323 0.
0.561953 0.023033 0.
0.563954 0.023034 0.
0.565955 0.0230349 0.
0.567956 0.0230353 0.
0.569958 0.0230355 0.
0.571959 0.0230356 0.
0.573962 0.0230351 0.
0.575965 0.0230346 0.
0.577968 0.0230339 0.
0.57997 0.0230325 0.
0.581973 0.023031 0.
0.583975 0.0230292 0.
0.585978 0.0230266 0.
0.58798 0.023024 0.
0.589983 0.0230222 0.
0.591986 0.0230211 0.
0.593989 0.02302 0.
0.595993 0.0230199 0.
0.597997 0.0230202 0.
0.600002 0.0230204 0.
0.602006 0.0230206 0.
0.604011 0.0230207 0.
0.606015 0.0230211 0.
0.608018 0.023022 0.
0.610021 0.0230229 0.
0.612024 0.0230243 0.
0.614026 0.0230262 0.
0.616029 0.0230281 0.
0.618031 0.0230297 0.
0.620034 0.0230312 0.
0.622037 0.0230327 0.
0.624039 0.0230327 0.
0.626042 0.0230326 0.
0.628044 0.0230327 0.
0.630045 0.0230343 0.
0.632046 0.023036 0.
0.634047 0.0230369 0.
0.636048 0.0230362 0.
0.638049 0.0230355 0.
0.64005 0.0230354 0.
0.64205 0.0230357 0.
0.644051 0.023036 0.
0.646051 0.0230355 0.
0.648051 0.0230348 0.
0.650051 0.0230341 0.
0.652051 0.023034 0.
0.654052 0.0230339 0.
0.656053 0.0230339 0.
0.658054 0.0230343 0.
0.660055 0.0230346 0.
0.662056 0.0230346 0.
0.664057 0.0230342 0.
0.666057 0.0230339 0.
0.668058 0.0230334 0.
0.670059 0.0230329 0.
0.672059 0.0230325 0.
0.674059 0.0230309 0.
0.676059 0.0230293 0.
0.678058 0.0230278 0.
0.680059 0.0230271 0.
0.682059 0.0230265 0.
0.684059 0.0230258 0.
0.686059 0.0230251 0.
0.688059 0.0230243 0.
0.690059 0.0230242 0.
0.692059 0.0230244 0.
0.69406 0.0230247 0.
0.69606 0.0230253 0.
0.698061 0.0230259 0.
0.499937 0.025025 0.
0.501936 0.0250254 0.
0.503936 0.0250257 0.
0.505936 0.0250259 0.
0.507937 0.0250254 0.
0.509937 0.025025 0.
0.511938 0.0250251 0.
0.513939 0.0250259 0.
0.515939 0.0250268 0.
0.51794 0.025027 0.
0.51994 0.0250269 0.
0.521941 0.0250269 0.
0.523942 0.0250267 0.
0.525943 0.0250264 0.
0.527944 0.0250262 0.
0.529944 0.0250277 0.
0.531944 0.0250292 0.
0.533944 0.0250302 0.
0.535945 0.0250298 0.
0.537946 0.0250293 0.
0.539947 0.0250293 0.
0.541947 0.0250295 0.
0.543948 0.0250297 0.
0.545949 0.0250301 0.
0.547949 0.0250306 0.
0.549949 0.025031 0.
0.55195 0.0250312 0.
0.553952 0.0250314 0.
0.555953 0.0250316 0.
0.557953 0.0250321 0.
0.559954 0.0250327 0.
0.561955 0.0250335 0.
0.563957 0.0250348 0.
0.565958 0.025036 0.
0.56796 0.0250359 0.
0.569962 0.0250351 0.
0.571963 0.0250343 0.
0.573966 0.0250337 0.
0.575969 0.0250333 0.
0.577972 0.0250327 0.
0.579974 0.0250316 0.
0.581976 0.0250304 0.
0.583978 0.0250287 0.
0.58598 0.0250259 0.
0.587982 0.0250231 0.
0.589985 0.0250216 0.
0.591987 0.025021 0.
0.59399 0.0250205 0.
0.595994 0.0250204 0.
0.597998 0.0250204 0.
0.600002 0.0250204 0.
0.602006 0.0250207 0.
0.60401 0.0250209 0.
0.606013 0.0250212 0.
0.608016 0.0250216 0.
0.610018 0.025022 0.
0.612021 0.0250232 0.
0.614023 0.0250254 0.
0.616025 0.0250275 0.
0.618028 0.0250291 0.
0.62003 0.0250303 0.
0.622033 0.0250315 0.
0.624036 0.0250317 0.
0.626038 0.0250318 0.
0.628041 0.0250322 0.
0.630042 0.0250342 0.
0.632043 0.0250361 0.
0.634045 0.0250371 0.
0.636046 0.0250363 0.
0.638047 0.0250355 0.
0.640048 0.0250355 0.
0.642048 0.0250362 0.
0.644049 0.0250369 0.
0.646049 0.0250365 0.
0.648049 0.0250358 0.
0.650049 0.0250351 0.
0.65205 0.0250346 0.
0.654051 0.0250342 0.
0.656052 0.0250339 0.
0.658053 0.0250341 0.
0.660054 0.0250343 0.
0.662055 0.0250344 0.
0.664056 0.0250346 0.
0.666057 0.0250348 0.
0.668057 0.0250345 0.
0.670058 0.0250339 0.
0.672059 0.0250333 0.
0.674059 0.0250321 0.
0.676059 0.0250308 0.
0.678058 0.0250296 0.
0.680059 0.0250289 0.
0.682059 0.0250281 0.
0.684059 0.0250274 0.
0.686059 0.0250266 0.
0.688059 0.0250259 0.
0.690059 0.0250257 0.
0.692059 0.025026 0.
0.694059 0.0250263 0.
0.69606 0.0250269 0.
0.698062 0.0250277 0.
0.499938 0.0270265 0.
0.501938 0.0270269 0.
0.503937 0.027027 0.
0.505937 0.027027 0.
0.507938 0.0270266 0.
0.509938 0.0270263 0.
0.511939 0.0270264 0.
0.51394 0.0270271 0.
0.515941 0.0270277 0.
0.517941 0.0270278 0.
0.519942 0.0270276 0.
0.521942 0.0270274 0.
0.523943 0.0270275 0.
0.525943 0.0270275 0.
0.527944 0.0270276 0.
0.529945 0.0270285 0.
0.531945 0.0270295 0.
0.533946 0.02703 0.
0.535946 0.0270297 0.
0.537947 0.0270295 0.
0.539948 0.0270295 0.
0.541948 0.02703 0.
0.543949 0.0270304 0.
0.545949 0.0270305 0.
0.54795 0.0270305 0.
0.54995 0.0270305 0.
0.551951 0.0270309 0.
0.553952 0.0270314 0.
0.555954 0.0270318 0.
0.557955 0.0270322 0.
0.559956 0.0270326 0.
0.561957 0.0270332 0.
0.563958 0.027034 0.
0.565959 0.0270349 0.
0.567961 0.0270347 0.
0.569963 0.0270339 0.
0.571965 0.0270332 0.
0.573968 0.0270326 0.
0.57597 0.0270321 0.
0.577973 0.0270316 0.
0.579975 0.0270305 0.
0.581977 0.0270293 0.
0.583979 0.0270278 0.
0.585981 0.0270255 0.
0.587984 0.0270232 0.
0.589986 0.0270218 0.
0.591988 0.0270209 0.
0.593991 0.0270201 0.
0.595994 0.0270199 0.
0.597998 0.02702 0.
0.600001 0.0270201 0.
0.602005 0.0270202 0.
0.604009 0.0270203 0.
0.606013 0.0270205 0.
0.608015 0.0270212 0.
0.610018 0.0270219 0.
0.61202 0.0270231 0.
0.614022 0.027025 0.
0.616024 0.0270269 0.
0.618026 0.0270281 0.
0.620029 0.0270289 0.
0.622031 0.0270297 0.
0.624034 0.0270304 0.
0.626036 0.027031 0.
0.628039 0.0270318 0.
0.63004 0.0270335 0.
0.632042 0.0270351 0.
0.634043 0.0270361 0.
0.636044 0.0270358 0.
0.638046 0.0270356 0.
0.640047 0.0270357 0.
0.642047 0.027036 0.
0.644048 0.0270364 0.
0.646048 0.027036 0.
0.648049 0.0270356 0.
0.650049 0.0270351 0.
0.65205 0.0270348 0.
0.654051 0.0270346 0.
0.656052 0.0270345 0.
0.658053 0.0270346 0.
0.660054 0.0270347 0.
0.662055 0.0270348 0.
0.664055 0.0270349 0.
0.666055 0.0270349 0.
0.668056 0.0270347 0.
0.670057 0.0270344 0.
0.672058 0.027034 0.
0.674058 0.0270329 0.
0.676058 0.0270316 0.
0.678058 0.0270304 0.
0.680058 0.0270299 0.
0.682059 0.0270294 0.
0.684059 0.0270288 0.
0.686059 0.027028 0.
0.688059 0.0270272 0.
0.690059 0.0270272 0.
0.692059 0.0270278 0.
0.694059 0.0270283 0.
0.69606 0.0270288 0.
0.698061 0.0270292 0.
0.49994 0.0290282 0.
0.501939 0.0290283 0.
0.503939 0.0290282 0.
0.505938 0.029028 0.
0.507939 0.0290278 0.
0.509939 0.0290277 0.
0.51194 0.0290278 0.
0.513941 0.0290282 0.
0.515942 0.0290287 0.
0.517942 0.0290286 0.
0.519943 0.0290283 0.
0.521943 0.029028 0.
0.523944 0.0290283 0.
0.525944 0.0290287 0.
0.527944 0.029029 0.
0.529945 0.0290294 0.
0.531946 0.0290297 0.
0.533947 0.0290299 0.
0.535948 0.0290297 0.
0.537949 0.0290296 0.
0.539949 0.0290298 0.
0.54195 0.0290304 0.
0.54395 0.029031 0.
0.54595 0.0290308 0.
0.547951 0.0290304 0.
0.549951 0.0290299 0.
0.551952 0.0290306 0.
0.553953 0.0290314 0.
0.555955 0.029032 0.
0.557956 0.0290322 0.
0.559957 0.0290325 0.
0.561958 0.0290328 0.
0.563959 0.0290333 0.
0.565961 0.0290338 0.
0.567963 0.0290335 0.
0.569965 0.0290328 0.
0.571967 0.029032 0.
0.573969 0.0290315 0.
0.575972 0.029031 0.
0.577974 0.0290305 0.
0.579976 0.0290293 0.
0.581978 0.0290282 0.
0.58398 0.0290268 0.
0.585982 0.0290251 0.
0.587985 0.0290233 0.
0.589987 0.0290219 0.
0.591989 0.0290208 0.
0.593991 0.0290197 0.
0.595994 0.0290195 0.
0.597998 0.0290196 0.
0.600001 0.0290197 0.
0.602005 0.0290197 0.
0.604009 0.0290196 0.
0.606013 0.0290198 0.
0.608015 0.0290208 0.
0.610017 0.0290218 0.
0.612019 0.0290231 0.
0.614021 0.0290246 0.
0.616022 0.0290262 0.
0.618025 0.029027 0.
0.620027 0.0290275 0.
0.62203 0.0290279 0.
0.624032 0.029029 0.
0.626034 0.0290302 0.
0.628036 0.0290315 0.
0.630038 0.0290328 0.
0.63204 0.0290341 0.
0.634041 0.029035 0.
0.636043 0.0290354 0.
0.638044 0.0290357 0.
0.640045 0.0290358 0.
0.642046 0.0290358 0.
0.644047 0.0290359 0.
0.646048 0.0290356 0.
0.648048 0.0290353 0.
0.650049 0.0290351 0.
0.65205 0.029035 0.
0.654051 0.029035 0.
0.656052 0.029035 0.
0.658053 0.0290351 0.
0.660053 0.0290352 0.
0.662054 0.0290352 0.
0.664054 0.0290351 0.
0.666054 0.029035 0.
0.668055 0.0290349 0.
0.670056 0.0290348 0.
0.672056 0.0290348 0.
0.674057 0.0290336 0.
0.676057 0.0290324 0.
0.678057 0.0290313 0.
0.680058 0.029031 0.
0.682058 0.0290307 0.
0.684059 0.0290303 0.
0.686059 0.0290294 0.
0.688059 0.0290285 0.
0.690059 0.0290286 0.
0.692059 0.0290295 0.
0.694058 0.0290304 0.
0.696059 0.0290306 0.
0.69806 0.0290306 0.
0.49994 0.0310296 0.
0.50194 0.0310296 0.
0.50394 0.0310296 0.
0.505939 0.0310295 0.
0.50794 0.0310293 0.
0.50994 0.0310291 0.
0.511941 0.031029 0.
0.513942 0.0310293 0.
0.515943 0.0310296 0.
0.517944 0.0310294 0.
0.519944 0.031029 0.
0.521944 0.0310286 0.
0.523945 0.031029 0.
0.525945 0.0310295 0.
0.527945 0.03103 0.
0.529946 0.03103 0.
0.531947 0.03103 0.
0.533948 0.03103 0.
0.535949 0.0310302 0.
0.53795 0.0310304 0.
0.53995 0.0310307 0.
0.541951 0.0310311 0.
0.543951 0.0310315 0.
0.545952 0.0310312 0.
0.547952 0.0310306 0.
0.549953 0.03103 0.
0.551954 0.0310308 0.
0.553954 0.0310317 0.
0.555955 0.0310323 0.
0.557957 0.0310322 0.
0.559958 0.0310321 0.
0.561959 0.0310322 0.
0.563961 0.0310325 0.
0.565962 0.0310328 0.
0.567964 0.0310324 0.
0.569966 0.0310316 0.
0.571969 0.0310308 0.
0.573971 0.0310304 0.
0.575973 0.03103 0.
0.577975 0.0310296 0.
0.579977 0.0310285 0.
0.581979 0.0310274 0.
0.583982 0.0310261 0.
0.585984 0.0310245 0.
0.587986 0.0310229 0.
0.589988 0.0310217 0.
0.59199 0.0310208 0.
0.593992 0.0310199 0.
0.595995 0.0310195 0.
0.597998 0.0310194 0.
0.6 0.0310192 0.
0.602005 0.0310192 0.
0.604009 0.0310193 0.
0.606012 0.0310196 0.
0.608014 0.0310205 0.
0.610016 0.0310215 0.
0.612018 0.0310227 0.
0.61402 0.0310241 0.
0.616022 0.0310256 0.
0.618024 0.0310263 0.
0.620026 0.0310266 0.
0.622029 0.0310269 0.
0.624031 0.0310282 0.
0.626033 0.0310295 0.
0.628035 0.0310308 0.
0.630036 0.031032 0.
0.632038 0.0310333 0.
0.63404 0.0310343 0.
0.636041 0.0310349 0.
0.638043 0.0310355 0.
0.640044 0.0310358 0.
0.642045 0.0310357 0.
0.644046 0.0310356 0.
0.646047 0.0310354 0.
0.648048 0.0310352 0.
0.650049 0.031035 0.
0.65205 0.0310352 0.
0.654051 0.0310354 0.
0.656052 0.0310355 0.
0.658052 0.0310356 0.
0.660052 0.0310356 0.
0.662053 0.0310356 0.
0.664053 0.0310355 0.
0.666053 0.0310354 0.
0.668054 0.0310352 0.
0.670055 0.0310352 0.
0.672055 0.0310351 0.
0.674056 0.0310342 0.
0.676056 0.0310333 0.
0.678057 0.0310324 0.
0.680058 0.0310322 0.
0.682058 0.031032 0.
0.684058 0.0310316 0.
0.686058 0.0310308 0.
0.688058 0.03103 0.
0.690058 0.0310302 0.
0.692058 0.0310312 0.
0.694058 0.0310322 0.
0.696059 0.0310322 0.
0.698059 0.031032 0.
0.49994 0.0330307 0.
0.50194 0.0330309 0.
0.50394 0.0330312 0.
0.50594 0.0330314 0.
0.50794 0.033031 0.
0.509941 0.0330305 0.
0.511942 0.0330302 0.
0.513943 0.0330303 0.
0.515944 0.0330304 0.
0.517945 0.0330302 0.
0.519945 0.0330297 0.
0.521945 0.0330292 0.
0.523946 0.0330296 0.
0.525946 0.03303 0.
0.527947 0.0330304 0.
0.529948 0.0330304 0.
0.531949 0.0330303 0.
0.533949 0.0330304 0.
0.53595 0.0330311 0.
0.53795 0.0330318 0.
0.539951 0.033032 0.
0.541952 0.0330319 0.
0.543953 0.0330318 0.
0.545953 0.0330315 0.
0.547954 0.0330312 0.
0.549954 0.0330308 0.
0.551955 0.0330316 0.
0.553956 0.0330323 0.
0.555956 0.0330328 0.
0.557958 0.0330322 0.
0.559959 0.0330316 0.
0.561961 0.0330314 0.
0.563962 0.0330316 0.
0.565964 0.0330319 0.
0.567966 0.0330314 0.
0.569968 0.0330305 0.
0.57197 0.0330296 0.
0.573972 0.0330293 0.
0.575974 0.0330292 0.
0.577976 0.0330289 0.
0.579978 0.0330279 0.
0.581981 0.0330269 0.
0.583983 0.0330256 0.
0.585985 0.0330238 0.
0.587987 0.0330219 0.
0.589989 0.033021 0.
0.591991 0.0330208 0.
0.593993 0.0330207 0.
0.595995 0.03302 0.
0.597998 0.0330192 0.
0.6 0.0330184 0.
0.602004 0.0330189 0.
0.604008 0.0330193 0.
0.606012 0.0330198 0.
0.608013 0.0330205 0.
0.610015 0.0330211 0.
0.612017 0.0330221 0.
0.614019 0.0330235 0.
0.616021 0.0330249 0.
0.618023 0.0330257 0.
0.620025 0.0330262 0.
0.622027 0.0330266 0.
0.62403 0.0330277 0.
0.626032 0.0330288 0.
0.628034 0.03303 0.
0.630036 0.0330313 0.
0.632037 0.0330327 0.
0.634039 0.0330338 0.
0.63604 0.0330345 0.
0.638042 0.0330352 0.
0.640043 0.0330355 0.
0.642044 0.0330356 0.
0.644045 0.0330356 0.
0.646046 0.0330355 0.
0.648047 0.0330352 0.
0.650048 0.033035 0.
0.652049 0.0330353 0.
0.65405 0.0330356 0.
0.65605 0.0330359 0.
0.658051 0.033036 0.
0.660051 0.0330361 0.
0.662052 0.0330361 0.
0.664052 0.033036 0.
0.666053 0.0330359 0.
0.668053 0.0330356 0.
0.670054 0.0330353 0.
0.672054 0.0330349 0.
0.674055 0.0330346 0.
0.676056 0.0330343 0.
0.678056 0.033034 0.
0.680057 0.0330336 0.
0.682058 0.0330332 0.
0.684058 0.0330327 0.
0.686057 0.0330322 0.
0.688057 0.0330316 0.
0.690057 0.0330319 0.
0.692058 0.0330327 0.
0.694058 0.0330336 0.
0.696058 0.0330335 0.
0.698059 0.0330333 0.
0.49994 0.0350319 0.
0.50194 0.0350322 0.
0.50394 0.0350329 0.
0.505941 0.0350333 0.
0.507941 0.0350326 0.
0.509942 0.0350319 0.
0.511943 0.0350315 0.
0.513944 0.0350313 0.
0.515945 0.0350312 0.
0.517945 0.0350309 0.
0.519946 0.0350304 0.
0.521946 0.0350299 0.
0.523947 0.0350302 0.
0.525947 0.0350306 0.
0.527948 0.0350309 0.
0.529949 0.0350307 0.
0.53195 0.0350306 0.
0.53395 0.0350309 0.
0.535951 0.035032 0.
0.537951 0.0350331 0.
0.539952 0.0350333 0.
0.541953 0.0350327 0.
0.543954 0.0350321 0.
0.545955 0.0350318 0.
0.547955 0.0350317 0.
0.549956 0.0350316 0.
0.551956 0.0350323 0.
0.553957 0.035033 0.
0.555957 0.0350333 0.
0.557959 0.0350322 0.
0.55996 0.035031 0.
0.561962 0.0350305 0.
0.563964 0.0350308 0.
0.565966 0.035031 0.
0.567968 0.0350304 0.
0.56997 0.0350294 0.
0.571971 0.0350284 0.
0.573973 0.0350283 0.
0.575975 0.0350283 0.
0.577977 0.0350282 0.
0.579979 0.0350273 0.
0.581982 0.0350264 0.
0.583985 0.0350251 0.
0.585986 0.035023 0.
0.587988 0.035021 0.
0.58999 0.0350203 0.
0.591992 0.0350209 0.
0.593993 0.0350215 0.
0.595996 0.0350205 0.
0.597998 0.0350191 0.
0.6 0.0350177 0.
0.602004 0.0350185 0.
0.604008 0.0350194 0.
0.606011 0.0350201 0.
0.608013 0.0350204 0.
0.610014 0.0350207 0.
0.612016 0.0350215 0.
0.614019 0.0350229 0.
0.616021 0.0350243 0.
0.618023 0.0350251 0.
0.620024 0.0350257 0.
0.622026 0.0350264 0.
0.624028 0.0350272 0.
0.626031 0.0350281 0.
0.628033 0.0350291 0.
0.630035 0.0350306 0.
0.632036 0.0350321 0.
0.634038 0.0350333 0.
0.636039 0.0350341 0.
0.638041 0.0350349 0.
0.640042 0.0350353 0.
0.642042 0.0350355 0.
0.644043 0.0350356 0.
0.646045 0.0350355 0.
0.648046 0.0350352 0.
0.650048 0.035035 0.
0.652048 0.0350355 0.
0.654048 0.0350359 0.
0.656048 0.0350363 0.
0.658049 0.0350364 0.
0.66005 0.0350365 0.
0.662051 0.0350365 0.
0.664051 0.0350365 0.
0.666052 0.0350365 0.
0.668052 0.0350361 0.
0.670053 0.0350354 0.
0.672053 0.0350348 0.
0.674054 0.035035 0.
0.676055 0.0350353 0.
0.678056 0.0350355 0.
0.680056 0.0350349 0.
0.682057 0.0350344 0.
0.684057 0.0350339 0.
0.686057 0.0350336 0.
0.688056 0.0350333 0.
0.690056 0.0350336 0.
0.692057 0.0350343 0.
0.694058 0.035035 0.
0.696058 0.0350349 0.
0.698059 0.0350346 0.
0.499941 0.0370335 0.
0.501941 0.0370336 0.
0.503941 0.0370338 0.
0.505941 0.0370338 0.
0.507942 0.0370333 0.
0.509943 0.0370327 0.
0.511943 0.0370323 0.
0.513944 0.0370322 0.
0.515945 0.0370321 0.
0.517946 0.0370318 0.
0.519946 0.0370315 0.
0.521946 0.0370311 0.
0.523947 0.0370313 0.
0.525948 0.0370315 0.
0.527948 0.0370317 0.
0.529949 0.0370316 0.
0.53195 0.0370315 0.
0.53395 0.0370317 0.
0.535951 0.0370326 0.
0.537952 0.0370334 0.
0.539952 0.0370333 0.
0.541953 0.0370326 0.
0.543954 0.0370318 0.
0.545955 0.0370316 0.
0.547956 0.0370317 0.
0.549957 0.0370317 0.
0.551958 0.0370321 0.
0.553958 0.0370324 0.
0.555959 0.0370324 0.
0.55796 0.0370314 0.
0.559961 0.0370304 0.
0.561963 0.0370299 0.
0.563965 0.0370299 0.
0.565968 0.0370299 0.
0.56797 0.0370295 0.
0.569971 0.0370289 0.
0.571973 0.0370283 0.
0.573975 0.0370278 0.
0.575976 0.0370274 0.
0.577978 0.0370269 0.
0.579981 0.037026 0.
0.581983 0.0370252 0.
0.583985 0.0370241 0.
0.585987 0.0370227 0.
0.587989 0.0370212 0.
0.589991 0.0370206 0.
0.591992 0.0370207 0.
0.593994 0.0370207 0.
0.595997 0.0370201 0.
0.597999 0.0370192 0.
0.600001 0.0370183 0.
0.602004 0.0370187 0.
0.604007 0.037019 0.
0.60601 0.0370194 0.
0.608012 0.0370198 0.
0.610013 0.0370201 0.
0.612015 0.0370209 0.
0.614017 0.0370222 0.
0.616019 0.0370235 0.
0.618021 0.0370244 0.
0.620023 0.0370249 0.
0.622024 0.0370255 0.
0.624026 0.0370264 0.
0.626029 0.0370273 0.
0.628031 0.0370283 0.
0.630033 0.03703 0.
0.632035 0.0370318 0.
0.634037 0.0370331 0.
0.636038 0.0370337 0.
0.638039 0.0370342 0.
0.640041 0.0370347 0.
0.642042 0.037035 0.
0.644043 0.0370353 0.
0.646044 0.0370353 0.
0.648045 0.0370354 0.
0.650047 0.0370354 0.
0.652047 0.0370358 0.
0.654047 0.0370362 0.
0.656048 0.0370365 0.
0.658049 0.0370367 0.
0.66005 0.0370369 0.
0.66205 0.0370371 0.
0.664051 0.037037 0.
0.666052 0.037037 0.
0.668052 0.0370367 0.
0.670053 0.0370362 0.
0.672053 0.0370358 0.
0.674054 0.0370357 0.
0.676055 0.0370357 0.
0.678056 0.0370356 0.
0.680056 0.0370353 0.
0.682056 0.037035 0.
0.684057 0.0370348 0.
0.686056 0.0370348 0.
0.688056 0.0370348 0.
0.690056 0.037035 0.
0.692057 0.0370354 0.
0.694058 0.0370358 0.
0.696058 0.037036 0.
0.698059 0.0370362 0.
0.499942 0.0390352 0.
0.501942 0.039035 0.
0.503942 0.0390347 0.
0.505942 0.0390344 0.
0.507943 0.0390339 0.
0.509944 0.0390335 0.
0.511944 0.0390331 0.
0.513945 0.039033 0.
0.515946 0.0390329 0.
0.517946 0.0390328 0.
0.519946 0.0390326 0.
0.521947 0.0390324 0.
0.523947 0.0390324 0.
0.525948 0.0390324 0.
0.527948 0.0390324 0.
0.529949 0.0390325 0.
0.53195 0.0390325 0.
0.533951 0.0390326 0.
0.535951 0.0390331 0.
0.537952 0.0390336 0.
0.539952 0.0390333 0.
0.541953 0.0390324 0.
0.543954 0.0390315 0.
0.545955 0.0390315 0.
0.547956 0.0390317 0.
0.549958 0.0390319 0.
0.551959 0.0390319 0.
0.553959 0.0390318 0.
0.55596 0.0390316 0.
0.557961 0.0390307 0.
0.559963 0.0390299 0.
0.561964 0.0390293 0.
0.563967 0.039029 0.
0.565969 0.0390287 0.
0.567971 0.0390285 0.
0.569973 0.0390284 0.
0.571974 0.0390282 0.
0.573976 0.0390274 0.
0.575978 0.0390265 0.
0.577979 0.0390256 0.
0.579982 0.0390248 0.
0.581984 0.039024 0.
0.583986 0.0390232 0.
0.585988 0.0390223 0.
0.58799 0.0390215 0.
0.589991 0.0390209 0.
0.591993 0.0390204 0.
0.593995 0.03902 0.
0.595997 0.0390196 0.
0.598 0.0390193 0.
0.600002 0.0390189 0.
0.602004 0.0390188 0.
0.604007 0.0390187 0.
0.606009 0.0390187 0.
0.608011 0.0390191 0.
0.610012 0.0390195 0.
0.612014 0.0390203 0.
0.614016 0.0390215 0.
0.616018 0.0390228 0.
0.61802 0.0390236 0.
0.620021 0.0390241 0.
0.622022 0.0390247 0.
0.624024 0.0390255 0.
0.626027 0.0390264 0.
0.628029 0.0390274 0.
0.630031 0.0390294 0.
0.632034 0.0390314 0.
0.634036 0.0390328 0.
0.636037 0.0390332 0.
0.638038 0.0390336 0.
0.640039 0.039034 0.
0.642041 0.0390345 0.
0.644042 0.0390349 0.
0.646043 0.0390352 0.
0.648045 0.0390355 0.
0.650046 0.0390358 0.
0.652046 0.0390361 0.
0.654047 0.0390364 0.
0.656047 0.0390367 0.
0.658048 0.0390371 0.
0.660049 0.0390374 0.
0.66205 0.0390376 0.
0.664051 0.0390375 0.
0.666051 0.0390375 0.
0.668052 0.0390373 0.
0.670052 0.039037 0.
0.672053 0.0390367 0.
0.674054 0.0390364 0.
0.676055 0.0390361 0.
0.678055 0.0390358 0.
0.680056 0.0390357 0.
0.682056 0.0390357 0.
0.684056 0.0390358 0.
0.686056 0.0390361 0.
0.688056 0.0390364 0.
0.690056 0.0390365 0.
0.692057 0.0390366 0.
0.694057 0.0390367 0.
0.696058 0.0390372 0.
0.698059 0.0390378 0.
0.499943 0.0410365 0.
0.501943 0.041036 0.
0.503943 0.0410354 0.
0.505943 0.0410349 0.
0.507944 0.0410345 0.
0.509945 0.0410341 0.
0.511945 0.0410339 0.
0.513946 0.0410338 0.
0.515946 0.0410338 0.
0.517947 0.0410337 0.
0.519947 0.0410337 0.
0.521947 0.0410336 0.
0.523948 0.0410335 0.
0.525948 0.0410334 0.
0.527949 0.0410332 0.
0.529949 0.0410332 0.
0.53195 0.0410331 0.
0.533951 0.0410332 0.
0.535952 0.0410334 0.
0.537952 0.0410337 0.
0.539953 0.0410334 0.
0.541953 0.0410327 0.
0.543954 0.041032 0.
0.545955 0.0410319 0.
0.547957 0.041032 0.
0.549958 0.0410322 0.
0.551959 0.0410318 0.
0.55396 0.0410314 0.
0.555962 0.041031 0.
0.557963 0.0410303 0.
0.559964 0.0410297 0.
0.561966 0.041029 0.
0.563968 0.0410284 0.
0.56597 0.0410278 0.
0.567972 0.0410277 0.
0.569974 0.0410278 0.
0.571975 0.0410278 0.
0.573977 0.041027 0.
0.575979 0.0410261 0.
0.577981 0.0410251 0.
0.579983 0.0410241 0.
0.581985 0.0410232 0.
0.583987 0.0410225 0.
0.585988 0.041022 0.
0.58799 0.0410216 0.
0.589992 0.041021 0.
0.591994 0.0410203 0.
0.593996 0.0410195 0.
0.595998 0.0410193 0.
0.598 0.0410192 0.
0.600002 0.0410191 0.
0.602004 0.0410188 0.
0.604006 0.0410185 0.
0.606008 0.0410184 0.
0.60801 0.0410189 0.
0.610012 0.0410194 0.
0.612013 0.0410201 0.
0.614015 0.0410212 0.
0.616017 0.0410222 0.
0.618019 0.041023 0.
0.62002 0.0410236 0.
0.622021 0.0410242 0.
0.624023 0.0410251 0.
0.626025 0.041026 0.
0.628028 0.0410271 0.
0.63003 0.041029 0.
0.632032 0.0410308 0.
0.634035 0.0410322 0.
0.636036 0.0410325 0.
0.638037 0.0410329 0.
0.640038 0.0410334 0.
0.64204 0.041034 0.
0.644041 0.0410346 0.
0.646042 0.0410351 0.
0.648044 0.0410356 0.
0.650045 0.0410361 0.
0.652046 0.0410364 0.
0.654046 0.0410366 0.
0.656047 0.0410369 0.
0.658048 0.0410373 0.
0.660048 0.0410377 0.
0.662049 0.0410378 0.
0.66405 0.0410378 0.
0.66605 0.0410378 0.
0.668051 0.0410378 0.
0.670052 0.0410378 0.
0.672052 0.0410378 0.
0.674053 0.0410373 0.
0.676054 0.0410367 0.
0.678055 0.0410362 0.
0.680055 0.0410363 0.
0.682055 0.0410364 0.
0.684055 0.0410367 0.
0.686055 0.0410371 0.
0.688056 0.0410375 0.
0.690056 0.0410376 0.
0.692056 0.0410376 0.
0.694056 0.0410376 0.
0.696057 0.0410384 0.
0.698058 0.0410395 0.
0.499944 0.0430373 0.
0.501944 0.0430366 0.
0.503944 0.0430359 0.
0.505945 0.0430353 0.
0.507945 0.043035 0.
0.509946 0.0430347 0.
0.511947 0.0430345 0.
0.513947 0.0430346 0.
0.515948 0.0430346 0.
0.517948 0.0430347 0.
0.519948 0.0430347 0.
0.521948 0.0430348 0.
0.523949 0.0430346 0.
0.525949 0.0430343 0.
0.527949 0.0430341 0.
0.52995 0.0430338 0.
0.531951 0.0430335 0.
0.533951 0.0430334 0.
0.535952 0.0430335 0.
0.537953 0.0430336 0.
0.539953 0.0430336 0.
0.541954 0.0430334 0.
0.543955 0.0430332 0.
0.545956 0.043033 0.
0.547957 0.0430328 0.
0.549958 0.0430325 0.
0.551959 0.0430319 0.
0.553961 0.0430312 0.
0.555963 0.0430306 0.
0.557964 0.0430302 0.
0.559966 0.0430299 0.
0.561967 0.0430292 0.
0.563969 0.0430282 0.
0.56597 0.0430272 0.
0.567972 0.0430269 0.
0.569974 0.043027 0.
0.571976 0.0430271 0.
0.573978 0.0430267 0.
0.57598 0.0430261 0.
0.577982 0.0430254 0.
0.579984 0.0430242 0.
0.581986 0.0430229 0.
0.583987 0.043022 0.
0.585989 0.0430218 0.
0.587991 0.0430216 0.
0.589992 0.0430211 0.
0.591994 0.0430203 0.
0.593996 0.0430194 0.
0.595998 0.0430191 0.
0.597999 0.043019 0.
0.600001 0.0430188 0.
0.602004 0.0430187 0.
0.604006 0.0430185 0.
0.606008 0.0430185 0.
0.60801 0.0430192 0.
0.610011 0.0430198 0.
0.612013 0.0430205 0.
0.614014 0.0430212 0.
0.616016 0.0430219 0.
0.618018 0.0430226 0.
0.620019 0.0430234 0.
0.622021 0.0430241 0.
0.624023 0.0430251 0.
0.626025 0.0430261 0.
0.628027 0.0430272 0.
0.630029 0.0430286 0.
0.632031 0.04303 0.
0.634033 0.0430311 0.
0.636035 0.0430316 0.
0.638036 0.0430321 0.
0.640038 0.0430327 0.
0.642039 0.0430335 0.
0.64404 0.0430342 0.
0.646041 0.043035 0.
0.648043 0.0430357 0.
0.650044 0.0430364 0.
0.652045 0.0430367 0.
0.654046 0.0430369 0.
0.656046 0.0430372 0.
0.658047 0.0430375 0.
0.660047 0.0430377 0.
0.662048 0.0430379 0.
0.664048 0.043038 0.
0.666049 0.043038 0.
0.66805 0.0430383 0.
0.67005 0.0430386 0.
0.672051 0.0430389 0.
0.674052 0.0430383 0.
0.676053 0.0430376 0.
0.678053 0.043037 0.
0.680054 0.0430371 0.
0.682054 0.0430373 0.
0.684054 0.0430375 0.
0.686054 0.0430379 0.
0.688055 0.0430382 0.
0.690055 0.0430384 0.
0.692055 0.0430385 0.
0.694055 0.0430386 0.
0.696055 0.0430397 0.
0.698055 0.0430412 0.
0.499946 0.0450381 0.
0.501946 0.0450372 0.
0.503946 0.0450364 0.
0.505946 0.0450358 0.
0.507947 0.0450355 0.
0.509947 0.0450353 0.
0.511948 0.0450352 0.
0.513948 0.0450353 0.
0.515949 0.0450355 0.
0.517949 0.0450356 0.
0.519949 0.0450358 0.
0.521949 0.0450359 0.
0.523949 0.0450356 0.
0.52595 0.0450353 0.
0.52795 0.0450349 0.
0.529951 0.0450344 0.
0.531951 0.0450339 0.
0.533952 0.0450336 0.
0.535953 0.0450336 0.
0.537953 0.0450335 0.
0.539954 0.0450337 0.
0.541955 0.0450341 0.
0.543956 0.0450344 0.
0.545956 0.0450341 0.
0.547957 0.0450334 0.
0.549957 0.0450328 0.
0.55196 0.0450319 0.
0.553962 0.045031 0.
0.555964 0.0450302 0.
0.557966 0.0450301 0.
0.559968 0.0450301 0.
0.561969 0.0450294 0.
0.56397 0.045028 0.
0.565971 0.0450266 0.
0.567972 0.0450262 0.
0.569974 0.0450263 0.
0.571976 0.0450265 0.
0.573978 0.0450263 0.
0.575981 0.0450261 0.
0.577984 0.0450258 0.
0.579985 0.0450242 0.
0.581986 0.0450226 0.
0.583988 0.0450215 0.
0.58599 0.0450216 0.
0.587991 0.0450216 0.
0.589993 0.0450212 0.
0.591994 0.0450203 0.
0.593996 0.0450194 0.
0.595997 0.045019 0.
0.597999 0.0450188 0.
0.600001 0.0450186 0.
0.602003 0.0450185 0.
0.604006 0.0450185 0.
0.606008 0.0450187 0.
0.608009 0.0450195 0.
0.610011 0.0450203 0.
0.612012 0.0450208 0.
0.614014 0.0450212 0.
0.616015 0.0450215 0.
0.618017 0.0450222 0.
0.620019 0.0450231 0.
0.622021 0.045024 0.
0.624023 0.0450251 0.
0.626025 0.0450262 0.
0.628026 0.0450272 0.
0.630028 0.0450282 0.
0.63203 0.0450292 0.
0.634032 0.0450301 0.
0.636034 0.0450307 0.
0.638036 0.0450313 0.
0.640037 0.0450321 0.
0.642038 0.045033 0.
0.644039 0.0450339 0.
0.64604 0.0450348 0.
0.648042 0.0450358 0.
0.650043 0.0450367 0.
0.652044 0.0450369 0.
0.654045 0.0450372 0.
0.656046 0.0450374 0.
0.658046 0.0450376 0.
0.660046 0.0450378 0.
0.662047 0.045038 0.
0.664047 0.0450381 0.
0.666047 0.0450382 0.
0.668048 0.0450387 0.
0.670049 0.0450394 0.
0.67205 0.04504 0.
0.674051 0.0450393 0.
0.676051 0.0450384 0.
0.678052 0.0450377 0.
0.680052 0.045038 0.
0.682053 0.0450382 0.
0.684053 0.0450384 0.
0.686053 0.0450386 0.
0.688054 0.0450389 0.
0.690054 0.0450391 0.
0.692054 0.0450393 0.
0.694054 0.0450396 0.
0.696053 0.045041 0.
0.698053 0.0450428 0.
0.499946 0.0470391 0.
0.501947 0.0470381 0.
0.503947 0.0470373 0.
0.505947 0.0470366 0.
0.507948 0.0470363 0.
0.509948 0.047036 0.
0.511948 0.0470359 0.
0.513949 0.0470359 0.
0.515949 0.047036 0.
0.51795 0.0470359 0.
0.51995 0.0470359 0.
0.52195 0.0470358 0.
0.523951 0.0470355 0.
0.525951 0.0470352 0.
0.527952 0.0470349 0.
0.529952 0.0470345 0.
0.531953 0.047034 0.
0.533954 0.0470336 0.
0.535954 0.0470335 0.
0.537955 0.0470334 0.
0.539956 0.0470335 0.
0.541957 0.0470337 0.
0.543958 0.0470339 0.
0.545958 0.0470335 0.
0.547959 0.047033 0.
0.549959 0.0470324 0.
0.551961 0.0470313 0.
0.553962 0.0470302 0.
0.555964 0.0470293 0.
0.557966 0.0470292 0.
0.559968 0.047029 0.
0.561969 0.0470284 0.
0.56397 0.0470274 0.
0.565971 0.0470264 0.
0.567973 0.0470259 0.
0.569975 0.0470256 0.
0.571977 0.0470253 0.
0.573979 0.0470252 0.
0.575981 0.047025 0.
0.577984 0.0470248 0.
0.579985 0.0470236 0.
0.581986 0.0470223 0.
0.583988 0.0470214 0.
0.58599 0.0470211 0.
0.587991 0.0470209 0.
0.589993 0.0470204 0.
0.591994 0.0470198 0.
0.593996 0.0470191 0.
0.595998 0.0470188 0.
0.597999 0.0470186 0.
0.600001 0.0470183 0.
0.602004 0.0470185 0.
0.604006 0.0470186 0.
0.606008 0.0470189 0.
0.608009 0.0470195 0.
0.610011 0.0470201 0.
0.612012 0.0470206 0.
0.614013 0.047021 0.
0.616014 0.0470214 0.
0.618016 0.0470221 0.
0.620018 0.047023 0.
0.62202 0.0470238 0.
0.624022 0.0470246 0.
0.626024 0.0470254 0.
0.628026 0.0470262 0.
0.630028 0.0470272 0.
0.632029 0.0470282 0.
0.634031 0.0470292 0.
0.636033 0.0470302 0.
0.638034 0.0470312 0.
0.640036 0.0470322 0.
0.642037 0.0470331 0.
0.644038 0.0470341 0.
0.646039 0.0470348 0.
0.64804 0.0470354 0.
0.650042 0.047036 0.
0.652043 0.0470364 0.
0.654044 0.0470367 0.
0.656045 0.0470372 0.
0.658045 0.0470379 0.
0.660045 0.0470385 0.
0.662046 0.0470388 0.
0.664046 0.0470388 0.
0.666047 0.0470387 0.
0.668047 0.047039 0.
0.670048 0.0470396 0.
0.672049 0.0470402 0.
0.67405 0.0470398 0.
0.67605 0.0470394 0.
0.678051 0.047039 0.
0.680051 0.0470391 0.
0.682051 0.0470392 0.
0.684051 0.0470394 0.
0.686052 0.0470394 0.
0.688052 0.0470395 0.
0.690053 0.0470398 0.
0.692053 0.0470403 0.
0.694052 0.0470407 0.
0.696053 0.047042 0.
0.698053 0.0470434 0.
0.499947 0.0490402 0.
0.501948 0.049039 0.
0.503948 0.0490381 0.
0.505948 0.0490373 0.
0.507948 0.049037 0.
0.509949 0.0490368 0.
0.511949 0.0490366 0.
0.513949 0.0490365 0.
0.51595 0.0490365 0.
0.51795 0.0490363 0.
0.519951 0.049036 0.
0.521951 0.0490357 0.
0.523952 0.0490355 0.
0.525953 0.0490352 0.
0.527954 0.049035 0.
0.529954 0.0490345 0.
0.531955 0.0490341 0.
0.533955 0.0490337 0.
0.535956 0.0490335 0.
0.537956 0.0490333 0.
0.539957 0.0490332 0.
0.541958 0.0490333 0.
0.543959 0.0490334 0.
0.54596 0.049033 0.
0.54796 0.0490325 0.
0.54996 0.049032 0.
0.551962 0.0490307 0.
0.553963 0.0490295 0.
0.555965 0.0490284 0.
0.557966 0.0490282 0.
0.559968 0.0490279 0.
0.56197 0.0490275 0.
0.563971 0.0490269 0.
0.565972 0.0490263 0.
0.567974 0.0490256 0.
0.569976 0.0490249 0.
0.571978 0.0490242 0.
0.57398 0.049024 0.
0.575982 0.0490239 0.
0.577984 0.0490238 0.
0.579985 0.0490229 0.
0.581986 0.049022 0.
0.583988 0.0490213 0.
0.585989 0.0490207 0.
0.587991 0.0490201 0.
0.589993 0.0490196 0.
0.591994 0.0490193 0.
0.593996 0.0490189 0.
0.595998 0.0490186 0.
0.598 0.0490184 0.
0.600002 0.0490181 0.
0.602004 0.0490184 0.
0.604006 0.0490187 0.
0.606008 0.049019 0.
0.608009 0.0490195 0.
0.61001 0.0490199 0.
0.612011 0.0490204 0.
0.614013 0.0490208 0.
0.616014 0.0490212 0.
0.618016 0.0490219 0.
0.620018 0.0490228 0.
0.62202 0.0490236 0.
0.624022 0.0490242 0.
0.626024 0.0490247 0.
0.628026 0.0490252 0.
0.630028 0.0490262 0.
0.632029 0.0490271 0.
0.63403 0.0490282 0.
0.636031 0.0490296 0.
0.638033 0.049031 0.
0.640034 0.0490322 0.
0.642035 0.0490332 0.
0.644036 0.0490342 0.
0.646038 0.0490347 0.
0.648039 0.049035 0.
0.650041 0.0490353 0.
0.652042 0.0490358 0.
0.654042 0.0490363 0.
0.656043 0.049037 0.
0.658044 0.0490381 0.
0.660044 0.0490392 0.
0.662045 0.0490397 0.
0.664046 0.0490394 0.
0.666046 0.0490391 0.
0.668047 0.0490393 0.
0.670048 0.0490399 0.
0.672048 0.0490404 0.
0.674049 0.0490404 0.
0.676049 0.0490403 0.
0.67805 0.0490402 0.
0.68005 0.0490403 0.
0.68205 0.0490403 0.
0.68405 0.0490403 0.
0.68605 0.0490402 0.
0.688051 0.0490402 0.
0.690051 0.0490406 0.
0.692051 0.0490412 0.
0.694051 0.0490419 0.
0.696052 0.0490429 0.
0.698053 0.049044 0.
0.499948 0.0510407 0.
0.501948 0.0510398 0.
0.503948 0.0510391 0.
0.505949 0.0510386 0.
0.507949 0.0510381 0.
0.509949 0.0510376 0.
0.51195 0.0510372 0.
0.51395 0.0510371 0.
0.51595 0.0510369 0.
0.517951 0.0510366 0.
0.519951 0.0510362 0.
0.521952 0.0510357 0.
0.523953 0.0510355 0.
0.525954 0.0510353 0.
0.527954 0.0510351 0.
0.529955 0.0510347 0.
0.531956 0.0510344 0.
0.533957 0.0510341 0.
0.535957 0.0510338 0.
0.537957 0.0510335 0.
0.539958 0.0510334 0.
0.541959 0.0510334 0.
0.54396 0.0510333 0.
0.545961 0.051033 0.
0.547961 0.0510324 0.
0.549962 0.0510319 0.
0.551963 0.0510306 0.
0.553964 0.0510293 0.
0.555965 0.0510282 0.
0.557967 0.0510279 0.
0.559968 0.0510276 0.
0.56197 0.0510272 0.
0.563971 0.0510267 0.
0.565973 0.0510261 0.
0.567974 0.0510254 0.
0.569976 0.0510245 0.
0.571978 0.0510237 0.
0.57398 0.0510233 0.
0.575982 0.051023 0.
0.577984 0.0510227 0.
0.579985 0.0510222 0.
0.581986 0.0510217 0.
0.583988 0.0510211 0.
0.585989 0.0510203 0.
0.587991 0.0510195 0.
0.589993 0.051019 0.
0.591994 0.0510188 0.
0.593996 0.0510187 0.
0.595998 0.0510184 0.
0.598 0.0510181 0.
0.600002 0.0510178 0.
0.602004 0.0510182 0.
0.604006 0.0510185 0.
0.606008 0.0510189 0.
0.608009 0.0510194 0.
0.61001 0.0510199 0.
0.612011 0.0510204 0.
0.614013 0.0510207 0.
0.616014 0.051021 0.
0.618016 0.0510216 0.
0.620018 0.0510224 0.
0.622019 0.0510233 0.
0.624022 0.0510238 0.
0.626024 0.0510243 0.
0.628026 0.0510249 0.
0.630027 0.0510257 0.
0.632028 0.0510265 0.
0.634029 0.0510277 0.
0.636031 0.0510295 0.
0.638032 0.0510313 0.
0.640033 0.0510325 0.
0.642034 0.0510333 0.
0.644035 0.051034 0.
0.646037 0.0510344 0.
0.648039 0.0510347 0.
0.65004 0.0510351 0.
0.652041 0.0510358 0.
0.654041 0.0510365 0.
0.656042 0.0510373 0.
0.658043 0.0510385 0.
0.660044 0.0510396 0.
0.662044 0.0510401 0.
0.664045 0.0510398 0.
0.666046 0.0510396 0.
0.668046 0.0510398 0.
0.670047 0.0510402 0.
0.672047 0.0510406 0.
0.674048 0.0510409 0.
0.676048 0.0510411 0.
0.678049 0.0510413 0.
0.680049 0.0510413 0.
0.682049 0.0510412 0.
0.684049 0.0510411 0.
0.686049 0.0510412 0.
0.688049 0.0510412 0.
0.69005 0.0510416 0.
0.69205 0.0510422 0.
0.69405 0.0510428 0.
0.696051 0.0510437 0.
0.698052 0.0510447 0.
0.49995 0.0530408 0.
0.501949 0.0530404 0.
0.503949 0.0530404 0.
0.505949 0.0530402 0.
0.507949 0.0530394 0.
0.509949 0.0530385 0.
0.51195 0.0530379 0.
0.51395 0.0530376 0.
0.515951 0.0530373 0.
0.517951 0.0530369 0.
0.519952 0.0530364 0.
0.521953 0.0530359 0.
0.523954 0.0530357 0.
0.525954 0.0530354 0.
0.527954 0.0530352 0.
0.529955 0.0530351 0.
0.531956 0.053035 0.
0.533957 0.0530348 0.
0.535957 0.0530344 0.
0.537958 0.053034 0.
0.539959 0.0530339 0.
0.541959 0.0530338 0.
0.54396 0.0530338 0.
0.545961 0.0530334 0.
0.547962 0.0530328 0.
0.549963 0.0530322 0.
0.551964 0.0530309 0.
0.553965 0.0530296 0.
0.555966 0.0530285 0.
0.557968 0.0530283 0.
0.559969 0.053028 0.
0.56197 0.0530275 0.
0.563972 0.0530268 0.
0.565973 0.0530261 0.
0.567974 0.0530253 0.
0.569976 0.0530246 0.
0.571978 0.0530238 0.
0.573979 0.053023 0.
0.575981 0.0530222 0.
0.577983 0.0530215 0.
0.579985 0.0530214 0.
0.581986 0.0530213 0.
0.583988 0.053021 0.
0.585989 0.05302 0.
0.587991 0.053019 0.
0.589992 0.0530186 0.
0.591994 0.0530185 0.
0.593996 0.0530184 0.
0.595998 0.0530182 0.
0.597999 0.0530178 0.
0.600001 0.0530175 0.
0.602003 0.0530177 0.
0.604005 0.053018 0.
0.606007 0.0530184 0.
0.608009 0.0530192 0.
0.61001 0.0530201 0.
0.612012 0.0530206 0.
0.614013 0.0530207 0.
0.616015 0.0530207 0.
0.618016 0.0530212 0.
0.620018 0.053022 0.
0.622019 0.0530227 0.
0.624021 0.0530235 0.
0.626023 0.0530243 0.
0.628025 0.053025 0.
0.630026 0.0530256 0.
0.632027 0.0530263 0.
0.634029 0.0530275 0.
0.63603 0.0530297 0.
0.638032 0.053032 0.
0.640033 0.0530331 0.
0.642034 0.0530333 0.
0.644035 0.0530335 0.
0.646037 0.0530341 0.
0.648038 0.0530347 0.
0.65004 0.0530353 0.
0.65204 0.0530363 0.
0.654041 0.0530373 0.
0.656041 0.0530382 0.
0.658042 0.0530389 0.
0.660043 0.0530396 0.
0.662044 0.05304 0.
0.664045 0.0530401 0.
0.666045 0.0530403 0.
0.668045 0.0530405 0.
0.670046 0.0530406 0.
0.672046 0.0530408 0.
0.674047 0.0530414 0.
0.676047 0.0530419 0.
0.678048 0.0530423 0.
0.680048 0.0530421 0.
0.682048 0.0530419 0.
0.684048 0.0530419 0.
0.686048 0.0530422 0.
0.688048 0.0530425 0.
0.690048 0.0530429 0.
0.692048 0.0530432 0.
0.694049 0.0530435 0.
0.69605 0.0530444 0.
0.698051 0.0530455 0.
0.499951 0.0550408 0.
0.50195 0.0550411 0.
0.50395 0.0550417 0.
0.505949 0.0550419 0.
0.507949 0.0550407 0.
0.50995 0.0550394 0.
0.51195 0.0550385 0.
0.513951 0.0550381 0.
0.515951 0.0550376 0.
0.517952 0.0550372 0.
0.519953 0.0550366 0.
0.521954 0.0550361 0.
0.523954 0.0550358 0.
0.525954 0.0550356 0.
0.527955 0.0550354 0.
0.529955 0.0550355 0.
0.531956 0.0550356 0.
0.533957 0.0550355 0.
0.535958 0.0550351 0.
0.537959 0.0550346 0.
0.539959 0.0550343 0.
0.54196 0.0550343 0.
0.54396 0.0550342 0.
0.545961 0.0550338 0.
0.547962 0.0550331 0.
0.549963 0.0550325 0.
0.551965 0.0550312 0.
0.553966 0.0550299 0.
0.555967 0.0550289 0.
0.557968 0.0550286 0.
0.55997 0.0550284 0.
0.561971 0.0550278 0.
0.563972 0.0550269 0.
0.565973 0.0550261 0.
0.567974 0.0550253 0.
0.569976 0.0550246 0.
0.571977 0.0550239 0.
0.573979 0.0550227 0.
0.575981 0.0550214 0.
0.577983 0.0550203 0.
0.579985 0.0550206 0.
0.581986 0.055021 0.
0.583987 0.0550208 0.
0.585989 0.0550197 0.
0.58799 0.0550186 0.
0.589992 0.0550181 0.
0.591994 0.0550182 0.
0.593996 0.0550182 0.
0.595997 0.0550179 0.
0.597999 0.0550175 0.
0.6 0.0550171 0.
0.602003 0.0550173 0.
0.604005 0.0550175 0.
0.606007 0.055018 0.
0.608008 0.0550191 0.
0.61001 0.0550202 0.
0.612012 0.0550207 0.
0.614014 0.0550206 0.
0.616015 0.0550205 0.
0.618017 0.0550209 0.
0.620018 0.0550215 0.
0.622019 0.0550221 0.
0.624021 0.0550232 0.
0.626023 0.0550242 0.
0.628025 0.0550252 0.
0.630026 0.0550256 0.
0.632027 0.055026 0.
0.634028 0.0550273 0.
0.63603 0.0550299 0.
0.638031 0.0550326 0.
0.640032 0.0550335 0.
0.642034 0.0550333 0.
0.644035 0.055033 0.
0.646036 0.0550337 0.
0.648038 0.0550346 0.
0.65004 0.0550356 0.
0.65204 0.0550368 0.
0.65404 0.0550381 0.
0.656041 0.0550391 0.
0.658042 0.0550393 0.
0.660043 0.0550395 0.
0.662044 0.0550399 0.
0.664044 0.0550404 0.
0.666044 0.0550409 0.
0.668045 0.0550411 0.
0.670045 0.0550411 0.
0.672045 0.0550411 0.
0.674046 0.0550419 0.
0.676046 0.0550427 0.
0.678047 0.0550433 0.
0.680047 0.055043 0.
0.682047 0.0550427 0.
0.684047 0.0550427 0.
0.686047 0.0550433 0.
0.688047 0.0550438 0.
0.690047 0.0550441 0.
0.692047 0.0550441 0.
0.694047 0.0550442 0.
0.696048 0.0550451 0.
0.698049 0.0550462 0.
0.49995 0.0570413 0.
0.50195 0.0570414 0.
0.50395 0.0570417 0.
0.50595 0.0570417 0.
0.50795 0.0570407 0.
0.509951 0.0570396 0.
0.511951 0.0570388 0.
0.513951 0.0570384 0.
0.515951 0.0570381 0.
0.517952 0.0570375 0.
0.519953 0.0570367 0.
0.521954 0.057036 0.
0.523954 0.0570358 0.
0.525955 0.0570357 0.
0.527955 0.0570357 0.
0.529956 0.0570358 0.
0.531956 0.057036 0.
0.533957 0.0570359 0.
0.535958 0.0570353 0.
0.537959 0.0570347 0.
0.539959 0.0570343 0.
0.54196 0.0570339 0.
0.54396 0.0570336 0.
0.545962 0.0570331 0.
0.547963 0.0570325 0.
0.549964 0.0570319 0.
0.551965 0.0570306 0.
0.553966 0.0570293 0.
0.555967 0.0570283 0.
0.557969 0.0570282 0.
0.55997 0.0570282 0.
0.561971 0.0570277 0.
0.563972 0.0570268 0.
0.565974 0.0570258 0.
0.567975 0.0570249 0.
0.569976 0.0570241 0.
0.571978 0.0570232 0.
0.573979 0.0570221 0.
0.575981 0.057021 0.
0.577983 0.05702 0.
0.579984 0.0570202 0.
0.581986 0.0570205 0.
0.583987 0.0570203 0.
0.585988 0.0570195 0.
0.58799 0.0570186 0.
0.589992 0.0570181 0.
0.591993 0.057018 0.
0.593995 0.0570179 0.
0.595997 0.0570175 0.
0.597999 0.0570171 0.
0.6 0.0570167 0.
0.602003 0.057017 0.
0.604005 0.0570173 0.
0.606007 0.0570177 0.
0.608008 0.0570183 0.
0.61001 0.057019 0.
0.612012 0.0570195 0.
0.614013 0.0570199 0.
0.616015 0.0570203 0.
0.618017 0.0570209 0.
0.620018 0.0570215 0.
0.622019 0.0570221 0.
0.624021 0.057023 0.
0.626023 0.057024 0.
0.628024 0.057025 0.
0.630025 0.0570257 0.
0.632026 0.0570263 0.
0.634027 0.0570274 0.
0.636029 0.0570294 0.
0.63803 0.0570314 0.
0.640032 0.0570324 0.
0.642033 0.0570325 0.
0.644035 0.0570327 0.
0.646036 0.0570334 0.
0.648037 0.0570343 0.
0.650038 0.0570351 0.
0.652039 0.0570365 0.
0.654039 0.0570378 0.
0.65604 0.0570389 0.
0.65804 0.0570392 0.
0.660041 0.0570395 0.
0.662042 0.05704 0.
0.664043 0.0570406 0.
0.666044 0.0570413 0.
0.668044 0.0570417 0.
0.670045 0.0570418 0.
0.672045 0.057042 0.
0.674045 0.0570425 0.
0.676046 0.0570431 0.
0.678046 0.0570436 0.
0.680046 0.0570436 0.
0.682046 0.0570436 0.
0.684046 0.0570437 0.
0.686046 0.0570439 0.
0.688046 0.0570441 0.
0.690046 0.0570443 0.
0.692046 0.0570445 0.
0.694047 0.0570446 0.
0.696047 0.0570457 0.
0.698048 0.0570469 0.
0.499949 0.0590417 0.
0.501949 0.0590417 0.
0.50395 0.0590417 0.
0.50595 0.0590416 0.
0.507951 0.0590406 0.
0.509952 0.0590397 0.
0.511952 0.0590391 0.
0.513952 0.0590388 0.
0.515952 0.0590386 0.
0.517952 0.0590378 0.
0.519953 0.0590368 0.
0.521953 0.0590358 0.
0.523954 0.0590358 0.
0.525955 0.0590359 0.
0.527955 0.059036 0.
0.529956 0.0590361 0.
0.531956 0.0590363 0.
0.533957 0.0590363 0.
0.535958 0.0590356 0.
0.537959 0.0590349 0.
0.539959 0.0590343 0.
0.54196 0.0590336 0.
0.54396 0.059033 0.
0.545962 0.0590324 0.
0.547963 0.0590319 0.
0.549965 0.0590314 0.
0.551966 0.05903 0.
0.553967 0.0590287 0.
0.555968 0.0590276 0.
0.557969 0.0590278 0.
0.55997 0.059028 0.
0.561972 0.0590276 0.
0.563973 0.0590266 0.
0.565974 0.0590255 0.
0.567975 0.0590245 0.
0.569977 0.0590235 0.
0.571978 0.0590225 0.
0.57398 0.0590216 0.
0.575981 0.0590206 0.
0.577983 0.0590197 0.
0.579984 0.0590198 0.
0.581985 0.05902 0.
0.583987 0.0590199 0.
0.585988 0.0590192 0.
0.587989 0.0590185 0.
0.589991 0.0590181 0.
0.591993 0.0590178 0.
0.593994 0.0590176 0.
0.595996 0.0590172 0.
0.597998 0.0590167 0.
0.6 0.0590163 0.
0.602003 0.0590167 0.
0.604005 0.0590171 0.
0.606007 0.0590174 0.
0.608008 0.0590176 0.
0.61001 0.0590177 0.
0.612011 0.0590182 0.
0.614013 0.0590192 0.
0.616015 0.0590202 0.
0.618017 0.0590209 0.
0.620018 0.0590214 0.
0.622019 0.059022 0.
0.624021 0.0590229 0.
0.626022 0.0590238 0.
0.628023 0.0590248 0.
0.630025 0.0590257 0.
0.632026 0.0590266 0.
0.634027 0.0590276 0.
0.636028 0.0590289 0.
0.63803 0.0590303 0.
0.640031 0.0590312 0.
0.642033 0.0590318 0.
0.644035 0.0590325 0.
0.646036 0.0590332 0.
0.648036 0.0590339 0.
0.650037 0.0590347 0.
0.652037 0.0590361 0.
0.654038 0.0590375 0.
0.656038 0.0590386 0.
0.658039 0.059039 0.
0.66004 0.0590394 0.
0.662041 0.05904 0.
0.664042 0.0590408 0.
0.666043 0.0590417 0.
0.668044 0.0590422 0.
0.670044 0.0590426 0.
0.672045 0.0590429 0.
0.674045 0.0590432 0.
0.676045 0.0590435 0.
0.678045 0.0590437 0.
0.680045 0.0590441 0.
0.682046 0.0590445 0.
0.684046 0.0590448 0.
0.686046 0.0590446 0.
0.688045 0.0590444 0.
0.690045 0.0590445 0.
0.692046 0.0590448 0.
0.694046 0.059045 0.
0.696047 0.0590462 0.
0.698047 0.0590475 0.
0.499949 0.0610426 0.
0.50195 0.0610423 0.
0.503951 0.061042 0.
0.505951 0.0610417 0.
0.507952 0.0610411 0.
0.509953 0.0610405 0.
0.511953 0.0610399 0.
0.513953 0.0610396 0.
0.515953 0.0610392 0.
0.517953 0.0610383 0.
0.519953 0.0610373 0.
0.521954 0.0610362 0.
0.523954 0.0610361 0.
0.525955 0.0610362 0.
0.527956 0.0610362 0.
0.529956 0.0610366 0.
0.531957 0.061037 0.
0.533957 0.061037 0.
0.535958 0.0610361 0.
0.537959 0.0610352 0.
0.53996 0.0610344 0.
0.54196 0.0610335 0.
0.543961 0.0610327 0.
0.545962 0.061032 0.
0.547964 0.0610313 0.
0.549965 0.0610307 0.
0.551966 0.0610297 0.
0.553967 0.0610286 0.
0.555968 0.0610277 0.
0.557969 0.0610278 0.
0.559971 0.0610278 0.
0.561972 0.0610273 0.
0.563973 0.0610262 0.
0.565974 0.0610251 0.
0.567975 0.0610241 0.
0.569977 0.0610231 0.
0.571978 0.0610221 0.
0.57398 0.0610213 0.
0.575981 0.0610206 0.
0.577983 0.0610198 0.
0.579984 0.0610197 0.
0.581985 0.0610195 0.
0.583986 0.0610193 0.
0.585988 0.0610188 0.
0.587989 0.0610183 0.
0.589991 0.0610179 0.
0.591993 0.0610176 0.
0.593994 0.0610173 0.
0.595996 0.0610169 0.
0.597998 0.0610164 0.
0.6 0.0610159 0.
0.602003 0.0610163 0.
0.604005 0.0610167 0.
0.606007 0.061017 0.
0.608008 0.0610171 0.
0.61001 0.0610171 0.
0.612011 0.0610176 0.
0.614013 0.0610187 0.
0.616015 0.0610198 0.
0.618016 0.0610206 0.
0.620018 0.0610213 0.
0.622019 0.061022 0.
0.62402 0.0610228 0.
0.626022 0.0610237 0.
0.628023 0.0610247 0.
0.630024 0.0610257 0.
0.632025 0.0610267 0.
0.634026 0.0610277 0.
0.636028 0.0610287 0.
0.638029 0.0610297 0.
0.640031 0.0610306 0.
0.642032 0.0610315 0.
0.644034 0.0610324 0.
0.646035 0.0610333 0.
0.648035 0.0610342 0.
0.650036 0.0610351 0.
0.652036 0.0610364 0.
0.654037 0.0610376 0.
0.656037 0.0610386 0.
0.658038 0.0610391 0.
0.660039 0.0610396 0.
0.66204 0.0610402 0.
0.664041 0.0610411 0.
0.666042 0.061042 0.
0.668043 0.0610425 0.
0.670043 0.061043 0.
0.672044 0.0610434 0.
0.674044 0.0610436 0.
0.676044 0.0610438 0.
0.678044 0.061044 0.
0.680044 0.0610446 0.
0.682045 0.0610452 0.
0.684045 0.0610455 0.
0.686045 0.0610452 0.
0.688045 0.0610448 0.
0.690045 0.0610449 0.
0.692045 0.0610453 0.
0.694046 0.0610458 0.
0.696046 0.061047 0.
0.698046 0.0610484 0.
0.499951 0.0630439 0.
0.501952 0.0630431 0.
0.503952 0.0630426 0.
0.505953 0.0630422 0.
0.507953 0.063042 0.
0.509954 0.0630417 0.
0.511954 0.0630413 0.
0.513954 0.0630406 0.
0.515955 0.0630399 0.
0.517955 0.063039 0.
0.519955 0.0630381 0.
0.521955 0.0630371 0.
0.523955 0.0630368 0.
0.525956 0.0630366 0.
0.527956 0.0630364 0.
0.529957 0.0630372 0.
0.531957 0.063038 0.
0.533958 0.0630381 0.
0.535959 0.0630369 0.
0.53796 0.0630356 0.
0.53996 0.0630346 0.
0.541961 0.0630337 0.
0.543962 0.0630328 0.
0.545963 0.0630318 0.
0.547963 0.0630309 0.
0.549964 0.0630299 0.
0.551965 0.0630295 0.
0.553967 0.063029 0.
0.555968 0.0630286 0.
0.557969 0.0630281 0.
0.55997 0.0630275 0.
0.561971 0.0630268 0.
0.563973 0.0630256 0.
0.565974 0.0630245 0.
0.567975 0.0630236 0.
0.569977 0.0630228 0.
0.571978 0.063022 0.
0.57398 0.0630215 0.
0.575981 0.0630209 0.
0.577982 0.0630203 0.
0.579984 0.0630198 0.
0.581985 0.0630192 0.
0.583987 0.0630187 0.
0.585988 0.0630182 0.
0.58799 0.0630178 0.
0.589991 0.0630175 0.
0.591993 0.0630173 0.
0.593994 0.0630171 0.
0.595996 0.0630166 0.
0.597998 0.063016 0.
0.6 0.0630154 0.
0.602002 0.0630158 0.
0.604004 0.0630161 0.
0.606006 0.0630164 0.
0.608008 0.0630167 0.
0.610009 0.063017 0.
0.612011 0.0630176 0.
0.614013 0.0630184 0.
0.616014 0.0630192 0.
0.618016 0.0630201 0.
0.620017 0.063021 0.
0.622018 0.063022 0.
0.62402 0.0630228 0.
0.626021 0.0630237 0.
0.628023 0.0630246 0.
0.630024 0.0630257 0.
0.632025 0.0630267 0.
0.634026 0.0630278 0.
0.636027 0.0630287 0.
0.638029 0.0630297 0.
0.64003 0.0630306 0.
0.642032 0.0630317 0.
0.644033 0.0630327 0.
0.646034 0.0630339 0.
0.648035 0.0630351 0.
0.650035 0.0630363 0.
0.652036 0.0630371 0.
0.654037 0.063038 0.
0.656038 0.0630388 0.
0.658038 0.0630393 0.
0.660038 0.0630399 0.
0.662039 0.0630406 0.
0.66404 0.0630414 0.
0.666041 0.0630422 0.
0.668041 0.0630427 0.
0.670042 0.063043 0.
0.672042 0.0630434 0.
0.674042 0.0630437 0.
0.676043 0.063044 0.
0.678043 0.0630443 0.
0.680043 0.063045 0.
0.682043 0.0630457 0.
0.684044 0.0630461 0.
0.686044 0.0630457 0.
0.688044 0.0630453 0.
0.690044 0.0630455 0.
0.692045 0.0630462 0.
0.694045 0.0630468 0.
0.696045 0.0630479 0.
0.698045 0.0630492 0.
0.499953 0.0650449 0.
0.501953 0.0650439 0.
0.503954 0.0650432 0.
0.505955 0.0650427 0.
0.507955 0.0650428 0.
0.509955 0.065043 0.
0.511955 0.0650426 0.
0.513956 0.0650416 0.
0.515956 0.0650406 0.
0.517956 0.0650397 0.
0.519956 0.0650389 0.
0.521956 0.065038 0.
0.523956 0.0650375 0.
0.525956 0.065037 0.
0.527956 0.0650367 0.
0.529957 0.0650378 0.
0.531958 0.0650389 0.
0.533959 0.0650392 0.
0.53596 0.0650376 0.
0.53796 0.065036 0.
0.539961 0.0650348 0.
0.541962 0.0650338 0.
0.543963 0.0650329 0.
0.545963 0.0650317 0.
0.547963 0.0650304 0.
0.549963 0.0650291 0.
0.551965 0.0650293 0.
0.553966 0.0650295 0.
0.555968 0.0650294 0.
0.557969 0.0650283 0.
0.55997 0.0650273 0.
0.561971 0.0650262 0.
0.563972 0.0650251 0.
0.565974 0.0650239 0.
0.567975 0.0650231 0.
0.569977 0.0650225 0.
0.571978 0.0650219 0.
0.57398 0.0650216 0.
0.575981 0.0650212 0.
0.577982 0.0650208 0.
0.579983 0.0650198 0.
0.581985 0.0650188 0.
0.583987 0.065018 0.
0.585989 0.0650177 0.
0.58799 0.0650173 0.
0.589992 0.0650171 0.
0.591993 0.065017 0.
0.593995 0.065017 0.
0.595996 0.0650164 0.
0.597998 0.0650157 0.
0.6 0.065015 0.
0.602002 0.0650152 0.
0.604004 0.0650155 0.
0.606006 0.0650158 0.
0.608007 0.0650164 0.
0.610009 0.065017 0.
0.612011 0.0650175 0.
0.614012 0.0650181 0.
0.616014 0.0650186 0.
0.618015 0.0650196 0.
0.620016 0.0650208 0.
0.622018 0.065022 0.
0.624019 0.0650228 0.
0.626021 0.0650236 0.
0.628023 0.0650245 0.
0.630024 0.0650256 0.
0.632025 0.0650267 0.
0.634026 0.0650278 0.
0.636027 0.0650287 0.
0.638028 0.0650296 0.
0.640029 0.0650307 0.
0.642031 0.0650318 0.
0.644032 0.0650329 0.
0.646033 0.0650344 0.
0.648034 0.0650359 0.
0.650034 0.0650374 0.
0.652036 0.0650379 0.
0.654037 0.0650384 0.
0.656038 0.0650389 0.
0.658038 0.0650396 0.
0.660038 0.0650402 0.
0.662038 0.0650409 0.
0.664039 0.0650417 0.
0.666039 0.0650424 0.
0.668039 0.0650428 0.
0.67004 0.0650431 0.
0.67204 0.0650434 0.
0.674041 0.0650438 0.
0.676041 0.0650442 0.
0.678042 0.0650447 0.
0.680042 0.0650455 0.
0.682042 0.0650462 0.
0.684043 0.0650466 0.
0.686043 0.0650462 0.
0.688044 0.0650458 0.
0.690044 0.0650461 0.
0.692044 0.065047 0.
0.694044 0.0650478 0.
0.696044 0.0650489 0.
0.698044 0.0650501 0.
0.499954 0.0670457 0.
0.501954 0.0670448 0.
0.503954 0.0670443 0.
0.505955 0.0670439 0.
0.507955 0.0670434 0.
0.509955 0.0670429 0.
0.511956 0.0670423 0.
0.513956 0.0670417 0.
0.515956 0.0670411 0.
0.517956 0.0670403 0.
0.519957 0.0670394 0.
0.521957 0.0670385 0.
0.523957 0.0670379 0.
0.525957 0.0670374 0.
0.527957 0.067037 0.
0.529958 0.0670378 0.
0.531958 0.0670385 0.
0.533959 0.0670385 0.
0.53596 0.067037 0.
0.537961 0.0670355 0.
0.539962 0.0670345 0.
0.541963 0.0670339 0.
0.543964 0.0670333 0.
0.545964 0.0670324 0.
0.547964 0.0670314 0.
0.549964 0.0670304 0.
0.551966 0.0670299 0.
0.553967 0.0670295 0.
0.555968 0.0670289 0.
0.557969 0.0670278 0.
0.55997 0.0670268 0.
0.561971 0.0670259 0.
0.563973 0.067025 0.
0.565974 0.0670242 0.
0.567976 0.0670234 0.
0.569978 0.0670226 0.
0.571979 0.0670218 0.
0.573981 0.0670213 0.
0.575982 0.067021 0.
0.577983 0.0670206 0.
0.579984 0.0670195 0.
0.581985 0.0670185 0.
0.583987 0.0670176 0.
0.585989 0.0670171 0.
0.58799 0.0670167 0.
0.589992 0.0670165 0.
0.591993 0.0670165 0.
0.593995 0.0670165 0.
0.595997 0.0670164 0.
0.597999 0.0670162 0.
0.6 0.067016 0.
0.602002 0.0670157 0.
0.604004 0.0670154 0.
0.606006 0.0670154 0.
0.608007 0.0670159 0.
0.610009 0.0670165 0.
0.61201 0.0670171 0.
0.614012 0.0670177 0.
0.616013 0.0670183 0.
0.618014 0.0670194 0.
0.620016 0.0670207 0.
0.622017 0.067022 0.
0.624019 0.0670228 0.
0.626021 0.0670236 0.
0.628023 0.0670244 0.
0.630024 0.0670256 0.
0.632025 0.0670269 0.
0.634026 0.0670281 0.
0.636027 0.0670289 0.
0.638028 0.0670298 0.
0.640029 0.0670308 0.
0.64203 0.067032 0.
0.644032 0.0670331 0.
0.646032 0.0670343 0.
0.648033 0.0670354 0.
0.650034 0.0670366 0.
0.652035 0.0670373 0.
0.654036 0.0670381 0.
0.656036 0.0670388 0.
0.658037 0.0670398 0.
0.660038 0.0670408 0.
0.662038 0.0670416 0.
0.664038 0.0670421 0.
0.666038 0.0670427 0.
0.668039 0.067043 0.
0.670039 0.0670433 0.
0.67204 0.0670435 0.
0.67404 0.067044 0.
0.676041 0.0670446 0.
0.678041 0.0670452 0.
0.680041 0.0670457 0.
0.682042 0.0670461 0.
0.684042 0.0670464 0.
0.686043 0.0670465 0.
0.688043 0.0670466 0.
0.690043 0.067047 0.
0.692043 0.0670475 0.
0.694043 0.0670481 0.
0.696043 0.0670492 0.
0.698043 0.0670505 0.
0.499955 0.0690462 0.
0.501955 0.0690457 0.
0.503955 0.0690455 0.
0.505955 0.0690451 0.
0.507955 0.069044 0.
0.509956 0.0690428 0.
0.511956 0.069042 0.
0.513956 0.0690418 0.
0.515956 0.0690416 0.
0.517957 0.0690409 0.
0.519957 0.0690399 0.
0.521958 0.069039 0.
0.523957 0.0690384 0.
0.525957 0.0690378 0.
0.527957 0.0690373 0.
0.529958 0.0690377 0.
0.531958 0.0690381 0.
0.533959 0.0690379 0.
0.53596 0.0690364 0.
0.537962 0.0690349 0.
0.539963 0.0690341 0.
0.541964 0.0690339 0.
0.543965 0.0690337 0.
0.545965 0.069033 0.
0.547965 0.0690323 0.
0.549965 0.0690316 0.
0.551966 0.0690305 0.
0.553968 0.0690294 0.
0.555969 0.0690283 0.
0.55797 0.0690273 0.
0.55997 0.0690263 0.
0.561972 0.0690255 0.
0.563973 0.069025 0.
0.565975 0.0690244 0.
0.567977 0.0690236 0.
0.569978 0.0690226 0.
0.57198 0.0690216 0.
0.573981 0.0690211 0.
0.575982 0.0690208 0.
0.577983 0.0690204 0.
0.579984 0.0690193 0.
0.581985 0.0690181 0.
0.583987 0.0690172 0.
0.585989 0.0690166 0.
0.58799 0.069016 0.
0.589992 0.0690158 0.
0.591994 0.0690159 0.
0.593995 0.0690161 0.
0.595997 0.0690163 0.
0.597999 0.0690166 0.
0.6 0.0690169 0.
0.602002 0.0690161 0.
0.604004 0.0690154 0.
0.606006 0.0690149 0.
0.608008 0.0690155 0.
0.610009 0.069016 0.
0.61201 0.0690167 0.
0.614011 0.0690173 0.
0.616012 0.069018 0.
0.618014 0.0690192 0.
0.620015 0.0690206 0.
0.622016 0.0690221 0.
0.624018 0.0690228 0.
0.626021 0.0690235 0.
0.628023 0.0690242 0.
0.630024 0.0690257 0.
0.632025 0.0690271 0.
0.634026 0.0690283 0.
0.636027 0.0690291 0.
0.638028 0.0690299 0.
0.640029 0.0690309 0.
0.64203 0.0690321 0.
0.644031 0.0690333 0.
0.646032 0.0690342 0.
0.648032 0.069035 0.
0.650033 0.0690357 0.
0.652034 0.0690367 0.
0.654035 0.0690377 0.
0.656035 0.0690387 0.
0.658036 0.06904 0.
0.660037 0.0690413 0.
0.662038 0.0690422 0.
0.664038 0.0690426 0.
0.666038 0.069043 0.
0.668038 0.0690433 0.
0.670039 0.0690434 0.
0.67204 0.0690435 0.
0.67404 0.0690443 0.
0.67604 0.069045 0.
0.678041 0.0690457 0.
0.680041 0.0690459 0.
0.682041 0.069046 0.
0.684042 0.0690463 0.
0.686042 0.0690468 0.
0.688042 0.0690474 0.
0.690043 0.0690478 0.
0.692043 0.0690481 0.
0.694042 0.0690485 0.
0.696043 0.0690496 0.
0.698043 0.0690509 0.
0.499956 0.0710469 0.
0.501956 0.0710465 0.
0.503956 0.0710463 0.
0.505955 0.0710459 0.
0.507956 0.0710445 0.
0.509957 0.071043 0.
0.511957 0.0710421 0.
0.513957 0.0710421 0.
0.515957 0.071042 0.
0.517957 0.0710414 0.
0.519958 0.0710405 0.
0.521958 0.0710396 0.
0.523958 0.0710389 0.
0.525958 0.0710383 0.
0.527958 0.0710378 0.
0.529959 0.0710379 0.
0.531959 0.0710379 0.
0.53396 0.0710375 0.
0.535961 0.0710361 0.
0.537962 0.0710347 0.
0.539963 0.071034 0.
0.541964 0.0710338 0.
0.543965 0.0710336 0.
0.545965 0.0710332 0.
0.547966 0.0710328 0.
0.549966 0.0710323 0.
0.551967 0.0710308 0.
0.553968 0.0710292 0.
0.555969 0.0710278 0.
0.55797 0.0710268 0.
0.559971 0.0710258 0.
0.561972 0.0710251 0.
0.563974 0.0710247 0.
0.565975 0.0710244 0.
0.567977 0.0710236 0.
0.569978 0.0710225 0.
0.57198 0.0710214 0.
0.573982 0.071021 0.
0.575983 0.0710207 0.
0.577984 0.0710203 0.
0.579985 0.0710191 0.
0.581986 0.0710178 0.
0.583987 0.0710167 0.
0.585989 0.0710161 0.
0.587991 0.0710155 0.
0.589992 0.0710154 0.
0.591994 0.0710156 0.
0.593995 0.0710157 0.
0.595997 0.071016 0.
0.597999 0.0710162 0.
0.6 0.0710164 0.
0.602002 0.0710158 0.
0.604004 0.0710152 0.
0.606006 0.0710148 0.
0.608007 0.0710153 0.
0.610009 0.0710158 0.
0.61201 0.0710164 0.
0.614011 0.0710172 0.
0.616012 0.0710179 0.
0.618013 0.071019 0.
0.620015 0.0710203 0.
0.622016 0.0710216 0.
0.624018 0.0710224 0.
0.62602 0.0710231 0.
0.628022 0.0710238 0.
0.630023 0.0710254 0.
0.632024 0.071027 0.
0.634025 0.0710283 0.
0.636026 0.0710292 0.
0.638027 0.0710301 0.
0.640028 0.0710312 0.
0.642029 0.0710323 0.
0.64403 0.0710334 0.
0.646031 0.0710341 0.
0.648032 0.0710347 0.
0.650033 0.0710353 0.
0.652033 0.0710365 0.
0.654034 0.0710377 0.
0.656034 0.0710389 0.
0.658035 0.0710403 0.
0.660036 0.0710417 0.
0.662037 0.0710426 0.
0.664037 0.0710429 0.
0.666037 0.0710432 0.
0.668038 0.0710435 0.
0.670038 0.0710437 0.
0.672039 0.0710439 0.
0.674039 0.0710445 0.
0.67604 0.0710453 0.
0.67804 0.0710459 0.
0.68004 0.071046 0.
0.682041 0.071046 0.
0.684041 0.0710463 0.
0.686041 0.0710471 0.
0.688042 0.0710478 0.
0.690042 0.0710483 0.
0.692042 0.0710486 0.
0.694042 0.0710489 0.
0.696042 0.0710501 0.
0.698042 0.0710515 0.
0.499957 0.0730478 0.
0.501957 0.0730473 0.
0.503957 0.0730469 0.
0.505957 0.0730463 0.
0.507957 0.0730449 0.
0.509957 0.0730435 0.
0.511958 0.0730426 0.
0.513958 0.0730425 0.
0.515958 0.0730423 0.
0.517958 0.0730418 0.
0.519958 0.073041 0.
0.521958 0.0730402 0.
0.523959 0.0730396 0.
0.525959 0.0730389 0.
0.527959 0.0730383 0.
0.52996 0.0730382 0.
0.531961 0.073038 0.
0.533961 0.0730375 0.
0.535962 0.0730363 0.
0.537963 0.073035 0.
0.539964 0.0730342 0.
0.541964 0.0730336 0.
0.543965 0.0730331 0.
0.545965 0.0730328 0.
0.547966 0.0730327 0.
0.549967 0.0730325 0.
0.551968 0.0730307 0.
0.553968 0.0730289 0.
0.555969 0.0730272 0.
0.557971 0.0730262 0.
0.559972 0.0730252 0.
0.561973 0.0730245 0.
0.563974 0.0730243 0.
0.565975 0.0730241 0.
0.567976 0.0730233 0.
0.569978 0.0730222 0.
0.571979 0.0730211 0.
0.573981 0.0730209 0.
0.575983 0.0730208 0.
0.577985 0.0730205 0.
0.579986 0.0730189 0.
0.581987 0.0730174 0.
0.583988 0.0730162 0.
0.58599 0.0730157 0.
0.587991 0.0730152 0.
0.589992 0.0730151 0.
0.591994 0.0730153 0.
0.593995 0.0730155 0.
0.595997 0.0730152 0.
0.597999 0.0730148 0.
0.6 0.0730143 0.
0.602002 0.0730146 0.
0.604004 0.0730148 0.
0.606006 0.0730151 0.
0.608007 0.0730154 0.
0.610008 0.0730158 0.
0.61201 0.0730164 0.
0.614011 0.0730173 0.
0.616012 0.0730181 0.
0.618014 0.0730189 0.
0.620015 0.0730197 0.
0.622016 0.0730205 0.
0.624018 0.0730214 0.
0.626019 0.0730223 0.
0.62802 0.0730232 0.
0.630022 0.0730249 0.
0.632023 0.0730265 0.
0.634024 0.073028 0.
0.636025 0.0730292 0.
0.638026 0.0730304 0.
0.640027 0.0730315 0.
0.642028 0.0730325 0.
0.644029 0.0730335 0.
0.64603 0.0730341 0.
0.648032 0.0730348 0.
0.650033 0.0730354 0.
0.652033 0.0730366 0.
0.654033 0.0730379 0.
0.656034 0.0730392 0.
0.658034 0.0730405 0.
0.660035 0.0730419 0.
0.662035 0.0730428 0.
0.664036 0.073043 0.
0.666036 0.0730433 0.
0.668037 0.0730437 0.
0.670037 0.0730441 0.
0.672038 0.0730444 0.
0.674039 0.0730449 0.
0.676039 0.0730453 0.
0.67804 0.0730457 0.
0.68004 0.0730459 0.
0.68204 0.0730461 0.
0.68404 0.0730465 0.
0.68604 0.0730472 0.
0.68804 0.0730479 0.
0.690041 0.0730485 0.
0.692041 0.073049 0.
0.694041 0.0730496 0.
0.696041 0.0730508 0.
0.698042 0.0730523 0.
0.499958 0.0750484 0.
0.501958 0.075048 0.
0.503958 0.0750475 0.
0.505958 0.0750467 0.
0.507958 0.0750453 0.
0.509958 0.075044 0.
0.511958 0.0750431 0.
0.513958 0.0750429 0.
0.515958 0.0750427 0.
0.517959 0.0750422 0.
0.519959 0.0750415 0.
0.521959 0.0750408 0.
0.523959 0.0750402 0.
0.52596 0.0750395 0.
0.527961 0.0750389 0.
0.529962 0.0750385 0.
0.531962 0.0750381 0.
0.533963 0.0750374 0.
0.535963 0.0750364 0.
0.537964 0.0750353 0.
0.539964 0.0750344 0.
0.541964 0.0750335 0.
0.543964 0.0750326 0.
0.545965 0.0750325 0.
0.547966 0.0750325 0.
0.549967 0.0750326 0.
0.551968 0.0750306 0.
0.553969 0.0750286 0.
0.55597 0.0750267 0.
0.557971 0.0750257 0.
0.559973 0.0750246 0.
0.561974 0.0750239 0.
0.563974 0.0750239 0.
0.565975 0.0750238 0.
0.567976 0.0750231 0.
0.569977 0.075022 0.
0.571978 0.0750209 0.
0.57398 0.0750208 0.
0.575983 0.0750208 0.
0.577985 0.0750207 0.
0.579986 0.0750188 0.
0.581988 0.075017 0.
0.583989 0.0750157 0.
0.58599 0.0750153 0.
0.587991 0.0750149 0.
0.589992 0.0750149 0.
0.591994 0.0750151 0.
0.593995 0.0750153 0.
0.595996 0.0750145 0.
0.597998 0.0750134 0.
0.600001 0.0750123 0.
0.602002 0.0750134 0.
0.604004 0.0750145 0.
0.606006 0.0750153 0.
0.608007 0.0750156 0.
0.610008 0.0750158 0.
0.612009 0.0750164 0.
0.614011 0.0750173 0.
0.616012 0.0750183 0.
0.618014 0.0750188 0.
0.620015 0.0750192 0.
0.622017 0.0750195 0.
0.624017 0.0750205 0.
0.626018 0.0750215 0.
0.628019 0.0750226 0.
0.630021 0.0750243 0.
0.632022 0.0750261 0.
0.634023 0.0750277 0.
0.636024 0.0750292 0.
0.638025 0.0750307 0.
0.640026 0.0750319 0.
0.642027 0.0750327 0.
0.644029 0.0750335 0.
0.64603 0.0750341 0.
0.648032 0.0750348 0.
0.650033 0.0750354 0.
0.652033 0.0750368 0.
0.654033 0.0750382 0.
0.656033 0.0750395 0.
0.658033 0.0750408 0.
0.660034 0.0750421 0.
0.662034 0.0750429 0.
0.664035 0.0750432 0.
0.666035 0.0750435 0.
0.668036 0.0750439 0.
0.670036 0.0750444 0.
0.672036 0.075045 0.
0.674038 0.0750452 0.
0.676039 0.0750454 0.
0.67804 0.0750455 0.
0.68004 0.0750459 0.
0.682039 0.0750462 0.
0.684039 0.0750466 0.
0.686039 0.0750473 0.
0.688039 0.0750479 0.
0.69004 0.0750487 0.
0.69204 0.0750494 0.
0.69404 0.0750502 0.
0.696041 0.0750516 0.
0.698041 0.0750531 0.
0.499959 0.0770484 0.
0.501959 0.0770481 0.
0.503959 0.0770477 0.
0.505959 0.0770471 0.
0.507959 0.0770458 0.
0.509959 0.0770445 0.
0.511959 0.0770437 0.
0.513959 0.0770435 0.
0.515959 0.0770434 0.
0.517959 0.0770428 0.
0.519959 0.0770419 0.
0.521959 0.0770411 0.
0.52396 0.0770402 0.
0.525961 0.0770394 0.
0.527962 0.0770386 0.
0.529963 0.0770384 0.
0.531963 0.0770382 0.
0.533964 0.0770377 0.
0.535964 0.0770365 0.
0.537965 0.0770353 0.
0.539965 0.0770344 0.
0.541966 0.0770335 0.
0.543966 0.0770327 0.
0.545967 0.0770324 0.
0.547968 0.0770322 0.
0.549969 0.077032 0.
0.55197 0.0770305 0.
0.55397 0.0770289 0.
0.555971 0.0770274 0.
0.557972 0.077026 0.
0.559974 0.0770247 0.
0.561975 0.0770238 0.
0.563976 0.0770236 0.
0.565976 0.0770235 0.
0.567977 0.0770227 0.
0.569978 0.0770215 0.
0.571979 0.0770203 0.
0.573982 0.07702 0.
0.575984 0.0770197 0.
0.577986 0.0770193 0.
0.579987 0.0770181 0.
0.581988 0.0770169 0.
0.583989 0.0770159 0.
0.585991 0.0770152 0.
0.587992 0.0770145 0.
0.589993 0.0770144 0.
0.591994 0.0770148 0.
0.593995 0.0770152 0.
0.595996 0.0770145 0.
0.597998 0.0770135 0.
0.6 0.0770124 0.
0.602002 0.0770131 0.
0.604004 0.0770138 0.
0.606005 0.0770144 0.
0.608006 0.0770149 0.
0.610008 0.0770154 0.
0.612009 0.0770159 0.
0.61401 0.0770166 0.
0.616012 0.0770173 0.
0.618013 0.077018 0.
0.620014 0.0770188 0.
0.622015 0.0770195 0.
0.624016 0.0770204 0.
0.626017 0.0770214 0.
0.628019 0.0770225 0.
0.63002 0.0770241 0.
0.632021 0.0770257 0.
0.634022 0.0770273 0.
0.636023 0.0770286 0.
0.638024 0.07703 0.
0.640025 0.0770311 0.
0.642026 0.0770319 0.
0.644028 0.0770327 0.
0.646029 0.0770336 0.
0.64803 0.0770346 0.
0.650031 0.0770355 0.
0.652031 0.0770369 0.
0.654031 0.0770382 0.
0.656031 0.0770395 0.
0.658032 0.0770406 0.
0.660032 0.0770418 0.
0.662033 0.0770425 0.
0.664034 0.0770429 0.
0.666035 0.0770432 0.
0.668035 0.0770438 0.
0.670036 0.0770445 0.
0.672036 0.0770452 0.
0.674037 0.0770453 0.
0.676038 0.0770454 0.
0.678039 0.0770455 0.
0.680039 0.077046 0.
0.682039 0.0770466 0.
0.684039 0.0770471 0.
0.686039 0.0770476 0.
0.688039 0.077048 0.
0.690039 0.0770487 0.
0.692039 0.0770496 0.
0.694039 0.0770504 0.
0.696039 0.0770515 0.
0.69804 0.0770527 0.
0.49996 0.0790485 0.
0.50196 0.0790482 0.
0.50396 0.0790479 0.
0.50596 0.0790474 0.
0.50796 0.0790462 0.
0.509959 0.0790451 0.
0.511959 0.0790443 0.
0.513959 0.0790442 0.
0.515959 0.0790441 0.
0.51796 0.0790433 0.
0.51996 0.0790423 0.
0.52196 0.0790413 0.
0.523961 0.0790403 0.
0.525962 0.0790393 0.
0.527963 0.0790383 0.
0.529964 0.0790383 0.
0.531964 0.0790383 0.
0.533965 0.0790379 0.
0.535965 0.0790367 0.
0.537966 0.0790354 0.
0.539966 0.0790343 0.
0.541967 0.0790336 0.
0.543968 0.0790328 0.
0.545969 0.0790323 0.
0.547969 0.0790318 0.
0.54997 0.0790313 0.
0.551971 0.0790303 0.
0.553972 0.0790293 0.
0.555973 0.0790281 0.
0.557974 0.0790264 0.
0.559975 0.0790247 0.
0.561976 0.0790236 0.
0.563977 0.0790234 0.
0.565978 0.0790232 0.
0.567979 0.0790223 0.
0.56998 0.079021 0.
0.571981 0.0790198 0.
0.573983 0.0790192 0.
0.575985 0.0790186 0.
0.577987 0.079018 0.
0.579988 0.0790175 0.
0.581989 0.0790169 0.
0.58399 0.0790161 0.
0.585991 0.0790151 0.
0.587993 0.079014 0.
0.589994 0.0790138 0.
0.591994 0.0790144 0.
0.593995 0.0790151 0.
0.595996 0.0790145 0.
0.597998 0.0790135 0.
0.6 0.0790126 0.
0.602001 0.0790128 0.
0.604003 0.0790131 0.
0.606005 0.0790135 0.
0.608006 0.0790142 0.
0.610007 0.0790149 0.
0.612009 0.0790155 0.
0.61401 0.0790159 0.
0.616011 0.0790164 0.
0.618012 0.0790173 0.
0.620013 0.0790184 0.
0.622014 0.0790195 0.
0.624015 0.0790204 0.
0.626017 0.0790214 0.
0.628018 0.0790224 0.
0.630019 0.0790239 0.
0.63202 0.0790254 0.
0.634021 0.0790268 0.
0.636022 0.0790281 0.
0.638023 0.0790293 0.
0.640024 0.0790303 0.
0.642026 0.0790311 0.
0.644027 0.0790319 0.
0.646028 0.0790331 0.
0.648028 0.0790344 0.
0.650029 0.0790356 0.
0.652029 0.0790369 0.
0.65403 0.0790382 0.
0.65603 0.0790394 0.
0.65803 0.0790404 0.
0.660031 0.0790414 0.
0.662032 0.0790422 0.
0.664033 0.0790426 0.
0.666034 0.0790429 0.
0.668035 0.0790436 0.
0.670035 0.0790445 0.
0.672036 0.0790454 0.
0.674037 0.0790455 0.
0.676037 0.0790454 0.
0.678038 0.0790455 0.
0.680038 0.0790462 0.
0.682038 0.079047 0.
0.684038 0.0790476 0.
0.686038 0.0790479 0.
0.688038 0.0790482 0.
0.690038 0.0790488 0.
0.692038 0.0790497 0.
0.694038 0.0790505 0.
0.696038 0.0790514 0.
0.698038 0.0790523 0.
0.49996 0.0810487 0.
0.50196 0.0810485 0.
0.50396 0.0810482 0.
0.50596 0.0810478 0.
0.50796 0.0810467 0.
0.50996 0.0810456 0.
0.51196 0.0810448 0.
0.51396 0.0810447 0.
0.51596 0.0810445 0.
0.51796 0.0810438 0.
0.519961 0.0810428 0.
0.521961 0.0810418 0.
0.523962 0.0810407 0.
0.525963 0.0810396 0.
0.527964 0.0810385 0.
0.529964 0.0810385 0.
0.531965 0.0810384 0.
0.533965 0.081038 0.
0.535966 0.0810366 0.
0.537967 0.0810353 0.
0.539967 0.0810343 0.
0.541968 0.0810336 0.
0.543969 0.081033 0.
0.54597 0.0810324 0.
0.54797 0.0810319 0.
0.549971 0.0810314 0.
0.551972 0.0810306 0.
0.553973 0.0810297 0.
0.555974 0.0810287 0.
0.557975 0.0810268 0.
0.559976 0.0810249 0.
0.561977 0.0810236 0.
0.563978 0.0810232 0.
0.565979 0.0810228 0.
0.56798 0.0810219 0.
0.569981 0.0810207 0.
0.571982 0.0810196 0.
0.573984 0.0810188 0.
0.575986 0.081018 0.
0.577988 0.0810172 0.
0.579988 0.0810169 0.
0.581989 0.0810165 0.
0.58399 0.081016 0.
0.585992 0.081015 0.
0.587993 0.081014 0.
0.589994 0.0810138 0.
0.591995 0.0810143 0.
0.593995 0.0810148 0.
0.595996 0.0810142 0.
0.597998 0.0810132 0.
0.599999 0.0810123 0.
0.602001 0.0810124 0.
0.604003 0.0810125 0.
0.606004 0.0810128 0.
0.608006 0.0810135 0.
0.610007 0.0810142 0.
0.612009 0.0810149 0.
0.61401 0.0810154 0.
0.616011 0.0810159 0.
0.618011 0.0810168 0.
0.620012 0.0810179 0.
0.622013 0.081019 0.
0.624014 0.0810199 0.
0.626016 0.0810209 0.
0.628017 0.081022 0.
0.630018 0.0810236 0.
0.632019 0.0810252 0.
0.63402 0.0810267 0.
0.636021 0.0810279 0.
0.638022 0.0810291 0.
0.640024 0.08103 0.
0.642025 0.0810308 0.
0.644026 0.0810315 0.
0.646027 0.0810329 0.
0.648027 0.0810344 0.
0.650028 0.0810359 0.
0.652028 0.0810371 0.
0.654028 0.0810383 0.
0.656029 0.0810394 0.
0.65803 0.0810402 0.
0.66003 0.081041 0.
0.662031 0.0810417 0.
0.664032 0.0810422 0.
0.666033 0.0810427 0.
0.668034 0.0810435 0.
0.670035 0.0810444 0.
0.672035 0.0810454 0.
0.674036 0.0810454 0.
0.676036 0.0810453 0.
0.678036 0.0810453 0.
0.680037 0.0810462 0.
0.682037 0.0810471 0.
0.684037 0.0810478 0.
0.686037 0.0810482 0.
0.688037 0.0810485 0.
0.690037 0.0810492 0.
0.692037 0.0810502 0.
0.694037 0.0810511 0.
0.696037 0.0810517 0.
0.698037 0.0810522 0.
0.49996 0.0830489 0.
0.50196 0.0830487 0.
0.50396 0.0830485 0.
0.505961 0.0830481 0.
0.507961 0.0830471 0.
0.509961 0.083046 0.
0.511961 0.0830452 0.
0.513961 0.083045 0.
0.515961 0.0830448 0.
0.517961 0.0830442 0.
0.519962 0.0830433 0.
0.521962 0.0830425 0.
0.523963 0.0830414 0.
0.525964 0.0830402 0.
0.527964 0.0830391 0.
0.529965 0.0830388 0.
0.531966 0.0830385 0.
0.533966 0.0830378 0.
0.535967 0.0830364 0.
0.537967 0.0830351 0.
0.539968 0.0830342 0.
0.541969 0.0830337 0.
0.54397 0.0830333 0.
0.54597 0.0830329 0.
0.547971 0.0830325 0.
0.549971 0.0830321 0.
0.551973 0.0830312 0.
0.553974 0.0830302 0.
0.555975 0.0830291 0.
0.557976 0.0830271 0.
0.559977 0.0830252 0.
0.561978 0.0830237 0.
0.563979 0.083023 0.
0.56598 0.0830223 0.
0.567981 0.0830214 0.
0.569982 0.0830206 0.
0.571983 0.0830198 0.
0.573985 0.0830188 0.
0.575986 0.0830178 0.
0.577987 0.0830169 0.
0.579988 0.0830164 0.
0.58199 0.0830159 0.
0.583991 0.0830155 0.
0.585992 0.083015 0.
0.587993 0.0830145 0.
0.589994 0.0830143 0.
0.591994 0.0830143 0.
0.593995 0.0830143 0.
0.595996 0.0830135 0.
0.597998 0.0830125 0.
0.599999 0.0830115 0.
0.602001 0.0830118 0.
0.604002 0.083012 0.
0.606004 0.0830124 0.
0.608006 0.0830129 0.
0.610007 0.0830134 0.
0.612009 0.083014 0.
0.614009 0.0830149 0.
0.61601 0.0830158 0.
0.618011 0.0830166 0.
0.620012 0.0830173 0.
0.622012 0.0830181 0.
0.624014 0.083019 0.
0.626015 0.0830201 0.
0.628017 0.0830212 0.
0.630018 0.0830232 0.
0.632018 0.0830251 0.
0.634019 0.0830268 0.
0.636021 0.0830281 0.
0.638022 0.0830294 0.
0.640023 0.0830303 0.
0.642024 0.0830309 0.
0.644025 0.0830316 0.
0.646026 0.083033 0.
0.648026 0.0830346 0.
0.650027 0.0830362 0.
0.652027 0.0830373 0.
0.654028 0.0830384 0.
0.656029 0.0830394 0.
0.65803 0.08304 0.
0.660031 0.0830405 0.
0.662031 0.0830411 0.
0.664032 0.0830418 0.
0.666032 0.0830424 0.
0.668032 0.0830433 0.
0.670033 0.0830442 0.
0.672034 0.0830451 0.
0.674034 0.0830451 0.
0.676035 0.083045 0.
0.678035 0.0830451 0.
0.680035 0.083046 0.
0.682036 0.083047 0.
0.684036 0.0830478 0.
0.686036 0.0830484 0.
0.688036 0.0830491 0.
0.690036 0.0830499 0.
0.692036 0.0830511 0.
0.694036 0.0830522 0.
0.696036 0.0830524 0.
0.698037 0.0830523 0.
0.49996 0.0850493 0.
0.50196 0.085049 0.
0.50396 0.0850488 0.
0.505961 0.0850485 0.
0.507961 0.0850474 0.
0.509962 0.0850464 0.
0.511962 0.0850456 0.
0.513962 0.0850453 0.
0.515962 0.085045 0.
0.517962 0.0850445 0.
0.519963 0.0850439 0.
0.521964 0.0850432 0.
0.523964 0.0850421 0.
0.525965 0.0850409 0.
0.527965 0.0850397 0.
0.529966 0.0850391 0.
0.531966 0.0850385 0.
0.533967 0.0850376 0.
0.535967 0.0850362 0.
0.537968 0.0850348 0.
0.539968 0.0850341 0.
0.541969 0.0850338 0.
0.54397 0.0850336 0.
0.545971 0.0850333 0.
0.547971 0.085033 0.
0.549972 0.0850328 0.
0.551973 0.0850317 0.
0.553974 0.0850307 0.
0.555975 0.0850294 0.
0.557977 0.0850274 0.
0.559978 0.0850254 0.
0.561979 0.0850238 0.
0.563981 0.0850228 0.
0.565982 0.0850218 0.
0.567983 0.085021 0.
0.569984 0.0850205 0.
0.571985 0.0850199 0.
0.573986 0.0850188 0.
0.575986 0.0850176 0.
0.577987 0.0850165 0.
0.579989 0.0850159 0.
0.58199 0.0850153 0.
0.583991 0.0850149 0.
0.585992 0.085015 0.
0.587993 0.085015 0.
0.589994 0.0850147 0.
0.591994 0.0850143 0.
0.593995 0.0850138 0.
0.595996 0.0850129 0.
0.597998 0.0850118 0.
0.599999 0.0850107 0.
0.602001 0.0850111 0.
0.604002 0.0850115 0.
0.606004 0.0850119 0.
0.608006 0.0850122 0.
0.610008 0.0850125 0.
0.612009 0.0850132 0.
0.614009 0.0850144 0.
0.61601 0.0850157 0.
0.618011 0.0850164 0.
0.620011 0.0850168 0.
0.622012 0.0850172 0.
0.624013 0.0850182 0.
0.626015 0.0850192 0.
0.628016 0.0850205 0.
0.630017 0.0850227 0.
0.632018 0.085025 0.
0.634019 0.0850269 0.
0.63602 0.0850283 0.
0.638021 0.0850297 0.
0.640022 0.0850306 0.
0.642023 0.0850311 0.
0.644024 0.0850316 0.
0.646025 0.0850331 0.
0.648025 0.0850348 0.
0.650026 0.0850364 0.
0.652027 0.0850375 0.
0.654028 0.0850386 0.
0.656028 0.0850394 0.
0.65803 0.0850397 0.
0.660031 0.08504 0.
0.662031 0.0850406 0.
0.664031 0.0850414 0.
0.666031 0.0850422 0.
0.668031 0.0850431 0.
0.670032 0.085044 0.
0.672032 0.0850448 0.
0.674033 0.0850448 0.
0.676033 0.0850448 0.
0.678034 0.0850448 0.
0.680034 0.0850458 0.
0.682035 0.0850469 0.
0.684035 0.0850479 0.
0.686035 0.0850487 0.
0.688036 0.0850496 0.
0.690036 0.0850507 0.
0.692036 0.0850519 0.
0.694036 0.0850532 0.
0.696036 0.085053 0.
0.698036 0.0850524 0.
0.499961 0.0870493 0.
0.501962 0.0870493 0.
0.503962 0.0870491 0.
0.505962 0.0870487 0.
0.507962 0.0870476 0.
0.509962 0.0870466 0.
0.511962 0.0870458 0.
0.513962 0.0870455 0.
0.515962 0.0870451 0.
0.517963 0.0870444 0.
0.519964 0.0870436 0.
0.521964 0.0870427 0.
0.523965 0.0870418 0.
0.525966 0.0870408 0.
0.527966 0.0870398 0.
0.529967 0.087039 0.
0.531967 0.0870382 0.
0.533967 0.0870373 0.
0.535968 0.0870361 0.
0.537968 0.0870349 0.
0.539969 0.0870342 0.
0.54197 0.0870338 0.
0.543971 0.0870334 0.
0.545972 0.0870331 0.
0.547972 0.0870328 0.
0.549972 0.0870325 0.
0.551974 0.0870312 0.
0.553975 0.0870299 0.
0.555976 0.0870284 0.
0.557977 0.0870267 0.
0.559979 0.0870249 0.
0.56198 0.0870235 0.
0.563981 0.0870226 0.
0.565982 0.0870216 0.
0.567983 0.0870209 0.
0.569984 0.0870204 0.
0.571985 0.0870199 0.
0.573986 0.0870188 0.
0.575986 0.0870175 0.
0.577987 0.0870163 0.
0.579989 0.0870157 0.
0.58199 0.0870151 0.
0.583992 0.0870146 0.
0.585992 0.0870146 0.
0.587993 0.0870145 0.
0.589994 0.0870144 0.
0.591995 0.0870141 0.
0.593995 0.0870138 0.
0.595996 0.0870127 0.
0.597998 0.0870115 0.
0.599999 0.0870102 0.
0.602001 0.0870107 0.
0.604002 0.0870111 0.
0.606004 0.0870116 0.
0.608005 0.087012 0.
0.610007 0.0870123 0.
0.612008 0.087013 0.
0.614008 0.087014 0.
0.616009 0.087015 0.
0.61801 0.0870157 0.
0.620011 0.0870164 0.
0.622011 0.0870171 0.
0.624012 0.087018 0.
0.626014 0.0870189 0.
0.628015 0.08702 0.
0.630016 0.0870222 0.
0.632017 0.0870244 0.
0.634018 0.0870263 0.
0.636019 0.0870277 0.
0.63802 0.087029 0.
0.640021 0.08703 0.
0.642022 0.0870307 0.
0.644023 0.0870314 0.
0.646024 0.0870327 0.
0.648025 0.0870343 0.
0.650026 0.0870358 0.
0.652026 0.087037 0.
0.654027 0.0870381 0.
0.656028 0.0870391 0.
0.658029 0.0870395 0.
0.660029 0.0870399 0.
0.66203 0.0870405 0.
0.66403 0.0870413 0.
0.66603 0.087042 0.
0.66803 0.0870428 0.
0.670031 0.0870436 0.
0.672032 0.0870444 0.
0.674032 0.0870446 0.
0.676033 0.0870448 0.
0.678033 0.0870451 0.
0.680033 0.0870462 0.
0.682034 0.0870472 0.
0.684034 0.0870481 0.
0.686034 0.0870489 0.
0.688034 0.0870497 0.
0.690034 0.0870507 0.
0.692034 0.0870519 0.
0.694034 0.0870531 0.
0.696035 0.0870535 0.
0.698035 0.0870536 0.
0.499963 0.0890497 0.
0.501963 0.0890495 0.
0.503963 0.0890493 0.
0.505964 0.089049 0.
0.507963 0.0890478 0.
0.509963 0.0890467 0.
0.511963 0.0890459 0.
0.513963 0.0890456 0.
0.515963 0.0890452 0.
0.517963 0.0890444 0.
0.519964 0.0890432 0.
0.521965 0.0890421 0.
0.523966 0.0890414 0.
0.525967 0.0890407 0.
0.527968 0.0890399 0.
0.529968 0.0890389 0.
0.531968 0.089038 0.
0.533968 0.089037 0.
0.535968 0.089036 0.
0.537969 0.089035 0.
0.539969 0.0890342 0.
0.541971 0.0890337 0.
0.543972 0.0890332 0.
0.545972 0.0890329 0.
0.547973 0.0890325 0.
0.549973 0.0890322 0.
0.551974 0.0890307 0.
0.553976 0.0890291 0.
0.555977 0.0890275 0.
0.557978 0.089026 0.
0.559979 0.0890245 0.
0.561981 0.0890232 0.
0.563981 0.0890223 0.
0.565982 0.0890215 0.
0.567983 0.0890209 0.
0.569984 0.0890204 0.
0.571985 0.0890199 0.
0.573986 0.0890187 0.
0.575987 0.0890174 0.
0.577988 0.0890161 0.
0.579989 0.0890155 0.
0.581991 0.0890148 0.
0.583992 0.0890144 0.
0.585993 0.0890142 0.
0.587993 0.0890141 0.
0.589994 0.089014 0.
0.591995 0.0890138 0.
0.593996 0.0890137 0.
0.595997 0.0890126 0.
0.597998 0.0890111 0.
0.599999 0.0890096 0.
0.602001 0.0890102 0.
0.604002 0.0890107 0.
0.606003 0.0890113 0.
0.608005 0.0890117 0.
0.610006 0.0890122 0.
0.612007 0.0890128 0.
0.614008 0.0890135 0.
0.616009 0.0890142 0.
0.618009 0.0890151 0.
0.62001 0.0890161 0.
0.622011 0.0890171 0.
0.624012 0.0890179 0.
0.626013 0.0890186 0.
0.628014 0.0890196 0.
0.630015 0.0890217 0.
0.632016 0.0890238 0.
0.634016 0.0890257 0.
0.636017 0.089027 0.
0.638018 0.0890284 0.
0.640019 0.0890295 0.
0.64202 0.0890303 0.
0.644022 0.0890311 0.
0.646023 0.0890324 0.
0.648024 0.0890338 0.
0.650025 0.0890353 0.
0.652026 0.0890365 0.
0.654026 0.0890377 0.
0.656027 0.0890388 0.
0.658028 0.0890393 0.
0.660028 0.0890398 0.
0.662029 0.0890404 0.
0.664029 0.0890411 0.
0.666029 0.0890418 0.
0.66803 0.0890425 0.
0.67003 0.0890432 0.
0.672031 0.0890439 0.
0.674031 0.0890444 0.
0.676032 0.0890449 0.
0.678033 0.0890454 0.
0.680033 0.0890465 0.
0.682033 0.0890475 0.
0.684033 0.0890484 0.
0.686033 0.0890491 0.
0.688033 0.0890497 0.
0.690033 0.0890507 0.
0.692033 0.0890519 0.
0.694033 0.0890531 0.
0.696033 0.089054 0.
0.698034 0.0890548 0.
0.499964 0.0910499 0.
0.501964 0.09105 0.
0.503964 0.0910499 0.
0.505964 0.0910496 0.
0.507964 0.0910484 0.
0.509964 0.0910473 0.
0.511963 0.0910464 0.
0.513963 0.0910458 0.
0.515963 0.0910452 0.
0.517964 0.0910442 0.
0.519965 0.0910429 0.
0.521965 0.0910416 0.
0.523966 0.0910411 0.
0.525968 0.0910406 0.
0.527969 0.0910401 0.
0.529969 0.0910391 0.
0.531968 0.0910381 0.
0.533969 0.091037 0.
0.535969 0.0910359 0.
0.537969 0.0910349 0.
0.53997 0.0910341 0.
0.541972 0.0910337 0.
0.543973 0.0910333 0.
0.545973 0.0910328 0.
0.547973 0.0910324 0.
0.549974 0.091032 0.
0.551975 0.0910304 0.
0.553977 0.0910287 0.
0.555978 0.0910271 0.
0.557979 0.0910256 0.
0.55998 0.0910241 0.
0.561981 0.091023 0.
0.563982 0.0910223 0.
0.565983 0.0910215 0.
0.567983 0.0910209 0.
0.569984 0.0910203 0.
0.571985 0.0910197 0.
0.573986 0.0910184 0.
0.575987 0.0910171 0.
0.577988 0.0910159 0.
0.57999 0.0910152 0.
0.581991 0.0910144 0.
0.583992 0.0910139 0.
0.585993 0.0910139 0.
0.587993 0.0910139 0.
0.589994 0.0910138 0.
0.591995 0.0910136 0.
0.593996 0.0910135 0.
0.595997 0.0910124 0.
0.597998 0.0910109 0.
0.6 0.0910095 0.
0.602001 0.0910101 0.
0.604002 0.0910107 0.
0.606003 0.0910112 0.
0.608004 0.0910115 0.
0.610005 0.0910118 0.
0.612006 0.0910123 0.
0.614007 0.091013 0.
0.616008 0.0910138 0.
0.618009 0.0910147 0.
0.620009 0.0910158 0.
0.62201 0.0910168 0.
0.624011 0.0910176 0.
0.626012 0.0910184 0.
0.628013 0.0910193 0.
0.630014 0.0910212 0.
0.632015 0.0910232 0.
0.634015 0.0910249 0.
0.636016 0.0910264 0.
0.638017 0.091028 0.
0.640018 0.0910291 0.
0.642019 0.09103 0.
0.64402 0.0910309 0.
0.646021 0.0910322 0.
0.648023 0.0910335 0.
0.650024 0.0910348 0.
0.652025 0.0910361 0.
0.654025 0.0910373 0.
0.656026 0.0910384 0.
0.658026 0.091039 0.
0.660027 0.0910397 0.
0.662027 0.0910403 0.
0.664028 0.0910409 0.
0.666028 0.0910415 0.
0.668029 0.0910421 0.
0.67003 0.0910429 0.
0.67203 0.0910436 0.
0.674031 0.0910443 0.
0.676032 0.0910449 0.
0.678032 0.0910456 0.
0.680032 0.0910467 0.
0.682032 0.0910478 0.
0.684032 0.0910487 0.
0.686032 0.0910493 0.
0.688032 0.0910499 0.
0.690032 0.0910508 0.
0.692032 0.091052 0.
0.694032 0.0910532 0.
0.696032 0.0910543 0.
0.698033 0.0910553 0.
0.499964 0.0930509 0.
0.501964 0.0930508 0.
0.503965 0.0930509 0.
0.505965 0.0930507 0.
0.507964 0.0930494 0.
0.509964 0.0930482 0.
0.511964 0.0930471 0.
0.513964 0.0930462 0.
0.515964 0.0930453 0.
0.517965 0.093044 0.
0.519965 0.0930426 0.
0.521966 0.0930412 0.
0.523967 0.0930408 0.
0.525968 0.0930406 0.
0.527969 0.0930403 0.
0.529969 0.0930394 0.
0.531969 0.0930385 0.
0.533969 0.0930375 0.
0.53597 0.093036 0.
0.53797 0.0930345 0.
0.539971 0.0930338 0.
0.541972 0.0930336 0.
0.543973 0.0930335 0.
0.545974 0.093033 0.
0.547975 0.0930324 0.
0.549975 0.0930318 0.
0.551976 0.0930303 0.
0.553978 0.0930288 0.
0.555979 0.0930272 0.
0.55798 0.0930256 0.
0.559981 0.093024 0.
0.561982 0.0930228 0.
0.563983 0.0930224 0.
0.565983 0.0930219 0.
0.567984 0.0930211 0.
0.569985 0.0930201 0.
0.571986 0.0930192 0.
0.573987 0.093018 0.
0.575988 0.0930168 0.
0.577989 0.0930157 0.
0.57999 0.0930147 0.
0.581991 0.0930138 0.
0.583992 0.0930133 0.
0.585993 0.0930136 0.
0.587993 0.0930138 0.
0.589994 0.0930138 0.
0.591995 0.0930134 0.
0.593996 0.0930131 0.
0.595997 0.0930121 0.
0.597998 0.0930108 0.
0.6 0.0930096 0.
0.602001 0.0930103 0.
0.604002 0.093011 0.
0.606003 0.0930115 0.
0.608004 0.0930113 0.
0.610005 0.0930111 0.
0.612006 0.0930115 0.
0.614007 0.0930125 0.
0.616007 0.0930135 0.
0.618008 0.0930145 0.
0.620009 0.0930154 0.
0.622009 0.0930164 0.
0.62401 0.0930173 0.
0.626011 0.0930181 0.
0.628012 0.0930191 0.
0.630013 0.0930207 0.
0.632013 0.0930224 0.
0.634014 0.0930241 0.
0.636015 0.0930259 0.
0.638015 0.0930277 0.
0.640016 0.093029 0.
0.642017 0.0930299 0.
0.644018 0.0930308 0.
0.646019 0.093032 0.
0.64802 0.0930333 0.
0.650021 0.0930345 0.
0.652023 0.0930357 0.
0.654024 0.0930369 0.
0.656025 0.093038 0.
0.658025 0.0930388 0.
0.660025 0.0930395 0.
0.662026 0.0930401 0.
0.664027 0.0930405 0.
0.666027 0.093041 0.
0.668028 0.0930417 0.
0.670029 0.0930426 0.
0.67203 0.0930435 0.
0.674031 0.0930443 0.
0.676031 0.093045 0.
0.678031 0.0930458 0.
0.680031 0.0930469 0.
0.682031 0.0930481 0.
0.684031 0.093049 0.
0.686031 0.0930496 0.
0.688031 0.0930502 0.
0.690031 0.0930511 0.
0.692031 0.0930523 0.
0.694031 0.0930535 0.
0.696031 0.0930544 0.
0.698031 0.0930552 0.
0.499964 0.0950512 0.
0.501964 0.0950516 0.
0.503965 0.0950519 0.
0.505965 0.0950518 0.
0.507965 0.0950504 0.
0.509964 0.0950491 0.
0.511964 0.0950477 0.
0.513964 0.0950465 0.
0.515965 0.0950453 0.
0.517965 0.0950438 0.
0.519966 0.0950423 0.
0.521967 0.0950408 0.
0.523968 0.0950406 0.
0.525968 0.0950406 0.
0.527969 0.0950405 0.
0.529969 0.0950397 0.
0.53197 0.095039 0.
0.53397 0.0950379 0.
0.535971 0.095036 0.
0.537972 0.0950342 0.
0.539972 0.0950335 0.
0.541973 0.0950336 0.
0.543974 0.0950337 0.
0.545975 0.0950331 0.
0.547976 0.0950324 0.
0.549976 0.0950316 0.
0.551978 0.0950302 0.
0.553979 0.0950288 0.
0.55598 0.0950273 0.
0.557981 0.0950256 0.
0.559983 0.0950238 0.
0.561983 0.0950227 0.
0.563983 0.0950225 0.
0.565983 0.0950222 0.
0.567984 0.0950213 0.
0.569985 0.09502 0.
0.571987 0.0950186 0.
0.573988 0.0950175 0.
0.575989 0.0950165 0.
0.57799 0.0950154 0.
0.579991 0.0950143 0.
0.581992 0.0950132 0.
0.583992 0.0950126 0.
0.585993 0.0950132 0.
0.587994 0.0950138 0.
0.589994 0.0950137 0.
0.591995 0.0950132 0.
0.593995 0.0950127 0.
0.595996 0.0950118 0.
0.597998 0.0950108 0.
0.6 0.0950097 0.
0.602001 0.0950105 0.
0.604002 0.0950113 0.
0.606003 0.0950117 0.
0.608004 0.0950111 0.
0.610005 0.0950105 0.
0.612005 0.0950107 0.
0.614006 0.095012 0.
0.616007 0.0950132 0.
0.618008 0.0950142 0.
0.620008 0.0950151 0.
0.622009 0.0950159 0.
0.624009 0.0950169 0.
0.62601 0.0950179 0.
0.628011 0.095019 0.
0.630012 0.0950203 0.
0.632012 0.0950216 0.
0.634013 0.0950232 0.
0.636014 0.0950254 0.
0.638014 0.0950275 0.
0.640015 0.095029 0.
0.642016 0.0950299 0.
0.644016 0.0950307 0.
0.646017 0.0950318 0.
0.648018 0.095033 0.
0.650019 0.0950342 0.
0.652021 0.0950354 0.
0.654022 0.0950365 0.
0.656023 0.0950376 0.
0.658024 0.0950385 0.
0.660024 0.0950393 0.
0.662025 0.0950399 0.
0.664026 0.0950402 0.
0.666027 0.0950405 0.
0.668028 0.0950413 0.
0.670029 0.0950423 0.
0.67203 0.0950434 0.
0.67403 0.0950442 0.
0.676031 0.095045 0.
0.678031 0.0950459 0.
0.68003 0.0950471 0.
0.68203 0.0950483 0.
0.68403 0.0950492 0.
0.68603 0.0950498 0.
0.68803 0.0950504 0.
0.690031 0.0950514 0.
0.69203 0.0950525 0.
0.69403 0.0950537 0.
0.69603 0.0950544 0.
0.698029 0.0950551 0.
0.499965 0.0970508 0.
0.501966 0.0970513 0.
0.503966 0.0970514 0.
0.505966 0.0970513 0.
0.507966 0.09705 0.
0.509966 0.0970488 0.
0.511967 0.0970476 0.
0.513967 0.0970466 0.
0.515967 0.0970456 0.
0.517967 0.0970441 0.
0.519968 0.0970424 0.
0.521969 0.0970408 0.
0.523969 0.0970406 0.
0.525969 0.0970406 0.
0.527969 0.0970405 0.
0.52997 0.0970394 0.
0.531971 0.0970384 0.
0.533971 0.0970372 0.
0.535972 0.0970357 0.
0.537972 0.0970343 0.
0.539973 0.0970336 0.
0.541974 0.0970334 0.
0.543974 0.0970333 0.
0.545975 0.0970327 0.
0.547977 0.097032 0.
0.549978 0.0970314 0.
0.551979 0.0970297 0.
0.55398 0.097028 0.
0.555981 0.0970264 0.
0.557982 0.0970249 0.
0.559984 0.0970233 0.
0.561984 0.0970223 0.
0.563985 0.097022 0.
0.565986 0.0970218 0.
0.567986 0.097021 0.
0.569987 0.0970199 0.
0.571988 0.0970188 0.
0.573989 0.0970175 0.
0.57599 0.0970162 0.
0.577991 0.0970148 0.
0.579992 0.0970138 0.
0.581992 0.0970127 0.
0.583993 0.0970122 0.
0.585994 0.0970127 0.
0.587994 0.0970133 0.
0.589995 0.0970131 0.
0.591995 0.0970125 0.
0.593996 0.0970118 0.
0.595997 0.097011 0.
0.597999 0.0970102 0.
0.6 0.0970093 0.
0.602001 0.0970099 0.
0.604002 0.0970105 0.
0.606003 0.097011 0.
0.608003 0.0970107 0.
0.610004 0.0970104 0.
0.612004 0.0970109 0.
0.614005 0.0970124 0.
0.616005 0.0970139 0.
0.618006 0.0970146 0.
0.620007 0.097015 0.
0.622007 0.0970153 0.
0.624008 0.0970163 0.
0.626009 0.0970174 0.
0.628009 0.0970186 0.
0.63001 0.09702 0.
0.63201 0.0970214 0.
0.634011 0.0970232 0.
0.636012 0.0970257 0.
0.638013 0.0970282 0.
0.640014 0.0970297 0.
0.642015 0.0970304 0.
0.644016 0.0970311 0.
0.646017 0.0970318 0.
0.648018 0.0970325 0.
0.65002 0.0970331 0.
0.652021 0.0970347 0.
0.654022 0.0970363 0.
0.656023 0.0970376 0.
0.658023 0.0970379 0.
0.660024 0.0970383 0.
0.662024 0.0970388 0.
0.664025 0.0970395 0.
0.666027 0.0970401 0.
0.668027 0.097041 0.
0.670028 0.0970421 0.
0.672029 0.0970432 0.
0.674029 0.0970443 0.
0.67603 0.0970454 0.
0.67803 0.0970465 0.
0.680029 0.0970473 0.
0.682029 0.0970482 0.
0.684029 0.097049 0.
0.686029 0.0970498 0.
0.68803 0.0970507 0.
0.69003 0.0970517 0.
0.692029 0.0970528 0.
0.694029 0.0970539 0.
0.696029 0.0970545 0.
0.698028 0.097055 0.
0.499967 0.0990506 0.
0.501967 0.0990511 0.
0.503966 0.099051 0.
0.505966 0.0990507 0.
0.507967 0.0990496 0.
0.509969 0.0990484 0.
0.511969 0.0990475 0.
0.513969 0.0990467 0.
0.51597 0.0990458 0.
0.51797 0.0990444 0.
0.51997 0.0990426 0.
0.52197 0.0990408 0.
0.52397 0.0990406 0.
0.52597 0.0990406 0.
0.52797 0.0990405 0.
0.529971 0.0990391 0.
0.531972 0.0990377 0.
0.533972 0.0990364 0.
0.535973 0.0990354 0.
0.537973 0.0990344 0.
0.539974 0.0990337 0.
0.541974 0.0990333 0.
0.543974 0.0990328 0.
0.545976 0.0990323 0.
0.547977 0.0990317 0.
0.549979 0.0990311 0.
0.55198 0.0990292 0.
0.553981 0.0990273 0.
0.555982 0.0990255 0.
0.557983 0.0990241 0.
0.559985 0.0990228 0.
0.561986 0.0990219 0.
0.563987 0.0990216 0.
0.565988 0.0990213 0.
0.567988 0.0990207 0.
0.569989 0.0990198 0.
0.57199 0.0990189 0.
0.57399 0.0990174 0.
0.575991 0.0990158 0.
0.577991 0.0990143 0.
0.579992 0.0990133 0.
0.581993 0.0990123 0.
0.583994 0.0990118 0.
0.585994 0.0990122 0.
0.587994 0.0990127 0.
0.589995 0.0990125 0.
0.591996 0.0990117 0.
0.593997 0.099011 0.
0.595998 0.0990103 0.
0.597999 0.0990096 0.
0.600001 0.099009 0.
0.602001 0.0990094 0.
0.604002 0.0990098 0.
0.606003 0.0990101 0.
0.608003 0.0990103 0.
0.610003 0.0990104 0.
0.612004 0.0990112 0.
0.614004 0.0990129 0.
0.616004 0.0990145 0.
0.618005 0.099015 0.
0.620005 0.0990148 0.
0.622006 0.0990147 0.
0.624007 0.0990157 0.
0.626007 0.0990169 0.
0.628008 0.0990182 0.
0.630008 0.0990197 0.
0.632008 0.0990211 0.
0.634009 0.0990231 0.
0.636011 0.099026 0.
0.638013 0.0990289 0.
0.640014 0.0990305 0.
0.642015 0.099031 0.
0.644016 0.0990316 0.
0.646017 0.0990318 0.
0.648019 0.099032 0.
0.65002 0.0990321 0.
0.65202 0.0990341 0.
0.654021 0.099036 0.
0.656022 0.0990375 0.
0.658022 0.0990374 0.
0.660023 0.0990373 0.
0.662024 0.0990377 0.
0.664025 0.0990387 0.
0.666026 0.0990398 0.
0.668027 0.0990408 0.
0.670028 0.0990419 0.
0.672028 0.099043 0.
0.674028 0.0990443 0.
0.676029 0.0990457 0.
0.678029 0.0990471 0.
0.680028 0.0990476 0.
0.682028 0.0990481 0.
0.684028 0.0990488 0.
0.686028 0.0990498 0.
0.688029 0.0990509 0.
0.690029 0.099052 0.
0.692028 0.0990531 0.
0.694028 0.0990541 0.
0.696028 0.0990546 0.
0.698027 0.0990549 0.
CELLS 5000 10000
1 0
1 1
1 2
1 3
1 4
1 5
1 6
1 7
1 8
1 9
1 10
1 11
1 12
1 13
1 14
1 15
1 16
1 17
1 18
1 19
1 20
1 21
1 22
1 23
1 24
1 25
1 26
1 27
1 28
1 29
1 30
1 31
1 32
1 33
1 34
1 35
1 36
1 37
1 38
1 39
1 40
1 41
1 42
1 43
1 44
1 45
1 46
1 47
1 48
1 49
1 50
1 51
1 52
1 53
1 54
1 55
1 56
1 57
1 58
1 59
1 60
1 61
1 62
1 63
1 64
1 65
1 66
1 67
1 68
1 69
1 70
1 71
1 72
1 73
1 74
1 75
1 76
1 77
1 78
1 79
1 80
1 81
1 82
1 83
1 84
1 85
1 86
1 87
1 88
1 89
1 90
1 91
1 92
1 93
1 94
1 95
1 96
1 97
1 98
1 99
1 100
1 101
1 102
1 103
1 104
1 105
1 106
1 107
1 108
1 109
1 110
1 111
1 112
1 113
1 114
1 115
1 116
1 117
1 118
1 119
1 120
1 121
1 122
1 123
1 124
1 125
1 126
1 127
1 128
1 129
1 130
1 131
1 132
1 133
1 134
1 135
1 136
1 137
1 138
1 139
1 140
1 141
1 142
1 143
1 144
1 145
1 146
1 147
1 148
1 149
1 150
1 151
1 152
1 153
1 154
1 155
1 156
1 157
1 158
1 159
1 160
1 161
1 162
1 163
1 164
1 165
1 166
1 167
1 168
1 169
1 170
1 171
1 172
1 173
1 174
1 175
1 176
1 177
1 178
1 179
1 180
1 181
1 182
1 183
1 184
1 185
1 186
1 187
1 188
1 189
1 190
1 191
1 192
1 193
1 194
1 195
1 196
1 197
1 198
1 199
1 200
1 201
1 202
1 203
1 204
1 205
1 206
1 207
1 208
1 209
1 210
1 211
1 212
1 213
1 214
1 215
1 216
1 217
1 218
1 219
1 220
1 221
1 222
1 223
1 224
1 225
1 226
1 227
1 228
1 229
1 230
1 231
1 232
1 233
1 234
1 235
1 236
1 237
1 238
1 239
1 240
1 241
1 242
1 243
1 244
1 245
1 246
1 247
1 248
1 249
1 250
1 251
1 252
1 253
1 254
1 255
1 256
1 257
1 258
1 259
1 260
1 261
1 262
1 263
1 264
1 265
1 266
1 267
1 268
1 269
1 270
1 271
1 272
1 273
1 274
1 275
1 276
1 277
1 278
1 279
1 280
1 281
1 282
1 283
1 284
1 285
1 286
1 287
1 288
1 289
1 290
1 291
1 292
1 293
1 294
1 295
1 296
1 297
1 298
1 299
1 300
1 301
1 302
1 303
1 304
1 305
1 306
1 307
1 308
1 309
1 310
1 311
1 312
1 313
1 314
1 315
1 316
1 317
1 318
1 319
1 320
1 321
1 322
1 323
1 324
1 325
1 326
1 327
1 328
1 329
1 330
1 331
1 332
1 333
1 334
1 335
1 336
1 337
1 338
1 339
1 340
1 341
1 342
1 343
1 344
1 345
1 346
1 347
1 348
1 349
1 350
1 351
1 352
1 353
1 354
1 355
1 356
1 357
1 358
1 359
1 360
1 361
1 362
1 363
1 364
1 365
1 366
1 367
1 368
1 369
1 370
1 371
1 372
1 373
1 374
1 375
1 376
1 377
1 378
1 379
1 380
1 381
1 382
1 383
1 384
1 385
1 386
1 387
1 388
1 389
1 390
1 391
1 392
1 393
1 394
1 395
1 396
1 397
1 398
1 399
1 400
1 401
1 402
1 403
1 404
1 405
1 406
1 407
1 408
1 409
1 410
1 411
1 412
1 413
1 414
1 415
1 416
1 417
1 418
1 419
1 420
1 421
1 422
1 423
1 424
1 425
1 426
1 427
1 428
1 429
1 430
1 431
1 432
1 433
1 434
1 435
1 436
1 437
1 438
1 439
1 440
1 441
1 442
1 443
1 444
1 445
1 446
1 447
1 448
1 449
1 450
1 451
1 452
1 453
1 454
1 455
1 456
1 457
1 458
1 459
1 460
1 461
1 462
1 463
1 464
1 465
1 466
1 467
1 468
1 469
1 470
1 471
1 472
1 473
1 474
1 475
1 476
1 477
1 478
1 479
1 480
1 481
1 482
1 483
1 484
1 485
1 486
1 487
1 488
1 489
1 490
1 491
1 492
1 493
1 494
1 495
1 496
1 497
1 498
1 499
1 500
1 501
1 502
1 503
1 504
1 505
1 506
1 507
1 508
1 509
1 510
1 511
1 512
1 513
1 514
1 515
1 516
1 517
1 518
1 519
1 520
1 521
1 522
1 523
1 524
1 525
1 526
1 527
1 528
1 529
1 530
1 531
1 532
1 533
1 534
1 535
1 536
1 537
1 538
1 539
1 540
1 541
1 542
1 543
1 544
1 545
1 546
1 547
1 548
1 549
1 550
1 551
1 552
1 553
1 554
1 555
1 556
1 557
1 558
1 559
1 560
1 561
1 562
1 563
1 564
1 565
1 566
1 567
1 568
1 569
1 570
1 571
1 572
1 573
1 574
1 575
1 576
1 577
1 578
1 579
1 580
1 581
1 582
1 583
1 584
1 585
1 586
1 587
1 588
1 589
1 590
1 591
1 592
1 593
1 594
1 595
1 596
1 597
1 598
1 599
1 600
1 601
1 602
1 603
1 604
1 605
1 606
1 607
1 608
1 609
1 610
1 611
1 612
1 613
1 614
1 615
1 616
1 617
1 618
1 619
1 620
1 621
1 622
1 623
1 624
1 625
1 626
1 627
1 628
1 629
1 630
1 631
1 632
1 633
1 634
1 635
1 636
1 637
1 638
1 639
1 640
1 641
1 642
1 643
1 644
1 645
1 646
1 647
1 648
1 649
1 650
1 651
1 652
1 653
1 654
1 655
1 656
1 657
1 658
1 659
1 660
1 661
1 662
1 663
1 664
1 665
1 666
1 667
1 668
1 669
1 670
1 671
1 672
1 673
1 674
1 675
1 676
1 677
1 678
1 679
1 680
1 681
1 682
1 683
1 684
1 685
1 686
1 687
1 688
1 689
1 690
1 691
1 692
1 693
1 694
1 695
1 696
1 697
1 698
1 699
1 700
1 701
1 702
1 703
1 704
1 705
1 706
1 707
1 708
1 709
1 710
1 711
1 712
1 713
1 714
1 715
1 716
1 717
1 718
1 719
1 720
1 721
1 722
1 723
1 724
1 725
1 726
1 727
1 728
1 729
1 730
1 731
1 732
1 733
1 734
1 735
1 736
1 737
1 738
1 739
1 740
1 741
1 742
1 743
1 744
1 745
1 746
1 747
1 748
1 749
1 750
1 751
1 752
1 753
1 754
1 755
1 756
1 757
1 758
1 759
1 760
1 761
1 762
1 763
1 764
1 765
1 766
1 767
1 768
1 769
1 770
1 771
1 772
1 773
1 774
1 775
1 776
1 777
1 778
1 779
1 780
1 781
1 782
1 783
1 784
1 785
1 786
1 787
1 788
1 789
1 790
1 791
1 792
1 793
1 794
1 795
1 796
1 797
1 798
1 799
1 800
1 801
1 802
1 803
1 804
1 805
1 806
1 807
1 808
1 809
1 810
1 811
1 812
1 813
1 814
1 815
1 816
1 817
1 818
1 819
1 820
1 821
1 822
1 823
1 824
1 825
1 826
1 827
1 828
1 829
1 830
1 831
1 832
1 833
1 834
1 835
1 836
1 837
1 838
1 839
1 840
1 841
1 842
1 843
1 844
1 845
1 846
1 847
1 848
1 849
1 850
1 851
1 852
1 853
1 854
1 855
1 856
1 857
1 858
1 859
1 860
1 861
1 862
1 863
1 864
1 865
1 866
1 867
1 868
1 869
1 870
1 871
1 872
1 873
1 874
1 875
1 876
1 877
1 878
1 879
1 880
1 881
1 882
1 883
1 884
1 885
1 886
1 887
1 888
1 889
1 890
1 891
1 892
1 893
1 894
1 895
1 896
1 897
1 898
1 899
1 900
1 901
1 902
1 903
1 904
1 905
1 906
1 907
1 908
1 909
1 910
1 911
1 912
1 913
1 914
1 915
1 916
1 917
1 918
1 919
1 920
1 921
1 922
1 923
1 924
1 925
1 926
1 927
1 928
1 929
1 930
1 931
1 932
1 933
1 934
1 935
1 936
1 937
1 938
1 939
1 940
1 941
1 942
1 943
1 944
1 945
1 946
1 947
1 948
1 949
1 950
1 951
1 952
1 953
1 954
1 955
1 956
1 957
1 958
1 959
1 960
1 961
1 962
1 963
1 964
1 965
1 966
1 967
1 968
1 969
1 970
1 971
1 972
1 973
1 974
1 975
1 976
1 977
1 978
1 979
1 980
1 981
1 982
1 983
1 984
1 985
1 986
1 987
1 988
1 989
1 990
1 991
1 992
1 993
1 994
1 995
1 996
1 997
1 998
1 999
1 1000
1 1001
1 1002
1 1003
1 1004
1 1005
1 1006
1 1007
1 1008
1 1009
1 1010
1 1011
1 1012
1 1013
1 1014
1 1015
1 1016
1 1017
1 1018
1 1019
1 1020
1 1021
1 1022
1 1023
1 1024
1 1025
1 1026
1 1027
1 1028
1 1029
1 1030
1 1031
1 1032
1 1033
1 1034
1 1035
1 1036
1 1037
1 1038
1 1039
1 1040
1 1041
1 1042
1 1043
1 1044
1 1045
1 1046
1 1047
1 1048
1 1049
1 1050
1 1051
1 1052
1 1053
1 1054
1 1055
1 1056
1 1057
1 1058
1 1059
1 1060
1 1061
1 1062
1 1063
1 1064
1 1065
1 1066
1 1067
1 1068
1 1069
1 1070
1 1071
1 1072
1 1073
1 1074
1 1075
1 1076
1 1077
1 1078
1 1079
1 1080
1 1081
1 1082
1 1083
1 1084
1 1085
1 1086
1 1087
1 1088
1 1089
1 1090
1 1091
1 1092
1 1093
1 1094
1 1095
1 1096
1 1097
1 1098
1 1099
1 1100
1 1101
1 1102
1 1103
1 1104
1 1105
1 1106
1 1107
1 1108
1 1109
1 1110
1 1111
1 1112
1 1113
1 1114
1 1115
1 1116
1 1117
1 1118
1 1119
1 1120
1 1121
1 1122
1 1123
1 1124
1 1125
1 1126
1 1127
1 1128
1 1129
1 1130
1 1131
1 1132
1 1133
1 1134
1 1135
1 1136
1 1137
1 1138
1 1139
1 1140
1 1141
1 1142
1 1143
1 1144
1 1145
1 1146
1 1147
1 1148
1 1149
1 1150
1 1151
1 1152
1 1153
1 1154
1 1155
1 1156
1 1157
1 1158
1 1159
1 1160
1 1161
1 1162
1 1163
1 1164
1 1165
1 1166
1 1167
1 1168
1 1169
1 1170
1 1171
1 1172
1 1173
1 1174
1 1175
1 1176
1 1177
1 1178
1 1179
1 1180
1 1181
1 1182
1 1183
1 1184
1 1185
1 1186
1 1187
1 1188
1 1189
1 1190
1 1191
1 1192
1 1193
1 1194
1 1195
1 1196
1 1197
1 1198
1 1199
1 1200
1 1201
1 1202
1 1203
1 1204
1 1205
1 1206
1 1207
1 1208
1 1209
1 1210
1 1211
1 1212
1 1213
1 1214
1 1215
1 1216
1 1217
1 1218
1 1219
1 1220
1 1221
1 1222
1 1223
1 1224
1 1225
1 1226
1 1227
1 1228
1 1229
1 1230
1 1231
1 1232
1 1233
1 1234
1 1235
1 1236
1 1237
1 1238
1 1239
1 1240
1 1241
1 1242
1 1243
1 1244
1 1245
1 1246
1 1247
1 1248
1 1249
1 1250
1 1251
1 1252
1 1253
1 1254
1 1255
1 1256
1 1257
1 1258
1 1259
1 1260
1 1261
1 1262
1 1263
1 1264
1 1265
1 1266
1 1267
1 1268
1 1269
1 1270
1 1271
1 1272
1 1273
1 1274
1 1275
1 1276
1 1277
1 1278
1 1279
1 1280
1 1281
1 1282
1 1283
1 1284
1 1285
1 1286
1 1287
1 1288
1 1289
1 1290
1 1291
1 1292
1 1293
1 1294
1 1295
1 1296
1 1297
1 1298
1 1299
1 1300
1 1301
1 1302
1 1303
1 1304
1 1305
1 1306
1 1307
1 1308
1 1309
1 1310
1 1311
1 1312
1 1313
1 1314
1 1315
1 1316
1 1317
1 1318
1 1319
1 1320
1 1321
1 1322
1 1323
1 1324
1 1325
1 1326
1 1327
1 1328
1 1329
1 1330
1 1331
1 1332
1 1333
1 1334
1 1335
1 1336
1 1337
1 1338
1 1339
1 1340
1 1341
1 1342
1 1343
1 1344
1 1345
1 1346
1 1347
1 1348
1 1349
1 1350
1 1351
1 1352
1 1353
1 1354
1 1355
1 1356
1 1357
1 1358
1 1359
1 1360
1 1361
1 1362
1 1363
1 1364
1 1365
1 1366
1 1367
1 1368
1 1369
1 1370
1 1371
1 1372
1 1373
1 1374
1 1375
1 1376
1 1377
1 1378
1 1379
1 1380
1 1381
1 1382
1 1383
1 1384
1 1385
1 1386
1 1387
1 1388
1 1389
1 1390
1 1391
1 1392
1 1393
1 1394
1 1395
1 1396
1 1397
1 1398
1 1399
1 1400
1 1401
1 1402
1 1403
1 1404
1 1405
1 1406
1 1407
1 1408
1 1409
1 1410
1 1411
1 1412
1 1413
1 1414
1 1415
1 1416
1 1417
1 1418
1 1419
1 1420
1 1421
1 1422
1 1423
1 1424
1 1425
1 1426
1 1427
1 1428
1 1429
1 1430
1 1431
1 1432
1 1433
1 1434
1 1435
1 1436
1 1437
1 1438
1 1439
1 1440
1 1441
1 1442
1 1443
1 1444
1 1445
1 1446
1 1447
1 1448
1 1449
1 1450
1 1451
1 1452
1 1453
1 1454
1 1455
1 1456
1 1457
1 1458
1 1459
1 1460
1 1461
1 1462
1 1463
1 1464
1 1465
1 1466
1 1467
1 1468
1 1469
1 1470
1 1471
1 1472
1 1473
1 1474
1 1475
1 1476
1 1477
1 1478
1 1479
1 1480
1 1481
1 1482
1 1483
1 1484
1 1485
1 1486
1 1487
1 1488
1 1489
1 1490
1 1491
1 1492
1 1493
1 1494
1 1495
1 1496
1 1497
1 1498
1 1499
1 1500
1 1501
1 1502
1 1503
1 1504
1 1505
1 1506
1 1507
1 1508
1 1509
1 1510
1 1511
1 1512
1 1513
1 1514
1 1515
1 1516
1 1517
1 1518
1 1519
1 1520
1 1521
1 1522
1 1523
1 1524
1 1525
1 1526
1 1527
1 1528
1 1529
1 1530
1 1531
1 1532
1 1533
1 1534
1 1535
1 1536
1 1537
1 1538
1 1539
1 1540
1 1541
1 1542
1 1543
1 1544
1 1545
1 1546
1 1547
1 1548
1 1549
1 1550
1 1551
1 1552
1 1553
1 1554
1 1555
1 1556
1 1557
1 1558
1 1559
1 1560
1 1561
1 1562
1 1563
1 1564
1 1565
1 1566
1 1567
1 1568
1 1569
1 1570
1 1571
1 1572
1 1573
1 1574
1 1575
1 1576
1 1577
1 1578
1 1579
1 1580
1 1581
1 1582
1 1583
1 1584
1 1585
1 1586
1 1587
1 1588
1 1589
1 1590
1 1591
1 1592
1 1593
1 1594
1 1595
1 1596
1 1597
1 1598
1 1599
1 1600
1 1601
1 1602
1 1603
1 1604
1 1605
1 1606
1 1607
1 1608
1 1609
1 1610
1 1611
1 1612
1 1613
1 1614
1 1615
1 1616
1 1617
1 1618
1 1619
1 1620
1 1621
1 1622
1 1623
1 1624
1 1625
1 1626
1 1627
1 1628
1 1629
1 1630
1 1631
1 1632
1 1633
1 1634
1 1635
1 1636
1 1637
1 1638
1 1639
1 1640
1 1641
1 1642
1 1643
1 1644
1 1645
1 1646
1 1647
1 1648
1 1649
1 1650
1 1651
1 1652
1 1653
1 1654
1 1655
1 1656
1 1657
1 1658
1 1659
1 1660
1 1661
1 1662
1 1663
1 1664
1 1665
1 1666
1 1667
1 1668
1 1669
1 1670
1 1671
1 1672
1 1673
1 1674
1 1675
1 1676
1 1677
1 1678
1 1679
1 1680
1 1681
1 1682
1 1683
1 1684
1 1685
1 1686
1 1687
1 1688
1 1689
1 1690
1 1691
1 1692
1 1693
1 1694
1 1695
1 1696
1 1697
1 1698
1 1699
1 1700
1 1701
1 1702
1 1703
1 1704
1 1705
1 1706
1 1707
1 1708
1 1709
1 1710
1 1711
1 1712
1 1713
1 1714
1 1715
1 1716
1 1717
1 1718
1 1719
1 1720
1 1721
1 1722
1 1723
1 1724
1 1725
1 1726
1 1727
1 1728
1 1729
1 1730
1 1731
1 1732
1 1733
1 1734
1 1735
1 1736
1 1737
1 1738
1 1739
1 1740
1 1741
1 1742
1 1743
1 1744
1 1745
1 1746
1 1747
1 1748
1 1749
1 1750
1 1751
1 1752
1 1753
1 1754
1 1755
1 1756
1 1757
1 1758
1 1759
1 1760
1 1761
1 1762
1 1763
1 1764
1 1765
1 1766
1 1767
1 1768
1 1769
1 1770
1 1771
1 1772
1 1773
1 1774
1 1775
1 1776
1 1777
1 1778
1 1779
1 1780
1 1781
1 1782
1 1783
1 1784
1 1785
1 1786
1 1787
1 1788
1 1789
1 1790
1 1791
1 1792
1 1793
1 1794
1 1795
1 1796
1 1797
1 1798
1 1799
1 1800
1 1801
1 1802
1 1803
1 1804
1 1805
1 1806
1 1807
1 1808
1 1809
1 1810
1 1811
1 1812
1 1813
1 1814
1 1815
1 1816
1 1817
1 1818
1 1819
1 1820
1 1821
1 1822
1 1823
1 1824
1 1825
1 1826
1 1827
1 1828
1 1829
1 1830
1 1831
1 1832
1 1833
1 1834
1 1835
1 1836
1 1837
1 1838
1 1839
1 1840
1 1841
1 1842
1 1843
1 1844
1 1845
1 1846
1 1847
1 1848
1 1849
1 1850
1 1851
1 1852
1 1853
1 1854
1 1855
1 1856
1 1857
1 1858
1 1859
1 1860
1 1861
1 1862
1 1863
1 1864
1 1865
1 1866
1 1867
1 1868
1 1869
1 1870
1 1871
1 1872
1 1873
1 1874
1 1875
1 1876
1 1877
1 1878
1 1879
1 1880
1 1881
1 1882
1 1883
1 1884
1 1885
1 1886
1 1887
1 1888
1 1889
1 1890
1 1891
1 1892
1 1893
1 1894
1 1895
1 1896
1 1897
1 1898
1 1899
1 1900
1 1901
1 1902
1 1903
1 1904
1 1905
1 1906
1 1907
1 1908
1 1909
1 1910
1 1911
1 1912
1 1913
1 1914
1 1915
1 1916
1 1917
1 1918
1 1919
1 1920
1 1921
1 1922
1 1923
1 1924
1 1925
1 1926
1 1927
1 1928
1 1929
1 1930
1 1931
1 1932
1 1933
1 1934
1 1935
1 1936
1 1937
1 1938
1 1939
1 1940
1 1941
1 1942
1 1943
1 1944
1 1945
1 1946
1 1947
1 1948
1 1949
1 1950
1 1951
1 1952
1 1953
1 1954
1 1955
1 1956
1 1957
1 1958
1 1959
1 1960
1 1961
1 1962
1 1963
1 1964
1 1965
1 1966
1 1967
1 1968
1 1969
1 1970
1 1971
1 1972
1 1973
1 1974
1 1975
1 1976
1 1977
1 1978
1 1979
1 1980
1 1981
1 1982
1 1983
1 1984
1 1985
1 1986
1 1987
1 1988
1 1989
1 1990
1 1991
1 1992
1 1993
1 1994
1 1995
1 1996
1 1997
1 1998
1 1999
1 2000
1 2001
1 2002
1 2003
1 2004
1 2005
1 2006
1 2007
1 2008
1 2009
1 2010
1 2011
1 2012
1 2013
1 2014
1 2015
1 2016
1 2017
1 2018
1 2019
1 2020
1 2021
1 2022
1 2023
1 2024
1 2025
1 2026
1 2027
1 2028
1 2029
1 2030
1 2031
1 2032
1 2033
1 2034
1 2035
1 2036
1 2037
1 2038
1 2039
1 2040
1 2041
1 2042
1 2043
1 2044
1 2045
1 2046
1 2047
1 2048
1 2049
1 2050
1 2051
1 2052
1 2053
1 2054
1 2055
1 2056
1 2057
1 2058
1 2059
1 2060
1 2061
1 2062
1 2063
1 2064
1 2065
1 2066
1 2067
1 2068
1 2069
1 2070
1 2071
1 2072
1 2073
1 2074
1 2075
1 2076
1 2077
1 2078
1 2079
1 2080
1 2081
1 2082
1 2083
1 2084
1 2085
1 2086
1 2087
1 2088
1 2089
1 2090
1 2091
1 2092
1 2093
1 2094
1 2095
1 2096
1 2097
1 2098
1 2099
1 2100
1 2101
1 2102
1 2103
1 2104
1 2105
1 2106
1 2107
1 2108
1 2109
1 2110
1 2111
1 2112
1 2113
1 2114
1 2115
1 2116
1 2117
1 2118
1 2119
1 2120
1 2121
1 2122
1 2123
1 2124
1 2125
1 2126
1 2127
1 2128
1 2129
1 2130
1 2131
1 2132
1 2133
1 2134
1 2135
1 2136
1 2137
1 2138
1 2139
1 2140
1 2141
1 2142
1 2143
1 2144
1 2145
1 2146
1 2147
1 2148
1 2149
1 2150
1 2151
1 2152
1 2153
1 2154
1 2155
1 2156
1 2157
1 2158
1 2159
1 2160
1 2161
1 2162
1 2163
1 2164
1 2165
1 2166
1 2167
1 2168
1 2169
1 2170
1 2171
1 2172
1 2173
1 2174
1 2175
1 2176
1 2177
1 2178
1 2179
1 2180
1 2181
1 2182
1 2183
1 2184
1 2185
1 2186
1 2187
1 2188
1 2189
1 2190
1 2191
1 2192
1 2193
1 2194
1 2195
1 2196
1 2197
1 2198
1 2199
1 2200
1 2201
1 2202
1 2203
1 2204
1 2205
1 2206
1 2207
1 2208
1 2209
1 2210
1 2211
1 2212
1 2213
1 2214
1 2215
1 2216
1 2217
1 2218
1 2219
1 2220
1 2221
1 2222
1 2223
1 2224
1 2225
1 2226
1 2227
1 2228
1 2229
1 2230
1 2231
1 2232
1 2233
1 2234
1 2235
1 2236
1 2237
1 2238
1 2239
1 2240
1 2241
1 2242
1 2243
1 2244
1 2245
1 2246
1 2247
1 2248
1 2249
1 2250
1 2251
1 2252
1 2253
1 2254
1 2255
1 2256
1 2257
1 2258
1 2259
1 2260
1 2261
1 2262
1 2263
1 2264
1 2265
1 2266
1 2267
1 2268
1 2269
1 2270
1 2271
1 2272
1 2273
1 2274
1 2275
1 2276
1 2277
1 2278
1 2279
1 2280
1 2281
1 2282
1 2283
1 2284
1 2285
1 2286
1 2287
1 2288
1 2289
1 2290
1 2291
1 2292
1 2293
1 2294
1 2295
1 2296
1 2297
1 2298
1 2299
1 2300
1 2301
1 2302
1 2303
1 2304
1 2305
1 2306
1 2307
1 2308
1 2309
1 2310
1 2311
1 2312
1 2313
1 2314
1 2315
1 2316
1 2317
1 2318
1 2319
1 2320
1 2321
1 2322
1 2323
1 2324
1 2325
1 2326
1 2327
1 2328
1 2329
1 2330
1 2331
1 2332
1 2333
1 2334
1 2335
1 2336
1 2337
1 2338
1 2339
1 2340
1 2341
1 2342
1 2343
1 2344
1 2345
1 2346
1 2347
1 2348
1 2349
1 2350
1 2351
1 2352
1 2353
1 2354
1 2355
1 2356
1 2357
1 2358
1 2359
1 2360
1 2361
1 2362
1 2363
1 2364
1 2365
1 2366
1 2367
1 2368
1 2369
1 2370
1 2371
1 2372
1 2373
1 2374
1 2375
1 2376
1 2377
1 2378
1 2379
1 2380
1 2381
1 2382
1 2383
1 2384
1 2385
1 2386
1 2387
1 2388
1 2389
1 2390
1 2391
1 2392
1 2393
1 2394
1 2395
1 2396
1 2397
1 2398
1 2399
1 2400
1 2401
1 2402
1 2403
1 2404
1 2405
1 2406
1 2407
1 2408
1 2409
1 2410
1 2411
1 2412
1 2413
1 2414
1 2415
1 2416
1 2417
1 2418
1 2419
1 2420
1 2421
1 2422
1 2423
1 2424
1 2425
1 2426
1 2427
1 2428
1 2429
1 2430
1 2431
1 2432
1 2433
1 2434
1 2435
1 2436
1 2437
1 2438
1 2439
1 2440
1 2441
1 2442
1 2443
1 2444
1 2445
1 2446
1 2447
1 2448
1 2449
1 2450
1 2451
1 2452
1 2453
1 2454
1 2455
1 2456
1 2457
1 2458
1 2459
1 2460
1 2461
1 2462
1 2463
1 2464
1 2465
1 2466
1 2467
1 2468
1 2469
1 2470
1 2471
1 2472
1 2473
1 2474
1 2475
1 2476
1 2477
1 2478
1 2479
1 2480
1 2481
1 2482
1 2483
1 2484
1 2485
1 2486
1 2487
1 2488
1 2489
1 2490
1 2491
1 2492
1 2493
1 2494
1 2495
1 2496
1 2497
1 2498
1 2499
1 2500
1 2501
1 2502
1 2503
1 2504
1 2505
1 2506
1 2507
1 2508
1 2509
1 2510
1 2511
1 2512
1 2513
1 2514
1 2515
1 2516
1 2517
1 2518
1 2519
1 2520
1 2521
1 2522
1 2523
1 2524
1 2525
1 2526
1 2527
1 2528
1 2529
1 2530
1 2531
1 2532
1 2533
1 2534
1 2535
1 2536
1 2537
1 2538
1 2539
1 2540
1 2541
1 2542
1 2543
1 2544
1 2545
1 2546
1 2547
1 2548
1 2549
1 2550
1 2551
1 2552
1 2553
1 2554
1 2555
1 2556
1 2557
1 2558
1 2559
1 2560
1 2561
1 2562
1 2563
1 2564
1 2565
1 2566
1 2567
1 2568
1 2569
1 2570
1 2571
1 2572
1 2573
1 2574
1 2575
1 2576
1 2577
1 2578
1 2579
1 2580
1 2581
1 2582
1 2583
1 2584
1 2585
1 2586
1 2587
1 2588
1 2589
1 2590
1 2591
1 2592
1 2593
1 2594
1 2595
1 2596
1 2597
1 2598
1 2599
1 2600
1 2601
1 2602
1 2603
1 2604
1 2605
1 2606
1 2607
1 2608
1 2609
1 2610
1 2611
1 2612
1 2613
1 2614
1 2615
1 2616
1 2617
1 2618
1 2619
1 2620
1 2621
1 2622
1 2623
1 2624
1 2625
1 2626
1 2627
1 2628
1 2629
1 2630
1 2631
1 2632
1 2633
1 2634
1 2635
1 2636
1 2637
1 2638
1 2639
1 2640
1 2641
1 2642
1 2643
1 2644
1 2645
1 2646
1 2647
1 2648
1 2649
1 2650
1 2651
1 2652
1 2653
1 2654
1 2655
1 2656
1 2657
1 2658
1 2659
1 2660
1 2661
1 2662
1 2663
1 2664
1 2665
1 2666
1 2667
1 2668
1 2669
1 2670
1 2671
1 2672
1 2673
1 2674
1 2675
1 2676
1 2677
1 2678
1 2679
1 2680
1 2681
1 2682
1 2683
1 2684
1 2685
1 2686
1 2687
1 2688
1 2689
1 2690
1 2691
1 2692
1 2693
1 2694
1 2695
1 2696
1 2697
1 2698
1 2699
1 2700
1 2701
1 2702
1 2703
1 2704
1 2705
1 2706
1 2707
1 2708
1 2709
1 2710
1 2711
1 2712
1 2713
1 2714
1 2715
1 2716
1 2717
1 2718
1 2719
1 2720
1 2721
1 2722
1 2723
1 2724
1 2725
1 2726
1 2727
1 2728
1 2729
1 2730
1 2731
1 2732
1 2733
1 2734
1 2735
1 2736
1 2737
1 2738
1 2739
1 2740
1 2741
1 2742
1 2743
1 2744
1 2745
1 2746
1 2747
1 2748
1 2749
1 2750
1 2751
1 2752
1 2753
1 2754
1 2755
1 2756
1 2757
1 2758
1 2759
1 2760
1 2761
1 2762
1 2763
1 2764
1 2765
1 2766
1 2767
1 2768
1 2769
1 2770
1 2771
1 2772
1 2773
1 2774
1 2775
1 2776
1 2777
1 2778
1 2779
1 2780
1 2781
1 2782
1 2783
1 2784
1 2785
1 2786
1 2787
1 2788
1 2789
1 2790
1 2791
1 2792
1 2793
1 2794
1 2795
1 2796
1 2797
1 2798
1 2799
1 2800
1 2801
1 2802
1 2803
1 2804
1 2805
1 2806
1 2807
1 2808
1 2809
1 2810
1 2811
1 2812
1 2813
1 2814
1 2815
1 2816
1 2817
1 2818
1 2819
1 2820
1 2821
1 2822
1 2823
1 2824
1 2825
1 2826
1 2827
1 2828
1 2829
1 2830
1 2831
1 2832
1 2833
1 2834
1 2835
1 2836
1 2837
1 2838
1 2839
1 2840
1 2841
1 2842
1 2843
1 2844
1 2845
1 2846
1 2847
1 2848
1 2849
1 2850
1 2851
1 2852
1 2853
1 2854
1 2855
1 2856
1 2857
1 2858
1 2859
1 2860
1 2861
1 2862
1 2863
1 2864
1 2865
1 2866
1 2867
1 2868
1 2869
1 2870
1 2871
1 2872
1 2873
1 2874
1 2875
1 2876
1 2877
1 2878
1 2879
1 2880
1 2881
1 2882
1 2883
1 2884
1 2885
1 2886
1 2887
1 2888
1 2889
1 2890
1 2891
1 2892
1 2893
1 2894
1 2895
1 2896
1 2897
1 2898
1 2899
1 2900
1 2901
1 2902
1 2903
1 2904
1 2905
1 2906
1 2907
1 2908
1 2909
1 2910
1 2911
1 2912
1 2913
1 2914
1 2915
1 2916
1 2917
1 2918
1 2919
1 2920
1 2921
1 2922
1 2923
1 2924
1 2925
1 2926
1 2927
1 2928
1 2929
1 2930
1 2931
1 2932
1 2933
1 2934
1 2935
1 2936
1 2937
1 2938
1 2939
1 2940
1 2941
1 2942
1 2943
1 2944
1 2945
1 2946
1 2947
1 2948
1 2949
1 2950
1 2951
1 2952
1 2953
1 2954
1 2955
1 2956
1 2957
1 2958
1 2959
1 2960
1 2961
1 2962
1 2963
1 2964
1 2965
1 2966
1 2967
1 2968
1 2969
1 2970
1 2971
1 2972
1 2973
1 2974
1 2975
1 2976
1 2977
1 2978
1 2979
1 2980
1 2981
1 2982
1 2983
1 2984
1 2985
1 2986
1 2987
1 2988
1 2989
1 2990
1 2991
1 2992
1 2993
1 2994
1 2995
1 2996
1 2997
1 2998
1 2999
1 3000
1 3001
1 3002
1 3003
1 3004
1 3005
1 3006
1 3007
1 3008
1 3009
1 3010
1 3011
1 3012
1 3013
1 3014
1 3015
1 3016
1 3017
1 3018
1 3019
1 3020
1 3021
1 3022
1 3023
1 3024
1 3025
1 3026
1 3027
1 3028
1 3029
1 3030
1 3031
1 3032
1 3033
1 3034
1 3035
1 3036
1 3037
1 3038
1 3039
1 3040
1 3041
1 3042
1 3043
1 3044
1 3045
1 3046
1 3047
1 3048
1 3049
1 3050
1 3051
1 3052
1 3053
1 3054
1 3055
1 3056
1 3057
1 3058
1 3059
1 3060
1 3061
1 3062
1 3063
1 3064
1 3065
1 3066
1 3067
1 3068
1 3069
1 3070
1 3071
1 3072
1 3073
1 3074
1 3075
1 3076
1 3077
1 3078
1 3079
1 3080
1 3081
1 3082
1 3083
1 3084
1 3085
1 3086
1 3087
1 3088
1 3089
1 3090
1 3091
1 3092
1 3093
1 3094
1 3095
1 3096
1 3097
1 3098
1 3099
1 3100
1 3101
1 3102
1 3103
1 3104
1 3105
1 3106
1 3107
1 3108
1 3109
1 3110
1 3111
1 3112
1 3113
1 3114
1 3115
1 3116
1 3117
1 3118
1 3119
1 3120
1 3121
1 3122
1 3123
1 3124
1 3125
1 3126
1 3127
1 3128
1 3129
1 3130
1 3131
1 3132
1 3133
1 3134
1 3135
1 3136
1 3137
1 3138
1 3139
1 3140
1 3141
1 3142
1 3143
1 3144
1 3145
1 3146
1 3147
1 3148
1 3149
1 3150
1 3151
1 3152
1 3153
1 3154
1 3155
1 3156
1 3157
1 3158
1 3159
1 3160
1 3161
1 3162
1 3163
1 3164
1 3165
1 3166
1 3167
1 3168
1 3169
1 3170
1 3171
1 3172
1 3173
1 3174
1 3175
1 3176
1 3177
1 3178
1 3179
1 3180
1 3181
1 3182
1 3183
1 3184
1 3185
1 3186
1 3187
1 3188
1 3189
1 3190
1 3191
1 3192
1 3193
1 3194
1 3195
1 3196
1 3197
1 3198
1 3199
1 3200
1 3201
1 3202
1 3203
1 3204
1 3205
1 3206
1 3207
1 3208
1 3209
1 3210
1 3211
1 3212
1 3213
1 3214
1 3215
1 3216
1 3217
1 3218
1 3219
1 3220
1 3221
1 3222
1 3223
1 3224
1 3225
1 3226
1 3227
1 3228
1 3229
1 3230
1 3231
1 3232
1 3233
1 3234
1 3235
1 3236
1 3237
1 3238
1 3239
1 3240
1 3241
1 3242
1 3243
1 3244
1 3245
1 3246
1 3247
1 3248
1 3249
1 3250
1 3251
1 3252
1 3253
1 3254
1 3255
1 3256
1 3257
1 3258
1 3259
1 3260
1 3261
1 3262
1 3263
1 3264
1 3265
1 3266
1 3267
1 3268
1 3269
1 3270
1 3271
1 3272
1 3273
1 3274
1 3275
1 3276
1 3277
1 3278
1 3279
1 3280
1 3281
1 3282
1 3283
1 3284
1 3285
1 3286
1 3287
1 3288
1 3289
1 3290
1 3291
1 3292
1 3293
1 3294
1 3295
1 3296
1 3297
1 3298
1 3299
1 3300
1 3301
1 3302
1 3303
1 3304
1 3305
1 3306
1 3307
1 3308
1 3309
1 3310
1 3311
1 3312
1 3313
1 3314
1 3315
1 3316
1 3317
1 3318
1 3319
1 3320
1 3321
1 3322
1 3323
1 3324
1 3325
1 3326
1 3327
1 3328
1 3329
1 3330
1 3331
1 3332
1 3333
1 3334
1 3335
1 3336
1 3337
1 3338
1 3339
1 3340
1 3341
1 3342
1 3343
1 3344
1 3345
1 3346
1 3347
1 3348
1 3349
1 3350
1 3351
1 3352
1 3353
1 3354
1 3355
1 3356
1 3357
1 3358
1 3359
1 3360
1 3361
1 3362
1 3363
1 3364
1 3365
1 3366
1 3367
1 3368
1 3369
1 3370
1 3371
1 3372
1 3373
1 3374
1 3375
1 3376
1 3377
1 3378
1 3379
1 3380
1 3381
1 3382
1 3383
1 3384
1 3385
1 3386
1 3387
1 3388
1 3389
1 3390
1 3391
1 3392
1 3393
1 3394
1 3395
1 3396
1 3397
1 3398
1 3399
1 3400
1 3401
1 3402
1 3403
1 3404
1 3405
1 3406
1 3407
1 3408
1 3409
1 3410
1 3411
1 3412
1 3413
1 3414
1 3415
1 3416
1 3417
1 3418
1 3419
1 3420
1 3421
1 3422
1 3423
1 3424
1 3425
1 3426
1 3427
1 3428
1 3429
1 3430
1 3431
1 3432
1 3433
1 3434
1 3435
1 3436
1 3437
1 3438
1 3439
1 3440
1 3441
1 3442
1 3443
1 3444
1 3445
1 3446
1 3447
1 3448
1 3449
1 3450
1 3451
1 3452
1 3453
1 3454
1 3455
1 3456
1 3457
1 3458
1 3459
1 3460
1 3461
1 3462
1 3463
1 3464
1 3465
1 3466
1 3467
1 3468
1 3469
1 3470
1 3471
1 3472
1 3473
1 3474
1 3475
1 3476
1 3477
1 3478
1 3479
1 3480
1 3481
1 3482
1 3483
1 3484
1 3485
1 3486
1 3487
1 3488
1 3489
1 3490
1 3491
1 3492
1 3493
1 3494
1 3495
1 3496
1 3497
1 3498
1 3499
1 3500
1 3501
1 3502
1 3503
1 3504
1 3505
1 3506
1 3507
1 3508
1 3509
1 3510
1 3511
1 3512
1 3513
1 3514
1 3515
1 3516
1 3517
1 3518
1 3519
1 3520
1 3521
1 3522
1 3523
1 3524
1 3525
1 3526
1 3527
1 3528
1 3529
1 3530
1 3531
1 3532
1 3533
1 3534
1 3535
1 3536
1 3537
1 3538
1 3539
1 3540
1 3541
1 3542
1 3543
1 3544
1 3545
1 3546
1 3547
1 3548
1 3549
1 3550
1 3551
1 3552
1 3553
1 3554
1 3555
1 3556
1 3557
1 3558
1 3559
1 3560
1 3561
1 3562
1 3563
1 3564
1 3565
1 3566
1 3567
1 3568
1 3569
1 3570
1 3571
1 3572
1 3573
1 3574
1 3575
1 3576
1 3577
1 3578
1 3579
1 3580
1 3581
1 3582
1 3583
1 3584
1 3585
1 3586
1 3587
1 3588
1 3589
1 3590
1 3591
1 3592
1 3593
1 3594
1 3595
1 3596
1 3597
1 3598
1 3599
1 3600
1 3601
1 3602
1 3603
1 3604
1 3605
1 3606
1 3607
1 3608
1 3609
1 3610
1 3611
1 3612
1 3613
1 3614
1 3615
1 3616
1 3617
1 3618
1 3619
1 3620
1 3621
1 3622
1 3623
1 3624
1 3625
1 3626
1 3627
1 3628
1 3629
1 3630
1 3631
1 3632
1 3633
1 3634
1 3635
1 3636
1 3637
1 3638
1 3639
1 3640
1 3641
1 3642
1 3643
1 3644
1 3645
1 3646
1 3647
1 3648
1 3649
1 3650
1 3651
1 3652
1 3653
1 3654
1 3655
1 3656
1 3657
1 3658
1 3659
1 3660
1 3661
1 3662
1 3663
1 3664
1 3665
1 3666
1 3667
1 3668
1 3669
1 3670
1 3671
1 3672
1 3673
1 3674
1 3675
1 3676
1 3677
1 3678
1 3679
1 3680
1 3681
1 3682
1 3683
1 3684
1 3685
1 3686
1 3687
1 3688
1 3689
1 3690
1 3691
1 3692
1 3693
1 3694
1 3695
1 3696
1 3697
1 3698
1 3699
1 3700
1 3701
1 3702
1 3703
1 3704
1 3705
1 3706
1 3707
1 3708
1 3709
1 3710
1 3711
1 3712
1 3713
1 3714
1 3715
1 3716
1 3717
1 3718
1 3719
1 3720
1 3721
1 3722
1 3723
1 3724
1 3725
1 3726
1 3727
1 3728
1 3729
1 3730
1 3731
1 3732
1 3733
1 3734
1 3735
1 3736
1 3737
1 3738
1 3739
1 3740
1 3741
1 3742
1 3743
1 3744
1 3745
1 3746
1 3747
1 3748
1 3749
1 3750
1 3751
1 3752
1 3753
1 3754
1 3755
1 3756
1 3757
1 3758
1 3759
1 3760
1 3761
1 3762
1 3763
1 3764
1 3765
1 3766
1 3767
1 3768
1 3769
1 3770
1 3771
1 3772
1 3773
1 3774
1 3775
1 3776
1 3777
1 3778
1 3779
1 3780
1 3781
1 3782
1 3783
1 3784
1 3785
1 3786
1 3787
1 3788
1 3789
1 3790
1 3791
1 3792
1 3793
1 3794
1 3795
1 3796
1 3797
1 3798
1 3799
1 3800
1 3801
1 3802
1 3803
1 3804
1 3805
1 3806
1 3807
1 3808
1 3809
1 3810
1 3811
1 3812
1 3813
1 3814
1 3815
1 3816
1 3817
1 3818
1 3819
1 3820
1 3821
1 3822
1 3823
1 3824
1 3825
1 3826
1 3827
1 3828
1 3829
1 3830
1 3831
1 3832
1 3833
1 3834
1 3835
1 3836
1 3837
1 3838
1 3839
1 3840
1 3841
1 3842
1 3843
1 3844
1 3845
1 3846
1 3847
1 3848
1 3849
1 3850
1 3851
1 3852
1 3853
1 3854
1 3855
1 3856
1 3857
1 3858
1 3859
1 3860
1 3861
1 3862
1 3863
1 3864
1 3865
1 3866
1 3867
1 3868
1 3869
1 3870
1 3871
1 3872
1 3873
1 3874
1 3875
1 3876
1 3877
1 3878
1 3879
1 3880
1 3881
1 3882
1 3883
1 3884
1 3885
1 3886
1 3887
1 3888
1 3889
1 3890
1 3891
1 3892
1 3893
1 3894
1 3895
1 3896
1 3897
1 3898
1 3899
1 3900
1 3901
1 3902
1 3903
1 3904
1 3905
1 3906
1 3907
1 3908
1 3909
1 3910
1 3911
1 3912
1 3913
1 3914
1 3915
1 3916
1 3917
1 3918
1 3919
1 3920
1 3921
1 3922
1 3923
1 3924
1 3925
1 3926
1 3927
1 3928
1 3929
1 3930
1 3931
1 3932
1 3933
1 3934
1 3935
1 3936
1 3937
1 3938
1 3939
1 3940
1 3941
1 3942
1 3943
1 3944
1 3945
1 3946
1 3947
1 3948
1 3949
1 3950
1 3951
1 3952
1 3953
1 3954
1 3955
1 3956
1 3957
1 3958
1 3959
1 3960
1 3961
1 3962
1 3963
1 3964
1 3965
1 3966
1 3967
1 3968
1 3969
1 3970
1 3971
1 3972
1 3973
1 3974
1 3975
1 3976
1 3977
1 3978
1 3979
1 3980
1 3981
1 3982
1 3983
1 3984
1 3985
1 3986
1 3987
1 3988
1 3989
1 3990
1 3991
1 3992
1 3993
1 3994
1 3995
1 3996
1 3997
1 3998
1 3999
1 4000
1 4001
1 4002
1 4003
1 4004
1 4005
1 4006
1 4007
1 4008
1 4009
1 4010
1 4011
1 4012
1 4013
1 4014
1 4015
1 4016
1 4017
1 4018
1 4019
1 4020
1 4021
1 4022
1 4023
1 4024
1 4025
1 4026
1 4027
1 4028
1 4029
1 4030
1 4031
1 4032
1 4033
1 4034
1 4035
1 4036
1 4037
1 4038
1 4039
1 4040
1 4041
1 4042
1 4043
1 4044
1 4045
1 4046
1 4047
1 4048
1 4049
1 4050
1 4051
1 4052
1 4053
1 4054
1 4055
1 4056
1 4057
1 4058
1 4059
1 4060
1 4061
1 4062
1 4063
1 4064
1 4065
1 4066
1 4067
1 4068
1 4069
1 4070
1 4071
1 4072
1 4073
1 4074
1 4075
1 4076
1 4077
1 4078
1 4079
1 4080
1 4081
1 4082
1 4083
1 4084
1 4085
1 4086
1 4087
1 4088
1 4089
1 4090
1 4091
1 4092
1 4093
1 4094
1 4095
1 4096
1 4097
1 4098
1 4099
1 4100
1 4101
1 4102
1 4103
1 4104
1 4105
1 4106
1 4107
1 4108
1 4109
1 4110
1 4111
1 4112
1 4113
1 4114
1 4115
1 4116
1 4117
1 4118
1 4119
1 4120
1 4121
1 4122
1 4123
1 4124
1 4125
1 4126
1 4127
1 4128
1 4129
1 4130
1 4131
1 4132
1 4133
1 4134
1 4135
1 4136
1 4137
1 4138
1 4139
1 4140
1 4141
1 4142
1 4143
1 4144
1 4145
1 4146
1 4147
1 4148
1 4149
1 4150
1 4151
1 4152
1 4153
1 4154
1 4155
1 4156
1 4157
1 4158
1 4159
1 4160
1 4161
1 4162
1 4163
1 4164
1 4165
1 4166
1 4167
1 4168
1 4169
1 4170
1 4171
1 4172
1 4173
1 4174
1 4175
1 4176
1 4177
1 4178
1 4179
1 4180
1 4181
1 4182
1 4183
1 4184
1 4185
1 4186
1 4187
1 4188
1 4189
1 4190
1 4191
1 4192
1 4193
1 4194
1 4195
1 4196
1 4197
1 4198
1 4199
1 4200
1 4201
1 4202
1 4203
1 4204
1 4205
1 4206
1 4207
1 4208
1 4209
1 4210
1 4211
1 4212
1 4213
1 4214
1 4215
1 4216
1 4217
1 4218
1 4219
1 4220
1 4221
1 4222
1 4223
1 4224
1 4225
1 4226
1 4227
1 4228
1 4229
1 4230
1 4231
1 4232
1 4233
1 4234
1 4235
1 4236
1 4237
1 4238
1 4239
1 4240
1 4241
1 4242
1 4243
1 4244
1 4245
1 4246
1 4247
1 4248
1 4249
1 4250
1 4251
1 4252
1 4253
1 4254
1 4255
1 4256
1 4257
1 4258
1 4259
1 4260
1 4261
1 4262
1 4263
1 4264
1 4265
1 4266
1 4267
1 4268
1 4269
1 4270
1 4271
1 4272
1 4273
1 4274
1 4275
1 4276
1 4277
1 4278
1 4279
1 4280
1 4281
1 4282
1 4283
1 4284
1 4285
1 4286
1 4287
1 4288
1 4289
1 4290
1 4291
1 4292
1 4293
1 4294
1 4295
1 4296
1 4297
1 4298
1 4299
1 4300
1 4301
1 4302
1 4303
1 4304
1 4305
1 4306
1 4307
1 4308
1 4309
1 4310
1 4311
1 4312
1 4313
1 4314
1 4315
1 4316
1 4317
1 4318
1 4319
1 4320
1 4321
1 4322
1 4323
1 4324
1 4325
1 4326
1 4327
1 4328
1 4329
1 4330
1 4331
1 4332
1 4333
1 4334
1 4335
1 4336
1 4337
1 4338
1 4339
1 4340
1 4341
1 4342
1 4343
1 4344
1 4345
1 4346
1 4347
1 4348
1 4349
1 4350
1 4351
1 4352
1 4353
1 4354
1 4355
1 4356
1 4357
1 4358
1 4359
1 4360
1 4361
1 4362
1 4363
1 4364
1 4365
1 4366
1 4367
1 4368
1 4369
1 4370
1 4371
1 4372
1 4373
1 4374
1 4375
1 4376
1 4377
1 4378
1 4379
1 4380
1 4381
1 4382
1 4383
1 4384
1 4385
1 4386
1 4387
1 4388
1 4389
1 4390
1 4391
1 4392
1 4393
1 4394
1 4395
1 4396
1 4397
1 4398
1 4399
1 4400
1 4401
1 4402
1 4403
1 4404
1 4405
1 4406
1 4407
1 4408
1 4409
1 4410
1 4411
1 4412
1 4413
1 4414
1 4415
1 4416
1 4417
1 4418
1 4419
1 4420
1 4421
1 4422
1 4423
1 4424
1 4425
1 4426
1 4427
1 4428
1 4429
1 4430
1 4431
1 4432
1 4433
1 4434
1 4435
1 4436
1 4437
1 4438
1 4439
1 4440
1 4441
1 4442
1 4443
1 4444
1 4445
1 4446
1 4447
1 4448
1 4449
1 4450
1 4451
1 4452
1 4453
1 4454
1 4455
1 4456
1 4457
1 4458
1 4459
1 4460
1 4461
1 4462
1 4463
1 4464
1 4465
1 4466
1 4467
1 4468
1 4469
1 4470
1 4471
1 4472
1 4473
1 4474
1 4475
1 4476
1 4477
1 4478
1 4479
1 4480
1 4481
1 4482
1 4483
1 4484
1 4485
1 4486
1 4487
1 4488
1 4489
1 4490
1 4491
1 4492
1 4493
1 4494
1 4495
1 4496
1 4497
1 4498
1 4499
1 4500
1 4501
1 4502
1 4503
1 4504
1 4505
1 4506
1 4507
1 4508
1 4509
1 4510
1 4511
1 4512
1 4513
1 4514
1 4515
1 4516
1 4517
1 4518
1 4519
1 4520
1 4521
1 4522
1 4523
1 4524
1 4525
1 4526
1 4527
1 4528
1 4529
1 4530
1 4531
1 4532
1 4533
1 4534
1 4535
1 4536
1 4537
1 4538
1 4539
1 4540
1 4541
1 4542
1 4543
1 4544
1 4545
1 4546
1 4547
1 4548
1 4549
1 4550
1 4551
1 4552
1 4553
1 4554
1 4555
1 4556
1 4557
1 4558
1 4559
1 4560
1 4561
1 4562
1 4563
1 4564
1 4565
1 4566
1 4567
1 4568
1 4569
1 4570
1 4571
1 4572
1 4573
1 4574
1 4575
1 4576
1 4577
1 4578
1 4579
1 4580
1 4581
1 4582
1 4583
1 4584
1 4585
1 4586
1 4587
1 4588
1 4589
1 4590
1 4591
1 4592
1 4593
1 4594
1 4595
1 4596
1 4597
1 4598
1 4599
1 4600
1 4601
1 4602
1 4603
1 4604
1 4605
1 4606
1 4607
1 4608
1 4609
1 4610
1 4611
1 4612
1 4613
1 4614
1 4615
1 4616
1 4617
1 4618
1 4619
1 4620
1 4621
1 4622
1 4623
1 4624
1 4625
1 4626
1 4627
1 4628
1 4629
1 4630
1 4631
1 4632
1 4633
1 4634
1 4635
1 4636
1 4637
1 4638
1 4639
1 4640
1 4641
1 4642
1 4643
1 4644
1 4645
1 4646
1 4647
1 4648
1 4649
1 4650
1 4651
1 4652
1 4653
1 4654
1 4655
1 4656
1 4657
1 4658
1 4659
1 4660
1 4661
1 4662
1 4663
1 4664
1 4665
1 4666
1 4667
1 4668
1 4669
1 4670
1 4671
1 4672
1 4673
1 4674
1 4675
1 4676
1 4677
1 4678
1 4679
1 4680
1 4681
1 4682
1 4683
1 4684
1 4685
1 4686
1 4687
1 4688
1 4689
1 4690
1 4691
1 4692
1 4693
1 4694
1 4695
1 4696
1 4697
1 4698
1 4699
1 4700
1 4701
1 4702
1 4703
1 4704
1 4705
1 4706
1 4707
1 4708
1 4709
1 4710
1 4711
1 4712
1 4713
1 4714
1 4715
1 4716
1 4717
1 4718
1 4719
1 4720
1 4721
1 4722
1 4723
1 4724
1 4725
1 4726
1 4727
1 4728
1 4729
1 4730
1 4731
1 4732
1 4733
1 4734
1 4735
1 4736
1 4737
1 4738
1 4739
1 4740
1 4741
1 4742
1 4743
1 4744
1 4745
1 4746
1 4747
1 4748
1 4749
1 4750
1 4751
1 4752
1 4753
1 4754
1 4755
1 4756
1 4757
1 4758
1 4759
1 4760
1 4761
1 4762
1 4763
1 4764
1 4765
1 4766
1 4767
1 4768
1 4769
1 4770
1 4771
1 4772
1 4773
1 4774
1 4775
1 4776
1 4777
1 4778
1 4779
1 4780
1 4781
1 4782
1 4783
1 4784
1 4785
1 4786
1 4787
1 4788
1 4789
1 4790
1 4791
1 4792
1 4793
1 4794
1 4795
1 4796
1 4797
1 4798
1 4799
1 4800
1 4801
1 4802
1 4803
1 4804
1 4805
1 4806
1 4807
1 4808
1 4809
1 4810
1 4811
1 4812
1 4813
1 4814
1 4815
1 4816
1 4817
1 4818
1 4819
1 4820
1 4821
1 4822
1 4823
1 4824
1 4825
1 4826
1 4827
1 4828
1 4829
1 4830
1 4831
1 4832
1 4833
1 4834
1 4835
1 4836
1 4837
1 4838
1 4839
1 4840
1 4841
1 4842
1 4843
1 4844
1 4845
1 4846
1 4847
1 4848
1 4849
1 4850
1 4851
1 4852
1 4853
1 4854
1 4855
1 4856
1 4857
1 4858
1 4859
1 4860
1 4861
1 4862
1 4863
1 4864
1 4865
1 4866
1 4867
1 4868
1 4869
1 4870
1 4871
1 4872
1 4873
1 4874
1 4875
1 4876
1 4877
1 4878
1 4879
1 4880
1 4881
1 4882
1 4883
1 4884
1 4885
1 4886
1 4887
1 4888
1 4889
1 4890
1 4891
1 4892
1 4893
1 4894
1 4895
1 4896
1 4897
1 4898
1 4899
1 4900
1 4901
1 4902
1 4903
1 4904
1 4905
1 4906
1 4907
1 4908
1 4909
1 4910
1 4911
1 4912
1 4913
1 4914
1 4915
1 4916
1 4917
1 4918
1 4919
1 4920
1 4921
1 4922
1 4923
1 4924
1 4925
1 4926
1 4927
1 4928
1 4929
1 4930
1 4931
1 4932
1 4933
1 4934
1 4935
1 4936
1 4937
1 4938
1 4939
1 4940
1 4941
1 4942
1 4943
1 4944
1 4945
1 4946
1 4947
1 4948
1 4949
1 4950
1 4951
1 4952
1 4953
1 4954
1 4955
1 4956
1 4957
1 4958
1 4959
1 4960
1 4961
1 4962
1 4963
1 4964
1 4965
1 4966
1 4967
1 4968
1 4969
1 4970
1 4971
1 4972
1 4973
1 4974
1 4975
1 4976
1 4977
1 4978
1 4979
1 4980
1 4981
1 4982
1 4983
1 4984
1 4985
1 4986
1 4987
1 4988
1 4989
1 4990
1 4991
1 4992
1 4993
1 4994
1 4995
1 4996
1 4997
1 4998
1 4999
CELL_TYPES 5000
1 
1 
1 
1 
1 
1 
1 
1 
1 
1 
1 
1 
1 
1 
1 
1 
1 
1 
1 
1 
1 
1 
1 
1 
1 
1 
1 
1 
1 
1 
1 
1 
1 
1 
1 
1 
1 
1 
1 
1 
1 
1 
1 
1 
1 
1 
1 
1 
1 
1 
1 
1 
1 
1 
1 
1 
1 
1 
1 
1 
1 
1 
1 
1 
1 
1 
1 
1 
1 
1 
1 
1 
1 
1 
1 
1 
1 
1 
1 
1 
1 
1 
1 
1 
1 
1 
1 
1 
1 
1 
1 
1 
1 
1 
1 
1 
1 
1 
1 
1 
1 
1 
1 
1 
1 
1 
1 
1 
1 
1 
1 
1 
1 
1 
1 
1 
1 
1 
1 
1 
1 
1 
1 
1 
1 
1 
1 
1 
1 
1 
1 
1 
1 
1 
1 
1 
1 
1 
1 
1 
1 
1 
1 
1 
1 
1 
1 
1 
1 
1 
1 
1 
1 
1 
1 
1 
1 
1 
1 
1 
1 
1 
1 
1 
1 
1 
1 
1 
1 
1 
1 
1 
1 
1 
1 
1 
1 
1 
1 
1 
1 
1 
1 
1 
1 
1 
1 
1 
1 
1 
1 
1 
1 
1 
1 
1 
1 
1 
1 
1 
1 
1 
1 
1 
1 
1 
1 
1 
1 
1 
1 
1 
1 
1 
1 
1 
1 
1 
1 
1 
1 
1 
1 
1 
1 
1 
1 
1 
1 
1 
1 
1 
1 
1 
1 
1 
1 
1 
1 
1 
1 
1 
1 
1 
1 
1 
1 
1 
1 
1 
1 
1 
1 
1 
1 
1 
1 
1 
1 
1 
1 
1 
1 
1 
1 
1 
1 
1 
1 
1 
1 
1 
1 
1 
1 
1 
1 
1 
1 
1 
1 
1 
1 
1 
1 
1 
1 
1 
1 
1 
1 
1 
1 
1 
1 
1 
1 
1 
1 
1 
1 
1 
1 
1 
1 
1 
1 
1 
1 
1 
1 
1 
1 
1 
1 
1 
1 
1 
1 
1 
1 
1 
1 
1 
1 
1 
1 
1 
1 
1 
1 
1 
1 
1 
1 
1 
1 
1 
1 
1 
1 
1 
1 
1 
1 
1 
1 
1 
1 
1 
1 
1 
1 
1 
1 
1 
1 
1 
1 
1 
1 
1 
1 
1 
1 
1 
1 
1 
1 
1 
1 
1 
1 
1 
1 
1 
1 
1 
1 
1 
1 
1 
1 
1 
1 
1 
1 
1 
1 
1 
1 
1 
1 
1 
1 
1 
1 
1 
1 
1 
1 
1 
1 
1 
1 
1 
1 
1 
1 
1 
1 
1 
1 
1 
1 
1 
1 
1 
1 
1 
1 
1 
1 
1 
1 
1 
1 
1 
1 
1 
1 
1 
1 
1 
1 
1 
1 
1 
1 
1 
1 
1 
1 
1 
1 
1 
1 
1 
1 
1 
1 
1 
1 
1 
1 
1 
1 
1 
1 
1 
1 
1 
1 
1 
1 
1 
1 
1 
1 
1 
1 
1 
1 
1 
1 
1 
1 
1 
1 
1 
1 
1 
1 
1 
1 
1 
1 
1 
1 
1 
1 
1 
1 
1 
1 
1 
1 
1 
1 
1 
1 
1 
1 
1 
1 
1 
1 
1 
1 
1 
1 
1 
1 
1 
1 
1 
1 
1 
1 
1 
1 
1 
1 
1 
1 
1 
1 
1 
1 
1 
1 
1 
1 
1 
1 
1 
1 
1 
1 
1 
1 
1 
1 
1 
1 
1 
1 
1 
1 
1 
1 
1 
1 
1 
1 
1 
1 
1 
1 
1 
1 
1 
1 
1 
1 
1 
1 
1 
1 
1 
1 
1 
1 
1 
1 
1 
1 
1 
1 
1 
1 
1 
1 
1 
1 
1 
1 
1 
1 
1 
1 
1 
1 
1 
1 
1 
1 
1 
1 
1 
1 
1 
1 
1 
1 
1 
1 
1 
1 
1 
1 
1 
1 
1 
1 
1 
1 
1 
1 
1 
1 
1 
1 
1 
1 
1 
1 
1 
1 
1 
1 
1 
1 
1 
1 
1 
1 
1 
1 
1 
1 
1 
1 
1 
1 
1 
1 
1 
1 
1 
1 
1 
1 
1 
1 
1 
1 
1 
1 
1 
1 
1 
1 
1 
1 
1 
1 
1 
1 
1 
1 
1 
1 
1 
1 
1 
1 
1 
1 
1 
1 
1 
1 
1 
1 
1 
1 
1 
1 
1 
1 
1 
1 
1 
1 
1 
1 
1 
1 
1 
1 
1 
1 
1 
1 
1 
1 
1 
1 
1 
1 
1 
1 
1 
1 
1 
1 
1 
1 
1 
1 
1 
1 
1 
1 
1 
1 
1 
1 
1 
1 
1 
1 
1 
1 
1 
1 
1 
1 
1 
1 
1 
1 
1 
1 
1 
1 
1 
1 
1 
1 
1 
1 
1 
1 
1 
1 
1 
1 
1 
1 
1 
1 
1 
1 
1 
1 
1 
1 
1 
1 
1 
1 
1 
1 
1 
1 
1 
1 
1 
1 
1 
1 
1 
1 
1 
1 
1 
1 
1 
1 
1 
1 
1 
1 
1 
1 
1 
1 
1 
1 
1 
1 
1 
1 
1 
1 
1 
1 
1 
1 
1 
1 
1 
1 
1 
1 
1 
1 
1 
1 
1 
1 
1 
1 
1 
1 
1 
1 
1 
1 
1 
1 
1 
1 
1 
1 
1 
1 
1 
1 
1 
1 
1 
1 
1 
1 
1 
1 
1 
1 
1 
1 
1 
1 
1 
1 
1 
1 
1 
1 
1 
1 
1 
1 
1 
1 
1 
1 
1 
1 
1 
1 
1 
1 
1 
1 
1 
1 
1 
1 
1 
1 
1 
1 
1 
1 
1 
1 
1 
1 
1 
1 
1 
1 
1 
1 
1 
1 
1 
1 
1 
1 
1 
1 
1 
1 
1 
1 
1 
1 
1 
1 
1 
1 
1 
1 
1 
1 
1 
1 
1 
1 
1 
1 
1 
1 
1 
1 
1 
1 
1 
1 
1 
1 
1 
1 
1 
1 
1 
1 
1 
1 
1 
1 
1 
1 
1 
1 
1 
1 
1 
1 
1 
1 
1 
1 
1 
1 
1 
1 
1 
1 
1 
1 
1 
1 
1 
1 
1 
1 
1 
1 
1 
1 
1 
1 
1 
1 
1 
1 
1 
1 
1 
1 
1 
1 
1 
1 
1 
1 
1 
1 
1 
1 
1 
1 
1 
1 
1 
1 
1 
1 
1 
1 
1 
1 
1 
1 
1 
1 
1 
1 
1 
1 
1 
1 
1 
1 
1 
1 
1 
1 
1 
1 
1 
1 
1 
1 
1 
1 
1 
1 
1 
1 
1 
1 
1 
1 
1 
1 
1 
1 
1 
1 
1 
1 
1 
1 
1 
1 
1 
1 
1 
1 
1 
1 
1 
1 
1 
1 
1 
1 
1 
1 
1 
1 
1 
1 
1 
1 
1 
1 
1 
1 
1 
1 
1 
1 
1 
1 
1 
1 
1 
1 
1 
1 
1 
1 
1 
1 
1 
1 
1 
1 
1 
1 
1 
1 
1 
1 
1 
1 
1 
1 
1 
1 
1 
1 
1 
1 
1 
1 
1 
1 
1 
1 
1 
1 
1 
1 
1 
1 
1 
1 
1 
1 
1 
1 
1 
1 
1 
1 
1 
1 
1 
1 
1 
1 
1 
1 
1 
1 
1 
1 
1 
1 
1 
1 
1 
1 
1 
1 
1 
1 
1 
1 
1 
1 
1 
1 
1 
1 
1 
1 
1 
1 
1 
1 
1 
1 
1 
1 
1 
1 
1 
1 
1 
1 
1 
1 
1 
1 
1 
1 
1 
1 
1 
1 
1 
1 
1 
1 
1 
1 
1 
1 
1 
1 
1 
1 
1 
1 
1 
1 
1 
1 
1 
1 
1 
1 
1 
1 
1 
1 
1 
1 
1 
1 
1 
1 
1 
1 
1 
1 
1 
1 
1 
1 
1 
1 
1 
1 
1 
1 
1 
1 
1 
1 
1 
1 
1 
1 
1 
1 
1 
1 
1 
1 
1 
1 
1 
1 
1 
1 
1 
1 
1 
1 
1 
1 
1 
1 
1 
1 
1 
1 
1 
1 
1 
1 
1 
1 
1 
1 
1 
1 
1 
1 
1 
1 
1 
1 
1 
1 
1 
1 
1 
1 
1 
1 
1 
1 
1 
1 
1 
1 
1 
1 
1 
1 
1 
1 
1 
1 
1 
1 
1 
1 
1 
1 
1 
1 
1 
1 
1 
1 
1 
1 
1 
1 
1 
1 
1 
1 
1 
1 
1 
1 
1 
1 
1 
1 
1 
1 
1 
1 
1 
1 
1 
1 
1 
1 
1 
1 
1 
1 
1 
1 
1 
1 
1 
1 
1 
1 
1 
1 
1 
1 
1 
1 
1 
1 
1 
1 
1 
1 
1 
1 
1 
1 
1 
1 
1 
1 
1 
1 
1 
1 
1 
1 
1 
1 
1 
1 
1 
1 
1 
1 
1 
1 
1 
1 
1 
1 
1 
1 
1 
1 
1 
1 
1 
1 
1 
1 
1 
1 
1 
1 
1 
1 
1 
1 
1 
1 
1 
1 
1 
1 
1 
1 
1 
1 
1 
1 
1 
1 
1 
1 
1 
1 
1 
1 
1 
1 
1 
1 
1 
1 
1 
1 
1 
1 
1 
1 
1 
1 
1 
1 
1 
1 
1 
1 
1 
1 
1 
1 
1 
1 
1 
1 
1 
1 
1 
1 
1 
1 
1 
1 
1 
1 
1 
1 
1 
1 
1 
1 
1 
1 
1 
1 
1 
1 
1 
1 
1 
1 
1 
1 
1 
1 
1 
1 
1 
1 
1 
1 
1 
1 
1 
1 
1 
1 
1 
1 
1 
1 
1 
1 
1 
1 
1 
1 
1 
1 
1 
1 
1 
1 
1 
1 
1 
1 
1 
1 
1 
1 
1 
1 
1 
1 
1 
1 
1 
1 
1 
1 
1 
1 
1 
1 
1 
1 
1 
1 
1 
1 
1 
1 
1 
1 
1 
1 
1 
1 
1 
1 
1 
1 
1 
1 
1 
1 
1 
1 
1 
1 
1 
1 
1 
1 
1 
1 
1 
1 
1 
1 
1 
1 
1 
1 
1 
1 
1 
1 
1 
1 
1 
1 
1 
1 
1 
1 
1 
1 
1 
1 
1 
1 
1 
1 
1 
1 
1 
1 
1 
1 
1 
1 
1 
1 
1 
1 
1 
1 
1 
1 
1 
1 
1 
1 
1 
1 
1 
1 
1 
1 
1 
1 
1 
1 
1 
1 
1 
1 
1 
1 
1 
1 
1 
1 
1 
1 
1 
1 
1 
1 
1 
1 
1 
1 
1 
1 
1 
1 
1 
1 
1 
1 
1 
1 
1 
1 
1 
1 
1 
1 
1 
1 
1 
1 
1 
1 
1 
1 
1 
1 
1 
1 
1 
1 
1 
1 
1 
1 
1 
1 
1 
1 
1 
1 
1 
1 
1 
1 
1 
1 
1 
1 
1 
1 
1 
1 
1 
1 
1 
1 
1 
1 
1 
1 
1 
1 
1 
1 
1 
1 
1 
1 
1 
1 
1 
1 
1 
1 
1 
1 
1 
1 
1 
1 
1 
1 
1 
1 
1 
1 
1 
1 
1 
1 
1 
1 
1 
1 
1 
1 
1 
1 
1 
1 
1 
1 
1 
1 
1 
1 
1 
1 
1 
1 
1 
1 
1 
1 
1 
1 
1 
1 
1 
1 
1 
1 
1 
1 
1 
1 
1 
1 
1 
1 
1 
1 
1 
1 
1 
1 
1 
1 
1 
1 
1 
1 
1 
1 
1 
1 
1 
1 
1 
1 
1 
1 
1 
1 
1 
1 
1 
1 
1 
1 
1 
1 
1 
1 
1 
1 
1 
1 
1 
1 
1 
1 
1 
1 
1 
1 
1 
1 
1 
1 
1 
1 
1 
1 
1 
1 
1 
1 
1 
1 
1 
1 
1 
1 
1 
1 
1 
1 
1 
1 
1 
1 
1 
1 
1 
1 
1 
1 
1 
1 
1 
1 
1 
1 
1 
1 
1 
1 
1 
1 
1 
1 
1 
1 
1 
1 
1 
1 
1 
1 
1 
1 
1 
1 
1 
1 
1 
1 
1 
1 
1 
1 
1 
1 
1 
1 
1 
1 
1 
1 
1 
1 
1 
1 
1 
1 
1 
1 
1 
1 
1 
1 
1 
1 
1 
1 
1 
1 
1 
1 
1 
1 
1 
1 
1 
1 
1 
1 
1 
1 
1 
1 
1 
1 
1 
1 
1 
1 
1 
1 
1 
1 
1 
1 
1 
1 
1 
1 
1 
1 
1 
1 
1 
1 
1 
1 
1 
1 
1 
1 
1 
1 
1 
1 
1 
1 
1 
1 
1 
1 
1 
1 
1 
1 
1 
1 
1 
1 
1 
1 
1 
1 
1 
1 
1 
1 
1 
1 
1 
1 
1 
1 
1 
1 
1 
1 
1 
1 
1 
1 
1 
1 
1 
1 
1 
1 
1 
1 
1 
1 
1 
1 
1 
1 
1 
1 
1 
1 
1 
1 
1 
1 
1 
1 
1 
1 
1 
1 
1 
1 
1 
1 
1 
1 
1 
1 
1 
1 
1 
1 
1 
1 
1 
1 
1 
1 
1 
1 
1 
1 
1 
1 
1 
1 
1 
1 
1 
1 
1 
1 
1 
1 
1 
1 
1 
1 
1 
1 
1 
1 
1 
1 
1 
1 
1 
1 
1 
1 
1 
1 
1 
1 
1 
1 
1 
1 
1 
1 
1 
1 
1 
1 
1 
1 
1 
1 
1 
1 
1 
1 
1 
1 
1 
1 
1 
1 
1 
1 
1 
1 
1 
1 
1 
1 
1 
1 
1 
1 
1 
1 
1 
1 
1 
1 
1 
1 
1 
1 
1 
1 
1 
1 
1 
1 
1 
1 
1 
1 
1 
1 
1 
1 
1 
1 
1 
1 
1 
1 
1 
1 
1 
1 
1 
1 
1 
1 
1 
1 
1 
1 
1 
1 
1 
1 
1 
1 
1 
1 
1 
1 
1 
1 
1 
1 
1 
1 
1 
1 
1 
1 
1 
1 
1 
1 
1 
1 
1 
1 
1 
1 
1 
1 
1 
1 
1 
1 
1 
1 
1 
1 
1 
1 
1 
1 
1 
1 
1 
1 
1 
1 
1 
1 
1 
1 
1 
1 
1 
1 
1 
1 
1 
1 
1 
1 
1 
1 
1 
1 
1 
1 
1 
1 
1 
1 
1 
1 
1 
1 
1 
1 
1 
1 
1 
1 
1 
1 
1 
1 
1 
1 
1 
1 
1 
1 
1 
1 
1 
1 
1 
1 
1 
1 
1 
1 
1 
1 
1 
1 
1 
1 
1 
1 
1 
1 
1 
1 
1 
1 
1 
1 
1 
1 
1 
1 
1 
1 
1 
1 
1 
1 
1 
1 
1 
1 
1 
1 
1 
1 
1 
1 
1 
1 
1 
1 
1 
1 
1 
1 
1 
1 
1 
1 
1 
1 
1 
1 
1 
1 
1 
1 
1 
1 
1 
1 
1 
1 
1 
1 
1 
1 
1 
1 
1 
1 
1 
1 
1 
1 
1 
1 
1 
1 
1 
1 
1 
1 
1 
1 
1 
1 
1 
1 
1 
1 
1 
1 
1 
1 
1 
1 
1 
1 
1 
1 
1 
1 
1 
1 
1 
1 
1 
1 
1 
1 
1 
1 
1 
1 
1 
1 
1 
1 
1 
1 
1 
1 
1 
1 
1 
1 
1 
1 
1 
1 
1 
1 
1 
1 
1 
1 
1 
1 
1 
1 
1 
1 
1 
1 
1 
1 
1 
1 
1 
1 
1 
1 
1 
1 
1 
1 
1 
1 
1 
1 
1 
1 
1 
1 
1 
1 
1 
1 
1 
1 
1 
1 
1 
1 
1 
1 
1 
1 
1 
1 
1 
1 
1 
1 
1 
1 
1 
1 
1 
1 
1 
1 
1 
1 
1 
1 
1 
1 
1 
1 
1 
1 
1 
1 
1 
1 
1 
1 
1 
1 
1 
1 
1 
1 
1 
1 
1 
1 
1 
1 
1 
1 
1 
1 
1 
1 
1 
1 
1 
1 
1 
1 
1 
1 
1 
1 
1 
1 
1 
1 
1 
1 
1 
1 
1 
1 
1 
1 
1 
1 
1 
1 
1 
1 
1 
1 
1 
1 
1 
1 
1 
1 
1 
1 
1 
1 
1 
1 
1 
1 
1 
1 
1 
1 
1 
1 
1 
1 
1 
1 
1 
1 
1 
1 
1 
1 
1 
1 
1 
1 
1 
1 
1 
1 
1 
1 
1 
1 
1 
1 
1 
1 
1 
1 
1 
1 
1 
1 
1 
1 
1 
1 
1 
1 
1 
1 
1 
1 
1 
1 
1 
1 
1 
1 
1 
1 
1 
1 
1 
1 
1 
1 
1 
1 
1 
1 
1 
1 
1 
1 
1 
1 
1 
1 
1 
1 
1 
1 
1 
1 
1 
1 
1 
1 
1 
1 
1 
1 
1 
1 
1 
1 
1 
1 
1 
1 
1 
1 
1 
1 
1 
1 
1 
1 
1 
1 
1 
1 
1 
1 
1 
1 
1 
1 
1 
1 
1 
1 
1 
1 
1 
1 
1 
1 
1 
1 
1 
1 
1 
1 
1 
1 
1 
1 
1 
1 
1 
1 
1 
1 
1 
1 
1 
1 
1 
1 
1 
1 
1 
1 
1 
1 
1 
1 
1 
1 
1 
1 
1 
1 
1 
1 
1 
1 
1 
1 
1 
1 
1 
1 
1 
1 
1 
1 
1 
1 
1 
1 
1 
1 
1 
1 
1 
1 
1 
1 
1 
1 
1 
1 
1 
1 
1 
1 
1 
1 
1 
1 
1 
1 
1 
1 
1 
1 
1 
1 
1 
1 
1 
1 
1 
1 
1 
1 
1 
1 
1 
1 
1 
1 
1 
1 
1 
1 
1 
1 
1 
1 
1 
1 
1 
1 
1 
1 
1 
1 
1 
1 
1 
1 
1 
1 
1 
1 
1 
1 
1 
1 
1 
1 
1 
1 
1 
1 
1 
1 
1 
1 
1 
1 
1 
1 
1 
1 
1 
1 
1 
1 
1 
1 
1 
1 
1 
1 
1 
1 
1 
1 
1 
1 
1 
1 
1 
1 
1 
1 
1 
1 
1 
1 
1 
1 
1 
1 
1 
1 
1 
1 
1 
1 
1 
1 
1 
1 
1 
1 
1 
1 
1 
1 
1 
1 
1 
1 
1 
1 
1 
1 
1 
1 
1 
1 
1 
1 
1 
1 
1 
1 
1 
1 
1 
1 
1 
1 
1 
1 
1 
1 
1 
1 
1 
1 
1 
1 
1 
1 
1 
1 
1 
1 
1 
1 
1 
1 
1 
1 
1 
1 
1 
1 
1 
1 
1 
1 
1 
1 
1 
1 
1 
1 
1 
1 
1 
1 
1 
1 
1 
1 
1 
1 
1 
1 
1 
1 
1 
1 
1 
1 
1 
1 
1 
1 
1 
1 
1 
1 
1 
1 
1 
1 
1 
1 
1 
1 
1 
1 
1 
1 
1 
1 
1 
1 
1 
1 
1 
1 
1 
1 
1 
1 
1 
1 
1 
1 
1 
1 
1 
1 
1 
1 
1 
1 
1 
1 
1 
1 
1 
1 
1 
1 
1 
1 
1 
1 
1 
1 
1 
1 
1 
1 
1 
1 
1 
1 
1 
1 
1 
1 
1 
1 
1 
1 
1 
1 
1 
1 
1 
1 
1 
1 
1 
1 
1 
1 
1 
1 
1 
1 
1 
1 
1 
1 
1 
1 
1 
1 
1 
1 
1 
1 
1 
1 
1 
1 
1 
1 
1 
1 
1 
1 
1 
1 
1 
1 
1 
1 
1 
1 
1 
1 
1 
1 
1 
1 
1 
1 
1 
1 
1 
1 
1 
1 
1 
1 
1 
1 
1 
1 
1 
1 
1 
1 
1 
1 
1 
1 
1 
1 
1 
1 
1 
1 
1 
1 
1 
1 
1 
1 
1 
1 
1 
1 
1 
1 
1 
1 
1 
1 
1 
1 
1 
1 
1 
1 
1 
1 
1 
1 
1 
1 
1 
1 
1 
1 
1 
1 
1 
1 
1 
1 
1 
1 
1 
1 
1 
1 
1 
1 
1 
1 
1 
1 
1 
1 
1 
1 
1 
1 
1 
1 
1 
1 
1 
1 
1 
1 
1 
1 
1 
1 
1 
1 
1 
1 
1 
1 
1 
1 
1 
1 
1 
1 
1 
1 
1 
1 
1 
1 
1 
1 
1 
1 
1 
1 
1 
1 
1 
1 
1 
1 
1 
1 
1 
1 
1 
1 
1 
1 
1 
1 
1 
1 
1 
1 
1 
1 
1 
1 
1 
1 
1 
1 
1 
1 
1 
1 
1 
1 
1 
1 
1 
1 
1 
1 
1 
1 
1 
1 
1 
1 
1 
1 
1 
1 
1 
1 
1 
1 
1 
1 
1 
1 
1 
1 
1 
1 
1 
1 
1 
1 
1 
1 
1 
1 
1 
1 
1 
1 
1 
1 
1 
1 
1 
1 
1 
1 
1 
1 
1 
1 
1 
1 
1 
1 
1 
1 
1 
1 
1 
1 
1 
1 
1 
1 
1 
1 
1 
1 
1 
1 
1 
1 
1 
1 
1 
1 
1 
1 
1 
1 
1 
1 
1 
1 
1 
1 
1 
1 
1 
1 
1 
1 
1 
1 
1 
1 
1 
1 
1 
1 
1 
1 
1 
1 
1 
1 
1 
1 
1 
1 
1 
1 
1 
1 
1 
1 
1 
1 
1 
1 
1 
1 
1 
1 
1 
1 
1 
1 
1 
1 
1 
1 
1 
1 
1 
1 
1 
1 
1 
1 
1 
1 
1 
1 
1 
1 
1 
1 
1 
1 
1 
1 
1 
1 
1 
1 
1 
1 
1 
1 
1 
1 
1 
1 
1 
1 
1 
1 
1 
1 
1 
1 
1 
1 
1 
1 
1 
1 
1 
1 
1 
1 
1 
1 
1 
1 
1 
1 
1 
1 
1 
1 
1 
1 
1 
1 
1 
1 
1 
1 
1 
1 
1 
1 
1 
1 
1 
1 
1 
1 
1 
1 
1 
1 
1 
1 
1 
1 
1 
1 
1 
1 
1 
1 
1 
1 
1 
1 
1 
1 
1 
1 
1 
1 
1 
1 
1 
1 
1 
1 
1 
1 
1 
1 
1 
1 
1 
1 
1 
1 
1 
1 
1 
1 
1 
1 
1 
1 
1 
1 
1 
1 
1 
1 
1 
1 
1 
1 
1 
1 
1 
1 
1 
1 
1 
1 
1 
1 
1 
1 
1 
1 
1 
1 
1 
1 
1 
1 
1 
1 
1 
1 
1 
1 
1 
1 
1 
1 
1 
1 
1 
1 
1 
1 
1 
1 
1 
1 
1 
1 
1 
1 
1 
1 
1 
1 
1 
1 
1 
1 
1 
1 
1 
1 
1 
1 
1 
1 
1 
1 
1 
1 
1 
1 
1 
1 
1 
1 
1 
1 
1 
1 
1 
1 
1 
1 
1 
1 
1 
1 
1 
1 
1 
1 
1 
1 
1 
1 
1 
1 
1 
1 
1 
1 
1 
1 
1 
1 
1 
1 
1 
1 
1 
1 
1 
1 
1 
1 
1 
1 
1 
1 
1 
1 
1 
1 
1 
1 
1 
1 
1 
1 
1 
1 
1 
1 
1 
1 
1 
1 
1 
1 
1 
1 
1 
1 
1 
1 
1 
1 
1 
1 
1 
1 
1 
1 
1 
1 
1 
1 
1 
1 
1 
1 
1 
1 
1 
1 
1 
1 
1 
1 
1 
1 
1 
1 
1 
1 
1 
1 
1 
1 
1 
1 
1 
1 
1 
1 
1 
1 
1 
1 
1 
1 
1 
1 
1 
1 
1 
1 
1 
1 
1 
1 
1 
1 
1 
1 
1 
1 
1 
1 
1 
1 
1 
1 
1 
1 
1 
1 
1 
1 
1 
1 
1 
1 
1 
1 
1 
1 
1 
1 
1 
1 
1 
1 
1 
1 
1 
1 
1 
1 
1 
1 
1 
1 
1 
1 
1 
1 
1 
1 
1 
1 
1 
1 
1 
1 
1 
1 
1 
1 
1 
1 
1 
1 
1 
1 
1 
1 
1 
1 
1 
1 
1 
1 
1 
1 
1 
1 
1 
1 
1 
1 
1 
1 
1 
1 
1 
1 
1 
1 
1 
1 
1 
1 
1 
1 
1 
1 
1 
1 
1 
1 
1 
1 
1 
1 
1 
1 
1 
1 
1 
1 
1 
1 
1 
1 
1 
1 
1 
1 
1 
1 
1 
1 
1 
1 
1 
1 
1 
1 
1 
1 
1 
1 
1 
1 
1 
1 
1 
1 
1 
1 
1 
1 
1 
1 
1 
1 
1 
1 
1 
1 
1 
1 
1 
1 
1 
1 
1 
1 
1 
1 
1 
1 
1 
1 
1 
1 
1 
1 
1 
1 
1 
1 
1 
1 
1 
1 
1 
1 
1 
1 
1 
1 
1 
1 
1 
1 
1 
1 
1 
1 
1 
1 
1 
1 
1 
1 
1 
1 
1 
1 
1 
1 
1 
1 
1 
1 
1 
1 
1 
1 
1 
1 
1 
1 
1 
1 
1 
1 
1 
1 
1 
1 
1 
1 
1 
1 
1 
1 
1 
1 
1 
1 
1 
1 
1 
1 
1 
1 
1 
1 
1 
1 
1 
1 
1 
1 
1 
1 
1 
1 
1 
1 
1 
1 
1 
1 
1 
1 
1 
1 
1 
1 
1 
1 
1 
1 
1 
1 
1 
1 
1 
1 
1 
1 
1 
1 
1 
1 
1 
1 
1 
1 
1 
1 
1 
1 
1 
1 
1 
1 
1 
1 
1 
1 
1 
1 
1 
1 
1 
1 
1 
1 
1 
1 
1 
1 
1 
1 
1 
1 
1 
1 
1 
1 
1 
1 
1 
1 
1 
1 
1 
1 
1 
1 
1 
1 
1 
1 
1 
1 
1 
1 
1 
1 
1 
1 
1 
1 
1 
1 
1 
1 
1 
1 
1 
1 
1 
1 
1 
1 
1 
1 
1 
1 
1 
1 
1 
1 
1 
1 
1 
1 
1 
1 
1 
1 
1 
1 
1 
1 
1 
1 
1 
1 
1 
1 
1 
1 
1 
1 
1 
1 
1 
1 
1 
1 
1 
1 
1 
1 
1 
1 
1 
1 
1 
1 
1 
1 
1 
1 
1 
1 
1 
1 
1 
1 
1 
1 
1 
1 
1 
1 
1 
1 
1 
1 
1 
1 
1 
1 
1 
1 
1 
1 
1 
1 
1 
1 
1 
1 
1 
1 
1 
1 
1 
1 
1 
1 
1 
1 
1 
1 
1 
1 
1 
1 
1 
1 
1 
1 
1 
1 
1 
1 
1 
1 
1 
1 
1 
1 
1 
1 
1 
1 
1 
1 
1 
1 
1 
1 
1 
1 
1 
1 
1 
1 
1 
1 
1 
1 
1 
1 
1 
1 
1 
1 
1 
1 
1 
1 
1 
1 
1 
1 
1 
1 
1 
1 
1 
1 
1 
1 
1 
1 
1 
1 
1 
1 
1 
1 
1 
1 
1 
1 
1 
1 
1 
1 
1 
1 
1 
1 
1 
1 
1 
1 
1 
1 
1 
1 
1 
1 
1 
1 
1 
1 
1 
1 
1 
1 
1 
1 
1 
1 
1 
1 
1 
1 
1 
1 
1 
1 
1 
1 
1 
1 
1 
1 
1 
1 
1 
1 
1 
1 
1 
1 
1 
1 
1 
1 
1 
1 
1 
1 
1 
1 
1 
1 
1 
1 
1 
1 
1 
1 
1 
1 
1 
1 
1 
1 
1 
1 
1 
1 
1 
1 
1 
1 
1 
1 
1 
1 
1 
1 
1 
1 
1 
1 
1 
1 
1 
1 
1 
1 
1 
1 
1 
1 
1 
1 
1 
1 
1 
1 
1 
1 
1 
1 
1 
1 
1 
1 
1 
1 
1 
1 
1 
1 
1 
1 
1 
1 
1 
1 
1 
1 
1 
1 
1 
1 
1 
1 
1 
1 
1 
1 
1 
1 
1 
1 
1 
1 
1 
1 
1 
1 
1 
1 
1 
1 
1 
1 
1 
1 
1 
1 
1 
1 
1 
1 
1 
1 
1 
1 
1 
1 
1 
1 
1 
1 
1 
1 
1 
1 
1 
1 
1 
1 
1 
1 
1 
1 
1 
1 
1 
1 
1 
1 
1 
1 
1 
1 
1 
1 
1 
1 
1 
1 
1 
1 
1 
1 
1 
1 
1 
1 
1 
1 
1 
1 
1 
1 
1 
1 
1 
1 
1 
1 
1 
1 
1 
1 
1 
1 
1 
1 
1 
1 
1 
1 
1 
1 
1 
1 
1 
1 
1 
1 
1 
1 
1 
1 
1 
1 
1 
1 
1 
1 
1 
1 
1 
1 
1 
1 
1 
1 
1 
1 
1 
1 
1 
1 
1 
1 
1 
1 
1 
1 
1 
1 
1 
1 
1 
1 
1 
1 
1 
1 
1 
1 
1 
1 
1 
1 
1 
1 
1 
1 
1 
1 
1 
1 
1 
1 
1 
1 
1 
1 
1 
1 
1 
1 
1 
1 
1 
1 
1 
1 
1 
1 
1 
1 
1 
1 
1 
1 
1 
1 
1 
1 
1 
1 
1 
1 
1 
1 
1 
1 
1 
1 
1 
1 
1 
1 
1 
1 
1 
1 
1 
1 
1 
1 
1 
1 
1 
1 
1 
1 
1 
1 
1 
1 
1 
1 
1 
1 
1 
1 
1 
1 
1 
1 
1 
1 
1 
1 
1 
1 
1 
1 
1 
1 
1 
1 
1 
1 
1 
1 
1 
1 
1 
1 
1 
1 
1 
1 
1 
1 
1 
1 
1 
1 
1 
1 
1 
1 
1 
1 
1 
1 
1 
1 
1 
1 
1 
1 
1 
1 
1 
1 
1 
1 
1 
1 
1 
1 
1 
1 
1 
1 
1 
1 
1 
1 
1 
1 
1 
1 
1 
1 
1 
1 
1 
1 
1 
1 
1 
1 
1 
1 
1 
1 
1 
1 
1 
1 
1 
1 
1 
1 
1 
1 
1 
1 
1 
1 
1 
1 
1 
1 
1 
1 
1 
1 
1 
1 
1 
1 
1 
1 
1 
1 
1 
1 
1 
1 
1 
1 
1 
1 
1 
1 
1 
1 
1 
1 
1 
1 
1 
1 
1 
1 
1 
1 
1 
1 
1 
1 
1 
1 
1 
1 
1 
1 
1 
1 
1 
1 
1 
1 
1 
1 
1 
1 
1 
1 
1 
1 
1 
1 
1 
1 
1 
1 
1 
1 
1 
1 
1 
1 
1 
1 
1 
1 
1 
1 
1 
1 
1 
1 
1 
1 
1 
1 
1 
1 
1 
1 
1 
1 
1 
1 
1 
1 
1 
1 
1 
1 
1 
1 
1 
1 
1 
1 
1 
1 
1 
1 
1 
1 
1 
1 
1 
1 
1 
1 
1 
1 
1 
1 
1 
1 
1 
1 
1 
1 
1 
1 
1 
1 
1 
1 
1 
1 
1 
1 
1 
1 
1 
1 
1 
1 
1 
1 
1 
1 
1 
1 
1 
1 
1 
1 
1 
1 
1 
1 
1 
1 
1 
1 
1 
1 
1 
1 
1 
1 
1 
1 
1 
1 
1 
1 
1 
1 
1 
1 
1 
1 
1 
1 
1 
1 
1 
1 
1 
1 
1 
1 
1 
1 
1 
1 
1 
1 
1 
1 
1 
1 
1 
1 
1 
1 
1 
1 
1 
1 
1 
1 
1 
1 
1 
1 
1 
1 
1 
1 
1 
1 
1 
1 
1 
1 
1 
1 
1 
1 
1 
1 
1 
1 
1 
1 
1 
1 
1 
1 
1 
1 
1 
1 
1 
1 
1 
1 
1 
1 
1 
1 
1 
1 
1 
1 
1 
1 
1 
1 
1 
1 
1 
1 
1 
1 
1 
1 
1 
1 
1 
1 
1 
1 
1 
1 
1 
1 
1 
1 
1 
1 
1 
1 
1 
1 
1 
1 
1 
1 
1 
1 
1 
1 
1 
1 
1 
1 
1 
1 
1 
1 
1 
1 
1 
1 
1 
1 
1 
1 
1 
1 
1 
1 
1 
1 
1 
1 
1 
1 
1 
1 
1 
1 
1 
1 
1 
1 
1 
1 
1 
1 
1 
1 
1 
1 
1 
1 
1 
1 
1 
1 
1 
1 
1 
1 
1 
1 
1 
1 
1 
1 
1 
1 
1 
POINT_DATA 5000
VECTORS Stress float
-1150.27 -812.767 0.
187.273 -277.713 0.
169.676 -318.974 0.
-271.941 -561.947 0.
-327.475 -692.278 0.
-383.01 -822.609 0.
128.812 -770.186 0.
-8.02461 -1089.6 0.
-144.862 -1409.02 0.
-460.103 -1497.27 0.
-344.106 -1226.63 0.
-228.11 -955.989 0.
-608.32 -1074.02 0.
-597.674 -1049.25 0.
-188.33 -824.034 0.
-34.1814 -464.224 0.
119.967 -104.414 0.
358.699 5.57637 0.
28.9586 -764.318 0.
-300.782 -1534.21 0.
-873.591 -1894.91 0.
-696.439 -1481.51 0.
-519.287 -1068.11 0.
-469.585 -737.249 0.
-312.392 -370.694 0.
-26.7306 50.9139 0.
-1609.53 -456.914 0.
-1522.44 -252.855 0.
-1257.74 -75.3508 0.
-1426.3 -468.852 0.
-1594.86 -862.352 0.
-1227.77 -757.502 0.
-1071.4 -392.031 0.
-915.023 -26.5589 0.
-987.448 -441.334 0.
-1386.79 -1372.53 0.
-1786.14 -2303.72 0.
-2974.98 -2396.57 0.
-2659.08 -1659.45 0.
-3530.88 -1411.31 0.
-3128.62 -473.579 0.
-2726.35 464.155 0.
-5103.25 27.0742 0.
-5024.79 210.944 0.
-4946.33 394.814 0.
-7744.21 -1592.5 0.
-8596.41 -3578.89 0.
-9448.61 -5565.27 0.
38418.1 16685.2 0.
39948.6 20261.6 0.
-297867 -121597 0.
39890.6 20273.7 0.
38380.5 16744.3 0.
-9220.59 -5478.58 0.
-8613.99 -4064.18 0.
-8007.39 -2649.79 0.
-5111.36 -683.285 0.
-4989.96 -401.164 0.
-4868.55 -119.042 0.
-2985.26 703.19 0.
-3012.61 639.728 0.
-3039.95 576.267 0.
-3476.57 35.0607 0.
-3679.3 -437.609 0.
-89.6495 641.495 0.
-574.316 -490.035 0.
-1058.98 -1621.56 0.
-1401.27 -2123.93 0.
-1052.06 -1309.44 0.
-702.844 -494.956 0.
-765.06 -328.347 0.
-841.964 -508.218 0.
-918.869 -688.089 0.
-1449.12 -529.226 0.
-1173.85 112.789 0.
-161.261 1038.24 0.
-559.321 40.8391 0.
-993.385 -971.984 0.
141.44 -1145.83 0.
55.9846 -1345.25 0.
-29.4713 -1544.68 0.
371.23 -1200.24 0.
659.285 -527.389 0.
947.34 145.458 0.
-548.61 -256.025 0.
-496.641 -133.646 0.
-444.673 -11.268 0.
-568.807 -298.673 0.
-705.962 -619.585 0.
-593.61 -775.956 0.
-518.03 -599.957 0.
-442.45 -423.958 0.
300.18 -59.9789 0.
240.146 -201.268 0.
180.112 -342.556 0.
-231.99 -505.026 0.
-174.757 -371.23 0.
-117.524 -237.435 0.
-352.131 -344.476 0.
-374.116 -394.568 0.
-543.532 -522.616 0.
-134.606 -387.025 0.
-152.229 -428.748 0.
-63.4529 -439.39 0.
-118.605 -570.33 0.
-173.757 -701.27 0.
-135.91 -851.991 0.
-272.546 -1171.19 0.
-409.182 -1490.4 0.
-306.623 -1400.96 0.
-190.625 -1130.36 0.
-74.6268 -859.752 0.
-808.417 -1127.7 0.
-797.74 -1102.99 0.
-77.059 -746.127 0.
77.069 -386.105 0.
231.197 -26.0817 0.
-287.39 -240.269 0.
-616.654 -1010.05 0.
-945.919 -1779.84 0.
516.257 -1268.78 0.
693.581 -854.89 0.
870.905 -441 0.
-1184.17 -1011.41 0.
-1027.01 -645.397 0.
-1200.56 -421.116 0.
-1523.68 -389.165 0.
-1437.21 -184.814 0.
-991.756 69.3705 0.
-1160.19 -324.217 0.
-1328.62 -717.804 0.
-1252.87 -737.396 0.
-1096.77 -371.367 0.
-940.664 -5.33795 0.
-723.259 -297.754 0.
-1122.99 -1228.63 0.
-1522.72 -2159.5 0.
-2626.84 -2216.23 0.
-2310.85 -1478.8 0.
-3148.32 -1213.59 0.
-2745.41 -276.119 0.
-2342.5 661.355 0.
-4585.97 278.723 0.
-4507.9 463.268 0.
-4429.82 647.814 0.
-4873.91 -337.384 0.
-5729.2 -2326.81 0.
-6584.48 -4316.24 0.
33949.6 14812.3 0.
35471.9 18379.8 0.
-256231 -103722 0.
35214 18306.1 0.
33712.6 14785.5 0.
-6588.65 -4325.62 0.
-5980.35 -2909.23 0.
-5372.04 -1492.84 0.
-4194.25 -259.025 0.
-4072.14 22.3977 0.
-3950.03 303.822 0.
-2294.83 1030.68 0.
-2322.31 967.579 0.
-2349.79 904.475 0.
-3168.96 199.308 0.
-3371.99 -273.334 0.
-597.261 454.943 0.
-1081.33 -676.469 0.
-1565.39 -1807.88 0.
-703.53 -1792.02 0.
-353.908 -977.27 0.
-4.28492 -162.52 0.
-628.377 -240.012 0.
-705.033 -420.158 0.
-781.689 -600.305 0.
-1619.2 -570.324 0.
-1343.79 71.4653 0.
-987.653 716.108 0.
-1310.58 -248.608 0.
-1744.39 -1260.84 0.
1637.71 -473.143 0.
1552.17 -672.821 0.
1466.63 -872.499 0.
30.9164 -1314.01 0.
318.444 -640.954 0.
605.972 32.1043 0.
-802.174 -335.186 0.
-751.047 -212.533 0.
-699.92 -89.8803 0.
-661.273 -307.184 0.
-797.945 -628.737 0.
-318.858 -628.331 0.
-243.104 -452.637 0.
-167.351 -276.943 0.
20.7457 -146.983 0.
-38.6711 -289.251 0.
-98.0881 -431.519 0.
-153.152 -438.719 0.
-96.1263 -304.903 0.
-39.1005 -171.087 0.
-32.0652 -175.537 0.
-54.7001 -224.732 0.
-292.392 -1059.19 0.
-758.637 -1202.71 0.
-604.244 -843.067 0.
-306.74 -1380.29 0.
28.164 -597.969 0.
-255.351 -1258.64 0.
-1620.53 -3782.81 0.
-1328.47 -3102.48 0.
-3235.7 -7553.83 0.
-5162.62 -12991.9 0.
-1797.69 -5141.15 0.
-1932.3 -5455.99 0.
-2906.14 -5611.24 0.
-3254.72 -6421.15 0.
-3834.67 -9702.56 0.
-1026.27 -3146.73 0.
-1359.89 -3922.29 0.
-2656.11 -4516.22 0.
-2632.84 -4461.32 0.
-5314.29 -10717.4 0.
-16726.7 -44118.8 0.
-2327.38 -10517.8 0.
-1321.3 -8167.66 0.
-4221.5 -6711.33 0.
-3569.04 -5189.08 0.
-4472.27 -7352.99 0.
-3299.32 -4661.42 0.
-3182.81 -4391.23 0.
-2226.57 -3291.95 0.
-2189.98 -3204.8 0.
-3344.45 -5896.81 0.
-6987.81 -14047.1 0.
-3839.59 -6702.76 0.
-3828.01 -6677.28 0.
-3126.13 -6363.83 0.
-3564.01 -7391.24 0.
-13879.4 -31466.1 0.
-12152.7 -25075.7 0.
-8189.91 -15829.7 0.
-7941.15 -13100.5 0.
-5932.53 -8413.25 0.
-6053.09 -8694.15 0.
-7021.9 -6377.33 0.
-5865.71 -3683.05 0.
-5879.77 -3719.38 0.
-4332.49 -4505.04 0.
-5165.93 -6444.75 0.
-17172.8 -34455.8 0.
27077.6 7335.59 0.
28281.1 10177.9 0.
-202331 -89618.8 0.
27623.1 9551.02 0.
26151.5 6083.97 0.
-16864.5 -33295.8 0.
-5994.53 -7937.92 0.
-6267.27 -8579.64 0.
-6533.63 -7444.03 0.
-6028.54 -6264.13 0.
-7202.88 -9002.86 0.
-5418.69 -7546.57 0.
-4144.23 -4574.78 0.
-4186.83 -4676.16 0.
-4727.02 -3986.82 0.
-4877.04 -4338.15 0.
-4543.55 -7761.29 0.
-4262.22 -7105.33 0.
-6515.5 -12363.4 0.
-18105 -43693.3 0.
-3661.75 -9992.35 0.
-3481.06 -9570.67 0.
-4039.64 -8431.76 0.
-3524.6 -7230.17 0.
-5401.66 -11610.2 0.
-3171.75 -3837.92 0.
-2790.88 -2948.5 0.
-3764.08 -4302.84 0.
-2897.46 -2494.83 0.
-3623.38 -4185.14 0.
-6550.7 -22397.9 0.
-7100.8 -23681.3 0.
-19604.4 -52856.1 0.
-11922.8 -28525 0.
-5544.62 -13641.7 0.
-5319.23 -13115 0.
-3004.11 -4958.21 0.
-1855.35 -2281.49 0.
-2448.3 -3668.79 0.
-2149.07 -3567.7 0.
-2369 -4079.98 0.
-3217.63 -7900.62 0.
-750.168 -2139.85 0.
-561.668 -1697.02 0.
-1068.05 -2137 0.
-954.15 -1868.96 0.
-1935.82 -4157.21 0.
-1012.51 -2565.71 0.
-288.411 -875.034 0.
-207.78 -685.818 0.
-292.06 -1354.04 0.
-1329.64 -3776.31 0.
6.39156 -161.893 0.
-226.331 -115.35 0.
-177.708 -1.26189 0.
420.983 353.265 0.
491.63 521.961 0.
562.277 690.656 0.
302.943 945.053 0.
660.678 1779.44 0.
1018.41 2613.82 0.
1369.02 2826.78 0.
1221.51 2480.68 0.
1074 2134.57 0.
752.11 2099.97 0.
835.188 2295.58 0.
1409.64 2648.13 0.
1188.64 2135.67 0.
967.632 1623.2 0.
305.807 1538.04 0.
1116.3 3428.39 0.
1926.79 5318.74 0.
3775.61 6378.17 0.
3330.92 5339.44 0.
2886.23 4300.72 0.
325.429 2703.3 0.
121.257 2226.62 0.
467.001 1985.56 0.
-144.723 1509.72 0.
-252.599 1256.86 0.
-117.592 1314.31 0.
290.352 2268.23 0.
698.295 3222.15 0.
851.592 3519.4 0.
595.716 2922.68 0.
339.839 2325.96 0.
702.05 3429.31 0.
1614.21 5553.67 0.
2526.38 7678.04 0.
1612.34 7055.09 0.
1333.33 6403.68 0.
650.589 5517.78 0.
108.651 4255.41 0.
-433.286 2993.03 0.
-1480.59 1728.01 0.
-1665.07 1296.49 0.
-1849.54 864.975 0.
-279.293 1210.63 0.
-464.606 782.592 0.
-649.907 354.56 0.
24551.6 12491.2 0.
25540.2 14836.6 0.
-122295 -46599.9 0.
25308.1 14831.2 0.
24368.7 12601.4 0.
-750.375 672.001 0.
-345.455 1610.01 0.
59.4629 2548.02 0.
-827.942 2460.11 0.
-938.177 2204.16 0.
-1048.41 1948.21 0.
-757.336 1983.44 0.
-784.254 1919.64 0.
-811.171 1855.84 0.
-1181.41 1756.89 0.
-1140.41 1850.55 0.
-127.839 2579.15 0.
762.879 4656.02 0.
1653.6 6732.89 0.
3535.48 8134.4 0.
2799.23 6415.75 0.
2062.98 4697.1 0.
1027.84 3598.77 0.
969.997 3462.05 0.
912.153 3325.34 0.
373.935 2510.57 0.
4.11977 1650.83 0.
-597.949 739.852 0.
125.816 2590.14 0.
933.187 4476.26 0.
4474.72 7365.55 0.
4917.47 8398.5 0.
5360.22 9431.44 0.
3675.09 8317.14 0.
2735.94 6125.67 0.
1796.78 3934.21 0.
769.293 2579.9 0.
492.424 1931.14 0.
215.556 1282.38 0.
200.332 1311.74 0.
244.298 1415.8 0.
920.036 1742.63 0.
788.768 1438.22 0.
657.5 1133.81 0.
334.154 854.093 0.
348.665 891.7 0.
363.175 929.307 0.
308.129 736.153 0.
146.177 360.369 0.
-15.7749 -15.4152 0.
174.56 149.618 0.
267.926 367.35 0.
-81.8762 -167.832 0.
-128.668 -42.1144 0.
-80.5189 72.1122 0.
418.682 383.398 0.
488.266 552.6 0.
557.85 721.801 0.
192.981 928.259 0.
550.401 1762.71 0.
907.821 2597.16 0.
1082.02 2735.31 0.
934.989 2389.15 0.
787.954 2042.99 0.
1201.8 2324.54 0.
1285.42 2519.69 0.
1366.21 2660.78 0.
1145.13 2148.45 0.
924.053 1636.13 0.
772.386 1769.88 0.
1583.63 3660.58 0.
2394.88 5551.27 0.
2397.1 5820.04 0.
1953.97 4781.15 0.
1510.83 3742.26 0.
969.82 3012.02 0.
765.499 2534.86 0.
1257.13 2355.88 0.
496.475 1816.26 0.
388.356 1563.34 0.
63.9762 1423.31 0.
471.878 2377.39 0.
879.779 3331.47 0.
1248.36 3719.74 0.
991.916 3123.54 0.
735.472 2527.35 0.
265.967 3272.51 0.
1177.27 5396.54 0.
2088.58 7520.58 0.
1623.36 7093.22 0.
1344.3 6441.79 0.
1417.19 5877.36 0.
874.539 4615.07 0.
331.888 3352.77 0.
1068.54 2851.61 0.
883.032 2420.11 0.
697.529 1988.61 0.
1697.93 2082.4 0.
1512.42 1653.29 0.
1326.92 1224.19 0.
18773.8 10059.6 0.
19756.7 12395.7 0.
-57353.1 -18736.2 0.
19719.4 12472.9 0.
18785.7 10251.4 0.
1169.02 1518.85 0.
1575.08 2458.02 0.
1981.14 3397.19 0.
979.698 3268.8 0.
869.322 3012.43 0.
758.946 2756.06 0.
-34.7385 2323 0.
-61.9417 2259.5 0.
-89.1428 2196 0.
164.034 2366.89 0.
205.385 2460.6 0.
-131.265 2608.28 0.
759.822 4685 0.
1650.91 6761.72 0.
2852.2 7873.37 0.
2116.54 6155.3 0.
1380.89 4437.23 0.
936.529 3592.11 0.
879.12 3454.85 0.
821.71 3317.59 0.
1402.22 2985.13 0.
1031.4 2125.48 0.
423.323 1207.1 0.
1175.69 3070.52 0.
1984.18 4957.99 0.
2372.63 6498.12 0.
2815.01 7529.9 0.
3257.38 8561.68 0.
3458.45 8258.78 0.
2519.7 6067.28 0.
1580.94 3875.78 0.
1449.86 2901.39 0.
1172.51 2252.52 0.
895.161 1603.65 0.
533.476 1486.55 0.
577.146 1590.6 0.
941.968 1782.13 0.
810.983 1477.28 0.
679.997 1172.44 0.
498.829 957.637 0.
512.912 995.676 0.
526.996 1033.72 0.
208.704 724.606 0.
46.4059 349.021 0.
-115.892 -26.5627 0.
-26.3225 95.9586 0.
66.7552 314.105 0.
-22.1094 -517.762 0.
-326.834 -780.451 0.
-366.98 -874.675 0.
-173.33 -815.192 0.
-63.5263 -561.646 0.
46.2772 -308.101 0.
-471.07 -527.833 0.
-622.787 -879.576 0.
-774.505 -1231.32 0.
-592.625 -1144.43 0.
-495.971 -918.481 0.
-399.316 -692.53 0.
32.4986 -589.786 0.
-35.0203 -747.092 0.
-184.819 -903.286 0.
-29.1075 -539.146 0.
126.604 -175.006 0.
108.541 -181.391 0.
-237.599 -980.538 0.
-583.736 -1779.68 0.
-1400.45 -2120.99 0.
-1088.72 -1395.21 0.
-776.981 -669.421 0.
-328.041 -562.659 0.
-485.628 -934.431 0.
-127.34 -1085.01 0.
-359.246 -862.802 0.
-180.761 -448.036 0.
-625.408 -422.443 0.
-758.226 -732.035 0.
-891.044 -1041.63 0.
-572.564 -921.75 0.
-414.372 -561.118 0.
-256.179 -200.485 0.
-1430.82 -1001.72 0.
-1752.1 -1754.78 0.
-2073.37 -2507.84 0.
-2123.38 -2514.64 0.
-2069.94 -2393.9 0.
-1282.43 -1976.9 0.
-1326.08 -2082.66 0.
-1369.72 -2188.42 0.
407.124 -1596.41 0.
222.578 -2029.02 0.
38.0341 -2461.63 0.
1024.76 -1627.56 0.
1584.63 -322.393 0.
2144.51 982.78 0.
11670.6 2445.77 0.
9690.76 -2141.4 0.
-4104.35 -11791.2 0.
9755.78 -2071.12 0.
11754.9 2565.72 0.
1959.37 998.073 0.
1389.34 -321.438 0.
819.309 -1640.94 0.
-631.137 -2639.53 0.
-395.666 -2093.19 0.
-160.194 -1546.85 0.
-1092.14 -1628.21 0.
-963.349 -1322.36 0.
-834.553 -1016.51 0.
-582.231 -908.518 0.
-595.897 -939.47 0.
-1512.36 -1383.85 0.
-1657.95 -1722.41 0.
-1803.54 -2060.96 0.
-1514.19 -1990.21 0.
-1312.17 -1518.59 0.
-1110.14 -1046.98 0.
-953.141 -793.489 0.
-933.957 -747.453 0.
-914.773 -701.417 0.
324.579 -140.163 0.
342.939 -104.811 0.
200.518 -136.858 0.
59.1584 -390.345 0.
-43.9379 -627.432 0.
-1608.4 -1597.17 0.
-1934.46 -2355.21 0.
-2260.52 -3113.25 0.
-1288.38 -2701.78 0.
-923.376 -1851.88 0.
-558.368 -1001.99 0.
208.618 -398.543 0.
255.696 -290.675 0.
302.772 -182.806 0.
-164.912 -398.525 0.
-178.705 -425.373 0.
-61.6844 -395.88 0.
-90.9054 -457.759 0.
-120.127 -519.636 0.
-118.255 -571.158 0.
-146.172 -629.996 0.
-174.088 -688.835 0.
-373.333 -673.121 0.
-268.531 -431.499 0.
-163.729 -189.877 0.
-199.285 -148.131 0.
-188.795 -119.181 0.
585.553 -228.78 0.
-100.435 -651.812 0.
-141.496 -745.461 0.
-322.568 -850.5 0.
-212.501 -597.34 0.
-102.435 -344.18 0.
-443.847 -484.531 0.
-595.935 -836.737 0.
-748.024 -1188.94 0.
-310.115 -993.014 0.
-213.13 -767.618 0.
-116.144 -542.221 0.
-196.612 -657.644 0.
-264.357 -815.039 0.
-163.671 -863.58 0.
-8.11037 -499.439 0.
147.451 -135.298 0.
88.2419 -158.334 0.
-257.118 -958.592 0.
-602.477 -1758.85 0.
-992.579 -1913.5 0.
-680.351 -1187.86 0.
-368.122 -462.211 0.
-355.649 -545.894 0.
-513.273 -917.493 0.
-1195.87 -1514.12 0.
-260.969 -790.644 0.
-83.4771 -375.478 0.
-527.156 -350.107 0.
-660.317 -659.339 0.
-793.478 -968.571 0.
-516.196 -869.091 0.
-359.102 -507.314 0.
-202.007 -145.536 0.
-680.029 -651.482 0.
-1001.89 -1404.02 0.
-1323.76 -2156.56 0.
-1220.47 -2098.95 0.
-1167.18 -1978.1 0.
-374.621 -1557.9 0.
-418.406 -1663.87 0.
-462.19 -1769.85 0.
966.907 -1327.27 0.
782.29 -1760.59 0.
597.674 -2193.91 0.
1326.28 -1465.89 0.
1886.93 -161.446 0.
2447.57 1143 0.
8017.45 902.94 0.
6047.47 -3676.01 0.
-562.984 -10243.1 0.
6197.17 -3571.02 0.
8187.76 1056.7 0.
2538.8 1282.34 0.
1968.75 -37.5964 0.
1398.69 -1357.53 0.
-131.555 -2397.51 0.
103.327 -1850.19 0.
338.21 -1302.86 0.
-227.89 -1229.41 0.
-99.2571 -923.153 0.
29.378 -616.899 0.
-279.938 -748.187 0.
-293.636 -779.469 0.
-694.638 -1003.53 0.
-840.602 -1342.11 0.
-986.565 -1680.68 0.
-1157.77 -1805.56 0.
-955.338 -1334.03 0.
-752.908 -862.506 0.
-861.8 -724.078 0.
-842.304 -678.211 0.
-822.807 -632.343 0.
-9.7489 -252.112 0.
7.97811 -215.747 0.
122.007 -139.871 0.
-31.3242 -398.589 0.
-134.174 -635.671 0.
-812.373 -1225.91 0.
-1138.24 -1984.19 0.
-1464.11 -2742.47 0.
-1174.36 -2623.33 0.
-809.127 -1773.28 0.
-443.892 -923.231 0.
-9.69335 -461.758 0.
37.6827 -353.982 0.
85.0572 -246.206 0.
-229.125 -394.983 0.
-242.121 -422.552 0.
-222.038 -433.737 0.
-250.805 -496.313 0.
-279.573 -558.888 0.
-159.026 -556.759 0.
-186.578 -615.9 0.
-214.13 -675.042 0.
-193.301 -566.439 0.
-89.1878 -324.233 0.
14.9252 -82.0277 0.
-143.409 -91.5203 0.
-133.97 -62.3178 0.
1280.71 332.377 0.
444.962 218.715 0.
356.751 13.0164 0.
-469.453 -884.792 0.
-251.667 -376.769 0.
-125.242 -81.9027 0.
-907.426 -1584.18 0.
71.6724 701.588 0.
60.9465 677.358 0.
329.861 -24.4389 0.
-152.168 -1145.31 0.
180.262 -365.791 0.
-193.548 -178.929 0.
-274.936 -372.806 0.
-183.288 -912.696 0.
160.549 -115.772 0.
-172.729 -898.797 0.
-659.394 -1826.67 0.
-483.397 -1417.36 0.
-79.8619 -477.152 0.
-4.64519 -358.732 0.
-0.642465 -349.88 0.
16.5405 -310.316 0.
-203.909 -119.143 0.
-427.77 -641.41 0.
-265.353 -153.027 0.
198.853 133.101 0.
-165.13 -726.511 0.
-590.296 -647.051 0.
-145.398 385.164 0.
212.301 1213.94 0.
-843.275 -1709.18 0.
-418.064 -720.762 0.
55.5439 380.66 0.
537.484 802.019 0.
-452.606 -1503.41 0.
-1267.13 -3399.28 0.
-749.493 -2690.84 0.
-287.348 -1607.32 0.
429.995 -1386.38 0.
419.363 -1406.77 0.
612.983 -950.666 0.
1549.02 -999.117 0.
1414.22 -1312.85 0.
2118.89 332.04 0.
2353.58 391.247 0.
2209 58.9573 0.
2623.21 1030.46 0.
4838.07 424.804 0.
5125.53 1102.99 0.
-662.281 -2876.64 0.
5167.49 787.264 0.
5275.02 1034.4 0.
2579.61 341.19 0.
1947.51 -1141.62 0.
1329.13 -2592.39 0.
893.703 -924.126 0.
1545.31 592.628 0.
1557.11 616.499 0.
615.674 -864.301 0.
170.376 -1908.65 0.
1294.95 710.12 0.
168.103 -255.66 0.
-527.735 -1873.12 0.
-243.054 -1447.47 0.
811.354 1011.23 0.
328.105 -117.954 0.
-434.786 -772.819 0.
-567.343 -1079.5 0.
-392.864 -669.737 0.
-1022.15 -1244.86 0.
-89.9344 931.249 0.
-143.72 806.742 0.
-595.477 -962.458 0.
-856.013 -1567.5 0.
397.656 236.405 0.
-244.047 -703.062 0.
-659.956 -1675.58 0.
258.158 -190.258 0.
-152.877 -1146.87 0.
-72.8632 -957.629 0.
-376.903 -948.06 0.
-214.412 -565.446 0.
-89.6939 -270.908 0.
-539.808 -1265.58 0.
-475.396 -1113.15 0.
-835.857 -1952.12 0.
-253.789 -285.433 0.
157.235 671.341 0.
274.552 1053.62 0.
136.835 725.07 0.
-19.3777 353.202 0.
89.6577 148.06 0.
74.6009 110.705 0.
544.117 1204.02 0.
292.232 255.277 0.
103.327 -187.454 0.
22.3004 -378.432 0.
81.0621 353.932 0.
-338.882 -630.148 0.
627.737 -4.27951 0.
56.8896 -259.167 0.
56.1956 -261.844 0.
-374.546 -441.341 0.
-366.65 -423.248 0.
-358.754 -405.155 0.
-230.662 -354.484 0.
-241.2 -376.093 0.
-251.739 -397.703 0.
143.474 -370.877 0.
24.6386 -645.727 0.
-94.1968 -920.576 0.
-519.813 -1108.45 0.
-500.599 -1067.25 0.
-151.371 -879.756 0.
-89.9524 -739.394 0.
-28.5347 -599.032 0.
-57.1687 -606.312 0.
-197.826 -935.036 0.
-338.485 -1263.76 0.
-350.832 -1399.68 0.
-353.138 -1406.78 0.
-355.444 -1413.88 0.
-542.279 -1233.07 0.
-358.801 -806.379 0.
-180.027 -381.538 0.
-202.146 -498.301 0.
-255.303 -632.92 0.
-460.457 -828.169 0.
-493.958 -910.619 0.
-527.459 -993.07 0.
-568.214 -1051.38 0.
-570.336 -1059.88 0.
-572.458 -1068.38 0.
-41.3181 -841.252 0.
-45.8952 -845.465 0.
-50.4717 -849.677 0.
448.753 -911.565 0.
279.294 -1301.63 0.
616.278 -1443.41 0.
573.816 -1538.06 0.
531.355 -1632.72 0.
1260.39 -1362.9 0.
1280.88 -1315.27 0.
1301.36 -1267.65 0.
1659.13 -830.358 0.
1913.47 -235.698 0.
2167.82 358.962 0.
4031.11 558.056 0.
3549.06 -561.835 0.
799.164 -2651.66 0.
3933.33 -434.485 0.
4392.66 635.924 0.
2278.71 295.741 0.
2048.2 -248.851 0.
1817.69 -793.445 0.
801.294 -1527.82 0.
726.723 -1705.08 0.
652.152 -1882.35 0.
287.156 -1910.89 0.
426.745 -1587.08 0.
566.334 -1263.27 0.
-74.1877 -1309.05 0.
37.9864 -1041.3 0.
14.3876 -896.533 0.
-100.613 -1166.55 0.
-215.614 -1436.56 0.
-685.727 -1687.2 0.
-551.204 -1372.03 0.
-416.682 -1056.86 0.
-586.855 -932.948 0.
-508.268 -748.433 0.
-429.681 -563.917 0.
-478.776 -566.765 0.
-487.145 -581.176 0.
-128.875 -444.281 0.
-383.56 -978.629 0.
-606.426 -1499.34 0.
-291.558 -1669.55 0.
-259.128 -1591.75 0.
-226.697 -1513.96 0.
-491.264 -1462.38 0.
-340.621 -1107.1 0.
-189.977 -751.825 0.
-234.26 -486.528 0.
-88.0291 -143.009 0.
58.2022 200.51 0.
-248.2 -175.027 0.
-400.618 -531.647 0.
-439.139 -798.428 0.
-414.654 -746.191 0.
-390.17 -693.954 0.
-368.375 -666.715 0.
-378.973 -692.918 0.
-389.571 -719.121 0.
-23.1654 -546.259 0.
0.438621 -493.377 0.
24.0427 -440.496 0.
-331.727 -635.258 0.
-361.395 -706.99 0.
20.3681 -234.486 0.
-150.989 -316.695 0.
-151.362 -319.755 0.
-474.268 -451.993 0.
-466.405 -434.207 0.
-458.543 -416.421 0.
-31.0883 -238.229 0.
-42.0532 -259.173 0.
-53.0181 -280.118 0.
114.627 -350.454 0.
-3.83666 -625.817 0.
-122.3 -901.179 0.
-415.393 -1033.43 0.
-396.354 -992.086 0.
-112.573 -831.02 0.
-51.9779 -690.507 0.
8.6167 -549.994 0.
55.8408 -527.552 0.
-85.1116 -856.303 0.
-226.064 -1185.05 0.
-211.978 -1308.92 0.
-213.95 -1316.2 0.
-215.922 -1323.49 0.
-355.695 -1122.23 0.
-171.599 -696.02 0.
-5.78888 -277.443 0.
-343.846 -525.907 0.
-396.892 -660.596 0.
-190.645 -681.687 0.
-224.966 -764.003 0.
-259.287 -846.32 0.
-559.853 -1017.08 0.
-562.26 -1025.58 0.
-564.667 -1034.09 0.
128.234 -738.044 0.
123.07 -741.975 0.
117.907 -745.905 0.
999.557 -643.502 0.
829.999 -1034.01 0.
891.039 -1293.19 0.
848.474 -1388.29 0.
805.909 -1483.39 0.
1114.37 -1394.68 0.
1135.19 -1346.93 0.
1156.01 -1299.19 0.
1466.49 -881.155 0.
1721.97 -287.127 0.
1977.45 306.902 0.
2990.33 144.065 0.
2509.57 -975.32 0.
-1065.15 -3420.48 0.
3077.53 -771.518 0.
3535.83 298.603 0.
1950.72 186.604 0.
1719.82 -357.554 0.
1488.93 -901.714 0.
1021.71 -1401.75 0.
946.957 -1579.12 0.
872.202 -1756.49 0.
449.82 -1811.51 0.
588.368 -1486.18 0.
726.915 -1160.85 0.
197.809 -1163 0.
310.293 -895.144 0.
57.0309 -846.168 0.
-57.5855 -1116.18 0.
-172.202 -1386.18 0.
-495.562 -1572.66 0.
-360.645 -1257.78 0.
-225.728 -942.902 0.
-201.201 -737.65 0.
-122.752 -553.048 0.
-44.302 -368.445 0.
-527.238 -556.248 0.
-536.378 -570.385 0.
-55.8366 -383.005 0.
-394.34 -952.864 0.
-617.495 -1473.27 0.
-171.71 -1587.14 0.
-139.042 -1509.12 0.
-106.373 -1431.09 0.
-345.438 -1368.87 0.
-194.638 -1013.38 0.
-43.8377 -657.887 0.
-251.397 -460.411 0.
-105.193 -116.914 0.
41.0117 226.583 0.
-282.445 -157.545 0.
-435.411 -513.848 0.
-325.384 -718.786 0.
-301.488 -665.789 0.
-277.592 -612.792 0.
-486.655 -688.343 0.
-497.547 -714.605 0.
-508.438 -740.866 0.
27.9711 -492.694 0.
51.653 -439.812 0.
75.3348 -386.929 0.
-302 -591.928 0.
-332.194 -663.206 0.
-230.875 -237.231 0.
-208.255 -105.99 0.
-149.99 27.8859 0.
-151.636 44.3559 0.
-343.101 -404.439 0.
-534.566 -853.235 0.
-242.526 -902.16 0.
-193.756 -793.738 0.
-144.986 -685.316 0.
-0.175468 -546.808 0.
36.7704 -459.829 0.
73.7164 -372.85 0.
-101.546 -560.835 0.
-181.131 -739.743 0.
-162.081 -860.988 0.
-131.848 -788.883 0.
-101.615 -716.778 0.
16.7291 -663.488 0.
-41.4658 -800.456 0.
-99.6608 -937.425 0.
-33.7782 -963.284 0.
-36.461 -969.503 0.
-39.1439 -975.722 0.
-219.559 -947.509 0.
-146.09 -773.555 0.
212.474 -477.348 0.
-423.237 -891.206 0.
-497.889 -1064.83 0.
-227.438 -1075.13 0.
-240.209 -1104.12 0.
-252.98 -1133.12 0.
-465.614 -1166.67 0.
-370.727 -948.765 0.
-275.841 -730.856 0.
237.318 -791.91 0.
-41.1397 -1442.03 0.
-319.599 -2092.14 0.
790.809 -1653.56 0.
805.91 -1614 0.
760.976 -1587.41 0.
849.874 -1376.33 0.
938.77 -1165.25 0.
1083.34 -1013.59 0.
1034.46 -1118.55 0.
985.573 -1223.5 0.
1268.64 -969.928 0.
1431.81 -589.291 0.
1594.99 -208.654 0.
2470.93 117.821 0.
2389.28 -75.9979 0.
-1231.03 -1786.91 0.
2883.06 66.774 0.
2931.76 178.628 0.
1445.64 -459.205 0.
1269.12 -867.6 0.
1092.61 -1275.99 0.
955.45 -1449.17 0.
1034.01 -1264.23 0.
1112.58 -1079.28 0.
752.465 -1283.24 0.
680.096 -1453.54 0.
607.727 -1623.84 0.
213.192 -1677.37 0.
286.028 -1511.27 0.
-244.632 -1596 0.
-161.636 -1400.45 0.
-78.6411 -1204.89 0.
-167.336 -1166.96 0.
-216.357 -1277.88 0.
-265.378 -1388.8 0.
-335.416 -1318.16 0.
-214.426 -1037.24 0.
-93.4356 -756.313 0.
-657.876 -956.175 0.
-654.544 -953.913 0.
-152.083 -738.227 0.
-371.372 -1014.19 0.
-466.259 -1236.86 0.
50.1074 -1172.25 0.
6.94117 -1274.64 0.
-36.2252 -1377.03 0.
-314.674 -1415.45 0.
-175.783 -1090.4 0.
-36.892 -765.348 0.
-355.033 -845.305 0.
-378.002 -899.9 0.
-400.971 -954.495 0.
-620.276 -865.636 0.
-514.472 -620.538 0.
-90.2677 -275.946 0.
-114.384 -332.199 0.
-138.5 -388.452 0.
-447.829 -553.932 0.
-450.34 -566.506 0.
-452.851 -579.081 0.
33.4754 -363.41 0.
42.4826 -338.639 0.
51.4903 -313.869 0.
-56.5001 -306.13 0.
-22.3488 -228.975 0.
-230.045 -202.732 0.
-321.481 -121.808 0.
-263.237 11.8252 0.
237.652 242.405 0.
46.2878 -206.541 0.
-145.076 -655.488 0.
-216.911 -859.304 0.
-168.253 -750.699 0.
-119.594 -642.093 0.
-9.53416 -522.032 0.
27.3827 -434.994 0.
64.2996 -347.955 0.
88.6922 -447.577 0.
9.36612 -627.004 0.
-260.465 -872.783 0.
-230.377 -800.707 0.
-200.289 -728.632 0.
-6.79167 -642.086 0.
-65.0812 -779.21 0.
-123.371 -916.333 0.
-73.602 -949.022 0.
-75.8918 -955.686 0.
-78.1816 -962.35 0.
-230.944 -923.094 0.
-157.231 -749.62 0.
528.524 -313.775 0.
-68.3806 -705.605 0.
-142.214 -880.136 0.
-137.525 -1003.76 0.
-150.535 -1032.92 0.
-163.545 -1062.08 0.
-64.6571 -965.514 0.
29.425 -747.166 0.
123.506 -528.819 0.
430.891 -678.694 0.
151.132 -1328.33 0.
-128.629 -1977.96 0.
839.174 -1600.78 0.
854.116 -1561.07 0.
535.266 -1653.17 0.
624.005 -1442.25 0.
712.743 -1231.33 0.
769.477 -1117.58 0.
721.443 -1223.2 0.
673.408 -1328.83 0.
1093.45 -1011.62 0.
1256.54 -630.997 0.
1419.63 -250.374 0.
2293.09 70.6196 0.
2210.62 -122.548 0.
361.54 -1074.42 0.
2401.41 -108.038 0.
2449.15 4.27675 0.
1242.71 -513.785 0.
1065.98 -922.66 0.
889.247 -1331.53 0.
660.126 -1545.14 0.
738.292 -1360.71 0.
816.458 -1176.28 0.
804.769 -1227.02 0.
732.143 -1397.21 0.
659.517 -1567.4 0.
573.596 -1491.56 0.
645.893 -1324.78 0.
-221.044 -1556.64 0.
-137.955 -1360.4 0.
-54.8658 -1164.15 0.
43.7602 -1045.87 0.
-5.37398 -1156.35 0.
-54.5084 -1266.82 0.
-404.072 -1318.59 0.
-282.882 -1037.94 0.
-161.691 -757.287 0.
-467.765 -840.422 0.
-464.656 -837.938 0.
-331.835 -784.74 0.
-207.879 -913.06 0.
-302.98 -1135.25 0.
64.2602 -1136.91 0.
20.8386 -1238.44 0.
-22.583 -1339.97 0.
-302.879 -1381.14 0.
-164.171 -1055.86 0.
-25.4627 -730.58 0.
-138.724 -719.272 0.
-161.758 -773.79 0.
-184.793 -828.308 0.
-626.832 -838.646 0.
-521.56 -592.738 0.
-66.0402 -233.205 0.
-89.7612 -289.844 0.
-113.482 -346.484 0.
-342.219 -478.197 0.
-345.718 -489.783 0.
-349.218 -501.37 0.
-111.65 -395.269 0.
-102.403 -370.478 0.
-93.1549 -345.688 0.
241.597 -148.322 0.
276.282 -70.5748 0.
-177.345 -67.563 0.
-557.542 -430.493 0.
-29.9983 804.172 0.
691.655 596.247 0.
517.355 192.451 0.
680.269 575.625 0.
499.175 783.391 0.
466.619 708.781 0.
650.877 1138.81 0.
700.589 1185.37 0.
640.859 1045.9 0.
410.309 507.905 0.
567.078 343.28 0.
429.343 20.0276 0.
117.04 228.477 0.
513.843 1151.58 0.
155.062 311.636 0.
418.245 417.342 0.
378.988 326.088 0.
300.004 141.866 0.
609.628 744.611 0.
561.668 630.717 0.
-127.134 -978.339 0.
16.2215 -292.314 0.
406.435 615.525 0.
335.771 56.5934 0.
619.177 247.007 0.
242.84 -635.29 0.
129.897 -515.998 0.
513.353 374.304 0.
637.402 659.262 0.
845.722 438.623 0.
572.434 -200.031 0.
489.385 -394.396 0.
872.497 26.0228 0.
1136.06 639.032 0.
934.369 167.013 0.
2267.38 1683.44 0.
1678.5 302.709 0.
1070.35 60.2843 0.
911.668 -318.784 0.
1007.37 -104.029 0.
855.708 -283.988 0.
1253.87 637.535 0.
1252.74 627.717 0.
1435.98 154.793 0.
1599.39 534.017 0.
1643.87 635.476 0.
2575.91 1099.43 0.
2645.55 1260.24 0.
-406.634 1576.28 0.
2910.92 2051.2 0.
2241.02 487.394 0.
1877.98 1375.63 0.
1632.78 805.208 0.
1222.39 -149.984 0.
1368.34 705.3 0.
1261.26 456.148 0.
1302.97 553.673 0.
1307.66 -116.637 0.
1329.25 -64.7201 0.
1492.95 318.273 0.
1473.58 -36.8095 0.
1645.82 369.935 0.
597.916 336.645 0.
458.945 13.4528 0.
462.071 22.1413 0.
609.64 -88.1379 0.
1070.28 983.824 0.
712.08 145.056 0.
3.50821 -212.901 0.
200.597 246.504 0.
260.66 385.936 0.
146.8 252.246 0.
645.313 1416.77 0.
-319.808 196.601 0.
376.1 161.101 0.
730.453 986.343 0.
634.222 214.741 0.
589.854 107.679 0.
687.827 332.518 0.
243.559 -105.383 0.
104.02 -424.54 0.
315.58 75.6328 0.
404.137 165.429 0.
268.165 -147.061 0.
879.89 1284.61 0.
-49.067 551.255 0.
127.856 965.259 0.
36.9939 -11.0922 0.
219.721 415.449 0.
254.463 496.56 0.
-292.574 -535.681 0.
195.396 604.055 0.
164.57 532.706 0.
-333.148 -599.809 0.
70.8924 340.496 0.
-53.6251 47.6778 0.
481.098 -123.32 0.
265.642 -622.021 0.
-190.777 -329.89 0.
-596.417 -609.062 0.
-659.411 -753.259 0.
65.8811 -517.983 0.
111.379 -408.271 0.
156.876 -298.561 0.
132.33 -312.592 0.
66.3792 -465.74 0.
0.4288 -618.889 0.
-147.025 -760.357 0.
-172.333 -820.38 0.
-197.643 -880.403 0.
-16.0746 -655.514 0.
75.4623 -441.062 0.
64.5471 -314.451 0.
-113.477 -731.167 0.
-291.501 -1147.88 0.
-328.773 -1363.19 0.
-266.038 -1217.2 0.
-203.303 -1071.2 0.
-185.926 -983.954 0.
-159.054 -923.692 0.
-132.182 -863.43 0.
-339.786 -1124.72 0.
-465.136 -1418.61 0.
-229.948 -1558.19 0.
-85.1293 -1337.1 0.
3.64919 -1132.44 0.
26.0185 -1009.35 0.
-20.2475 -1122.32 0.
-66.5136 -1235.3 0.
33.2526 -1324.8 0.
-64.464 -1555.21 0.
-162.181 -1785.63 0.
294.953 -1650.03 0.
300.554 -1639.51 0.
306.156 -1628.98 0.
762.907 -1413.27 0.
773.253 -1391.34 0.
377.911 -1544.93 0.
382.437 -1540.88 0.
386.964 -1536.83 0.
410.694 -1438.52 0.
550.454 -1117.94 0.
690.214 -797.349 0.
980.524 -641.326 0.
899.173 -834.96 0.
817.822 -1028.59 0.
1586.96 -706.706 0.
1609.4 -656.34 0.
-853.47 -1671.59 0.
1823.19 -621.026 0.
1772.53 -739.274 0.
643.355 -1263.46 0.
725.721 -1069.68 0.
808.086 -875.896 0.
568.848 -947.376 0.
501.732 -1104.79 0.
434.617 -1262.21 0.
770.519 -1313.95 0.
650.823 -1592.98 0.
531.125 -1872.02 0.
571.706 -1611.18 0.
721.753 -1258.89 0.
101.772 -1298.4 0.
11.3163 -1509.27 0.
-79.1395 -1720.13 0.
-94.6667 -1723.55 0.
71.0273 -1337.68 0.
236.721 -951.822 0.
-207.839 -1118.66 0.
-306.774 -1349.1 0.
-405.708 -1579.55 0.
-537.515 -1582.37 0.
-474.949 -1435.65 0.
-221.624 -1209.49 0.
-44.5766 -1056.8 0.
-2.84326 -962.044 0.
-24.2016 -913.123 0.
-20.2973 -908.006 0.
-16.3932 -902.889 0.
-275.803 -1034.55 0.
-313.002 -1113.68 0.
-350.201 -1192.81 0.
-141.495 -1045.66 0.
-85.409 -911.441 0.
-29.3228 -777.218 0.
-481.184 -925.329 0.
-460.257 -877.209 0.
-213.757 -719.599 0.
-150.379 -572.824 0.
-87.0013 -426.049 0.
-262.853 -450.916 0.
-281.899 -498.046 0.
-300.945 -545.177 0.
-332.023 -481.544 0.
-244.882 -281.492 0.
-157.74 -81.4388 0.
383.69 17.4759 0.
272.186 -238.637 0.
-54.3156 -242.498 0.
-534.762 -553.284 0.
-597.219 -697.798 0.
-98.4452 -555.659 0.
-53.3031 -445.98 0.
-8.1614 -336.302 0.
274.981 -219.431 0.
209.15 -372.982 0.
143.32 -526.533 0.
-147.314 -728.393 0.
-172.035 -788.527 0.
-196.757 -848.661 0.
-191.275 -699.433 0.
-100.256 -484.736 0.
300.112 -183.024 0.
121.996 -599.747 0.
-56.1185 -1016.47 0.
-292.805 -1315.99 0.
-230.154 -1170.28 0.
-167.502 -1024.57 0.
-233.898 -971.804 0.
-206.461 -911.618 0.
-179.025 -851.433 0.
-321.942 -1086.65 0.
-448 -1380.03 0.
-179.624 -1504.72 0.
-100.149 -1314.4 0.
-11.0864 -1110.06 0.
176.202 -913.127 0.
130.059 -1026.41 0.
83.9166 -1139.68 0.
-18.3289 -1311.62 0.
-115.412 -1542.85 0.
-212.496 -1774.07 0.
484.53 -1537.37 0.
490.227 -1526.44 0.
495.925 -1515.51 0.
562.797 -1467.62 0.
572.06 -1444.62 0.
388.947 -1509.26 0.
392.723 -1504.7 0.
396.499 -1500.14 0.
487.344 -1376.39 0.
626.666 -1055.37 0.
765.989 -734.35 0.
856.46 -663.473 0.
775.594 -857.278 0.
694.729 -1051.08 0.
1342.09 -779.205 0.
1364.68 -729.314 0.
-3051.88 -2581.34 0.
1910.34 -551.55 0.
1859.48 -670.44 0.
534.852 -1275.43 0.
617.622 -1082.14 0.
700.391 -888.852 0.
474.179 -957.227 0.
407.6 -1114.58 0.
341.022 -1271.93 0.
756.847 -1289.79 0.
636.959 -1568.25 0.
517.072 -1846.72 0.
310.979 -1691.24 0.
461.33 -1339 0.
371.684 -1150.49 0.
281.022 -1361.27 0.
190.36 -1572.06 0.
-84.4046 -1688.37 0.
81.3036 -1302.43 0.
247.012 -916.496 0.
23.2006 -988.56 0.
-75.138 -1219.26 0.
-173.477 -1449.96 0.
-396.391 -1489.66 0.
-333.451 -1343.15 0.
644.307 -807.216 0.
95.5333 -965.079 0.
136.753 -870.103 0.
-218.599 -964.157 0.
-214.959 -959.077 0.
-211.318 -953.997 0.
-409.819 -1062.27 0.
-447.284 -1141.32 0.
-484.75 -1220.37 0.
-157.517 -1021.46 0.
-101.067 -887.833 0.
-44.6176 -754.209 0.
-218.287 -781.948 0.
-196.802 -734.056 0.
-132.162 -653.506 0.
-68.5444 -506.947 0.
-4.92673 -360.388 0.
-253.452 -414.169 0.
-271.447 -461.962 0.
-289.443 -509.756 0.
-376.456 -469.653 0.
-289.033 -269.794 0.
-201.61 -69.934 0.
207.208 -26.3376 0.
96.1032 -281.565 0.
-301.605 -573.936 0.
-459.281 -513.977 0.
-369.566 -305.604 0.
118.765 17.6824 0.
50.5059 -143.735 0.
-17.7531 -305.152 0.
310.183 -283.51 0.
260.893 -401.955 0.
211.602 -520.401 0.
-171.775 -740.833 0.
-189.611 -782.137 0.
-207.448 -823.442 0.
-296.359 -879.559 0.
-307.916 -906.301 0.
134.115 -744.963 0.
102.5 -817.198 0.
70.8857 -889.432 0.
-147.9 -939.228 0.
-7.34218 -611.279 0.
133.216 -283.33 0.
81.0905 -323.537 0.
-59.3215 -646.071 0.
-199.733 -968.603 0.
-241.43 -960.791 0.
-173.929 -805.198 0.
556.715 -365.27 0.
103.232 -622.436 0.
68.6741 -703.04 0.
343.415 -691.536 0.
211.919 -995.243 0.
80.4238 -1298.95 0.
-10.2805 -1507.38 0.
-37.8314 -1573.8 0.
-65.3829 -1640.22 0.
520.853 -1441.16 0.
496.388 -1496.6 0.
471.923 -1552.03 0.
416.104 -1491.14 0.
468.409 -1369.15 0.
599.567 -1222.63 0.
631.04 -1150.17 0.
662.513 -1077.71 0.
572.282 -1112.71 0.
506.181 -1261.38 0.
440.08 -1410.06 0.
525.682 -1215.77 0.
733.119 -728.136 0.
940.555 -240.502 0.
1416.13 -202.835 0.
1244.56 -601.829 0.
-5305.31 -3735.22 0.
1925.87 -440.634 0.
2030.76 -199.734 0.
721.948 -641.863 0.
638.745 -834.023 0.
555.541 -1026.18 0.
385.2 -1197.6 0.
360.848 -1252.79 0.
336.497 -1307.98 0.
735.028 -1092.05 0.
780.744 -983.57 0.
826.459 -875.087 0.
552.07 -1074.46 0.
498.098 -1198.66 0.
329.289 -1352.11 0.
348.603 -1306.22 0.
367.916 -1260.33 0.
98.2867 -1331.23 0.
128.997 -1256.06 0.
159.707 -1180.88 0.
-46.3645 -1206.23 0.
-17.3776 -1138.24 0.
11.6096 -1070.25 0.
-68.4993 -1104.84 0.
-72.7919 -1119.58 0.
1040.01 -659.597 0.
24.9265 -957.044 0.
97.2362 -788.406 0.
-185.871 -816.325 0.
-230.797 -912.452 0.
-275.722 -1008.58 0.
-429.784 -1075.76 0.
-382.883 -969.958 0.
-335.983 -864.157 0.
-116.953 -838.417 0.
-190.134 -1012.75 0.
-263.315 -1187.08 0.
-131.933 -882.309 0.
21.2462 -527.575 0.
92.7498 -249.332 0.
58.6652 -328.861 0.
24.5806 -408.39 0.
-395.099 -586.256 0.
-326.147 -426.701 0.
-257.196 -267.146 0.
-173.979 -217.645 0.
-213.505 -306.492 0.
-253.032 -395.339 0.
-8.41741 -324.963 0.
-19.8652 -354.857 0.
-656.227 -695.311 0.
-345.832 -434.274 0.
-256.651 -225.59 0.
250.637 105.128 0.
181.484 -56.0078 0.
112.331 -217.145 0.
361.923 -228.684 0.
312.793 -347.58 0.
263.662 -466.477 0.
-182.898 -714.419 0.
-200.723 -755.987 0.
-218.548 -797.555 0.
-173.536 -797.305 0.
-185.528 -823.045 0.
104.735 -726.887 0.
73.6214 -799.264 0.
42.5082 -871.642 0.
-191.598 -926.359 0.
-50.7194 -598.794 0.
90.1594 -271.229 0.
238.836 -225.349 0.
98.3905 -548.176 0.
-42.0548 -871.003 0.
-170.139 -898.531 0.
-102.741 -742.975 0.
165.216 -501.41 0.
-65.2149 -664.35 0.
-99.4338 -745.45 0.
390.83 -639.996 0.
259.475 -943.715 0.
128.12 -1247.43 0.
284.769 -1347.58 0.
257.708 -1414.59 0.
230.646 -1481.61 0.
357.213 -1478.91 0.
332.93 -1534.83 0.
308.647 -1590.75 0.
314.666 -1502.8 0.
367.193 -1380.38 0.
830.958 -1092.6 0.
862.069 -1019.92 0.
893.179 -947.237 0.
455.634 -1132.82 0.
389.602 -1282.17 0.
323.571 -1431.52 0.
438.952 -1219.14 0.
646.482 -732.51 0.
854.012 -245.877 0.
1268.86 -232.942 0.
1097.8 -632.712 0.
5250.58 820.279 0.
1799.34 -462.4 0.
1903.88 -221.305 0.
664.54 -634.118 0.
580.883 -825.885 0.
497.226 -1017.65 0.
531.879 -1105.78 0.
506.829 -1160.43 0.
481.78 -1215.09 0.
514.681 -1155.93 0.
559.965 -1047.18 0.
605.25 -938.433 0.
771.881 -947.826 0.
717.383 -1071.92 0.
200.945 -1377.25 0.
220.674 -1331.75 0.
240.404 -1286.24 0.
193.673 -1258.33 0.
224.661 -1183.23 0.
255.649 -1108.13 0.
-180.777 -1233.86 0.
-151.533 -1165.74 0.
-122.288 -1097.63 0.
224.226 -946.236 0.
219.483 -960.497 0.
751.058 -752.712 0.
-240.183 -1040.43 0.
-167.87 -872.044 0.
-66.464 -733.542 0.
-110.622 -830.533 0.
-154.779 -927.524 0.
-297.131 -987.407 0.
-251.509 -881.027 0.
-205.887 -774.647 0.
-154.47 -824.161 0.
-228.105 -998.898 0.
-301.74 -1173.64 0.
-47.1602 -814.895 0.
105.859 -460.004 0.
158.581 -190.143 0.
124.914 -269.776 0.
91.2476 -349.409 0.
-542.845 -618.915 0.
-473.893 -459.39 0.
-404.941 -299.866 0.
112.128 -64.0104 0.
72.819 -153.098 0.
33.51 -242.186 0.
-19.0519 -297.647 0.
-31.3741 -328.303 0.
-36.5391 1433.04 0.
44.8003 294.991 0.
-235.066 -363.389 0.
322.855 63.9281 0.
278.3 -43.407 0.
666.02 859.19 0.
225.906 -612.929 0.
341.512 -343.242 0.
444.999 -102.515 0.
-246.373 -810.08 0.
131.678 72.049 0.
321.528 515.507 0.
455.008 471.91 0.
619.55 857.338 0.
906.471 1227.33 0.
269.742 -258.633 0.
509.111 300.11 0.
466.944 723.115 0.
659.02 1170.89 0.
553.123 923.291 0.
1007.62 1311.26 0.
772.558 758.94 0.
798.188 815.362 0.
303.317 87.1271 0.
768.55 1171.12 0.
687.564 469.965 0.
-52.6819 -301.317 0.
274.326 461.065 0.
1070.4 889.255 0.
1085.81 929.263 0.
760.306 173.855 0.
1526.71 1014.72 0.
1073.15 -38.8659 0.
1103.33 36.1301 0.
1347.83 1185.2 0.
1112.7 634.861 0.
1100.01 602.986 0.
1434.3 1341.19 0.
884.912 59.6523 0.
1361.18 -262.756 0.
1944.17 1094.74 0.
1577.98 237.159 0.
1168.02 788.412 0.
796.562 -79.6426 0.
867.923 85.4695 0.
1487.1 1437.14 0.
1028.55 361.544 0.
805 -165.596 0.
862.449 -868.172 0.
1806.59 1336.93 0.
-5916.27 -410.804 0.
2478.83 1398.89 0.
1830.47 -112.003 0.
477.122 -930.55 0.
1159.41 662.064 0.
906.451 71.9567 0.
1080.77 -62.8292 0.
1487.73 884.087 0.
1158.83 114.503 0.
719.312 -220.407 0.
1098.26 658.8 0.
523.904 -686.622 0.
1627.93 681.407 0.
1861.26 1221.02 0.
1019.79 801.709 0.
702.654 61.9457 0.
732.044 130.408 0.
1023.37 524.457 0.
780.001 -44.2508 0.
642.811 -365.581 0.
451.165 525.447 0.
201.57 -60.2217 0.
190.442 -89.3042 0.
836.963 -38.0392 0.
824.692 -66.5344 0.
945.701 672.767 0.
70.0192 208.373 0.
383.849 944.63 0.
683.986 822.736 0.
561.57 538.677 0.
133.157 -460.225 0.
429.556 484.313 0.
567.811 803.028 0.
474.733 582.247 0.
321.553 392.492 0.
244.477 215.805 0.
458.846 719.009 0.
596.358 551.122 0.
335.497 -51.0971 0.
750.268 1098.89 0.
555.336 649.856 0.
243.652 -72.1951 0.
-25.0145 872.511 0.
242.283 1497.83 0.
44 1036.8 0.
569.38 502.562 0.
581.712 529.083 0.
1005.67 1516.97 0.
629.094 1252.24 0.
854.051 1776.46 0.
309.802 110.962 0.
-225.318 -321.511 0.
-366.43 -652.609 0.
18.6478 -687.692 0.
59.9862 -591.397 0.
101.326 -495.103 0.
198.83 -414.443 0.
188.628 -438.456 0.
178.425 -462.469 0.
-137.145 -536.082 0.
-79.5797 -400.28 0.
-22.015 -264.478 0.
124.101 -289.524 0.
62.6686 -434.202 0.
138.356 -494.61 0.
163.334 -437.089 0.
188.312 -379.568 0.
-4.32469 -498.505 0.
-106.355 -737.745 0.
-208.386 -976.986 0.
-120.143 -1055.33 0.
-149.616 -1128.65 0.
-179.089 -1201.97 0.
64.4024 -1043.29 0.
114.226 -930.835 0.
433.172 -702.945 0.
-301.509 -1199.27 0.
-398.352 -1424.74 0.
11.4963 -1389.11 0.
26.4629 -1351.16 0.
41.4293 -1313.22 0.
727.049 -1043.67 0.
670.585 -1171.72 0.
614.121 -1299.77 0.
264.687 -1336.48 0.
385.127 -1055.98 0.
505.567 -775.472 0.
400.152 -1017.71 0.
269.498 -1323.55 0.
709.733 -1360.37 0.
719.111 -1342.47 0.
728.489 -1324.56 0.
274.497 -1396.84 0.
454.054 -979.918 0.
633.611 -562.99 0.
694.204 -530.172 0.
552.983 -867.075 0.
411.761 -1203.98 0.
791.316 -881.729 0.
943.897 -525.083 0.
-1020.35 -1077.18 0.
1453.22 -283.451 0.
1312.71 -610.354 0.
334.203 -1218.55 0.
360.402 -1158.27 0.
386.6 -1097.99 0.
609.634 -1010.84 0.
582.122 -1075.97 0.
554.61 -1141.1 0.
154.76 -1329.98 0.
150.91 -1341.28 0.
147.06 -1352.59 0.
769.811 -1115.66 0.
756.343 -1151.72 0.
378.053 -1316.25 0.
473.025 -1096.55 0.
567.995 -876.853 0.
275.864 -935.033 0.
203.943 -1104.14 0.
132.022 -1273.24 0.
-169.117 -1414.9 0.
-122.168 -1309.16 0.
-75.2184 -1203.42 0.
367.243 -891.946 0.
436.703 -727.708 0.
75.3053 -745.185 0.
-389.015 -1015.71 0.
-429.287 -1104.87 0.
-9.873 -949.544 0.
61.1779 -782.876 0.
132.228 -616.209 0.
6.53734 -620.738 0.
-15.792 -673.269 0.
-38.1208 -725.801 0.
-150.603 -728.227 0.
-108.527 -626.707 0.
-66.4499 -525.187 0.
134.847 -571.421 0.
49.9331 -764.453 0.
-268.962 -1020.96 0.
-193.404 -839.535 0.
-117.847 -658.109 0.
-557.635 -689.637 0.
-477.298 -499.799 0.
-396.962 -309.961 0.
247.91 -66.7277 0.
164.91 -260.715 0.
81.9095 -454.702 0.
83.1564 -288.264 0.
211.11 11.068 0.
1444.2 627.401 0.
-215.657 -285.502 0.
-357.841 -616.129 0.
55.7238 -643.14 0.
95.996 -546.006 0.
136.269 -448.873 0.
77.3166 -435.46 0.
67.2407 -459.539 0.
57.1644 -483.618 0.
-132.278 -503.228 0.
-74.98 -367.489 0.
-17.682 -231.751 0.
134.961 -254.299 0.
73.3355 -399.1 0.
120.083 -470.44 0.
144.505 -412.904 0.
168.928 -355.369 0.
76.7434 -430.196 0.
-25.4156 -668.98 0.
-127.575 -907.764 0.
-243.633 -1081.19 0.
-274.049 -1154.11 0.
-304.465 -1227.03 0.
384.786 -872.486 0.
434.814 -760.687 0.
55.5818 -833.022 0.
-118.894 -1089.92 0.
-215.763 -1315.67 0.
-70.9301 -1395.19 0.
-56.0891 -1357.06 0.
-41.2485 -1318.94 0.
847.89 -958.377 0.
791.933 -1086.67 0.
735.977 -1214.97 0.
279.355 -1296.68 0.
399.021 -1015.33 0.
518.686 -733.973 0.
388.977 -992.319 0.
258.215 -1297.69 0.
505.014 -1416.96 0.
514.816 -1399.14 0.
524.619 -1381.32 0.
341.655 -1334.97 0.
521.235 -918.399 0.
700.816 -501.827 0.
774.528 -464.691 0.
633.003 -801.36 0.
491.476 -1138.03 0.
728.971 -877.286 0.
881.231 -520.532 0.
-161.803 -677.421 0.
1094.44 -405.609 0.
954.107 -732.388 0.
327.349 -1191.15 0.
353.412 -1131.22 0.
379.474 -1071.3 0.
548.462 -1003.87 0.
520.87 -1069.48 0.
493.279 -1135.1 0.
60.4435 -1340.45 0.
56.3484 -1351.3 0.
52.2537 -1362.14 0.
675.636 -1124.85 0.
661.807 -1161.03 0.
726.612 -1133.58 0.
822.016 -914.354 0.
917.418 -695.123 0.
138.289 -963.349 0.
66.5991 -1132.22 0.
-5.09138 -1301.09 0.
106.591 -1265.73 0.
154.299 -1160.34 0.
202.006 -1054.94 0.
255.36 -908.119 0.
324.932 -743.557 0.
-173.477 -820.055 0.
-293.272 -943.668 0.
-332.962 -1033.33 0.
87.7976 -875.921 0.
158.562 -709.054 0.
229.326 -542.188 0.
83.0132 -556.699 0.
60.1838 -609.174 0.
37.355 -661.649 0.
-125.21 -686.058 0.
-82.7236 -585.242 0.
-40.2374 -484.427 0.
175.025 -522.575 0.
90.7994 -716.515 0.
-388.189 -1041.61 0.
-312.598 -860.221 0.
-237.007 -678.829 0.
-371.821 -577.018 0.
-291.712 -387.059 0.
-211.604 -197.1 0.
167.493 -71.8022 0.
84.1652 -265.754 0.
0.837476 -459.705 0.
239.574 -190.496 0.
366.837 108.745 0.
1163.44 21.156 0.
-396.52 -753.41 0.
-414.163 -791.57 0.
68.1368 -606.085 0.
75.6253 -588.131 0.
83.1139 -570.177 0.
-54.3462 -588.268 0.
-16.0542 -495.863 0.
22.2374 -403.459 0.
-125.782 -422.678 0.
-109.105 -384.346 0.
-92.4284 -346.013 0.
76.5477 -311.732 0.
48.0812 -374.582 0.
127.181 -395.542 0.
63.642 -543.471 0.
0.103139 -691.401 0.
-62.732 -825.094 0.
-97.2211 -902.127 0.
-131.71 -979.16 0.
-172.273 -877.989 0.
-25.3348 -536.208 0.
121.603 -194.427 0.
747.233 -4.41438 0.
640.562 -251.513 0.
636.703 -454.087 0.
209.799 -793.103 0.
130.282 -981.472 0.
140.444 -1058.92 0.
236.3 -835.637 0.
332.157 -612.357 0.
946.341 -348.535 0.
822.66 -639.851 0.
698.981 -931.167 0.
368.139 -1150.37 0.
376.529 -1135.97 0.
384.919 -1121.57 0.
538.575 -877.982 0.
641.494 -637.267 0.
785.563 -419.274 0.
693.802 -630.281 0.
602.041 -841.288 0.
507.108 -950.936 0.
575.081 -786.547 0.
643.055 -622.16 0.
704.782 -559.53 0.
684.359 -605.91 0.
663.936 -652.289 0.
737.201 -658.068 0.
722.238 -695.849 0.
-1068.08 -1493.78 0.
900.796 -584.028 0.
935.497 -503.29 0.
550.31 -602.68 0.
583.164 -526.926 0.
616.017 -451.172 0.
684.169 -472.252 0.
584.752 -702.695 0.
485.334 -933.139 0.
242.86 -1044.59 0.
284.56 -945.718 0.
326.26 -846.847 0.
826.394 -571.909 0.
854.98 -498.088 0.
1113.12 -369.057 0.
967.662 -707.609 0.
822.2 -1046.16 0.
-112.488 -1598.53 0.
-67.5511 -1491.6 0.
-22.6143 -1384.68 0.
214.608 -1186.27 0.
262.011 -1072.48 0.
309.414 -958.688 0.
225.486 -866.463 0.
291.489 -711.564 0.
258.839 -613.548 0.
-99.0754 -769.717 0.
-99.4494 -772.191 0.
87.3147 -702.625 0.
58.4042 -768.058 0.
29.4935 -833.491 0.
-126.425 -926.797 0.
-122.047 -916.78 0.
-117.67 -906.763 0.
-73.8594 -729.468 0.
42.1921 -459.411 0.
158.245 -189.353 0.
309.789 -184.44 0.
268.736 -278.969 0.
-197.365 -533.281 0.
-195.632 -533.816 0.
-193.899 -534.35 0.
-283.112 -587.21 0.
-288.788 -605.336 0.
-294.464 -623.463 0.
-124.718 -527.131 0.
-99.9699 -470.53 0.
-75.2225 -413.928 0.
186.601 -130.266 0.
298.648 122.279 0.
62.4922 -421.949 0.
-327.549 -693.729 0.
-344.806 -732.375 0.
67.154 -574.424 0.
74.3726 -556.332 0.
81.5914 -538.24 0.
-68.8234 -562.163 0.
-29.8194 -470.372 0.
9.18414 -378.581 0.
-172.114 -412.388 0.
-155.669 -374.046 0.
-139.225 -335.705 0.
15.4338 -304.8 0.
-12.8605 -368.306 0.
129.58 -363.084 0.
65.3735 -511.064 0.
1.16758 -659.044 0.
-44.9435 -785.687 0.
-78.807 -863.377 0.
-112.671 -941.066 0.
-56.2182 -795.516 0.
90.452 -453.349 0.
237.122 -111.183 0.
457.579 -98.3354 0.
351.141 -345.775 0.
268.888 -582.814 0.
557.724 -611.903 0.
477.884 -799.613 0.
409.191 -913.504 0.
504.776 -689.594 0.
600.362 -465.684 0.
475.627 -521.273 0.
351.062 -811.492 0.
226.5 -1101.71 0.
459.467 -1078.04 0.
468.1 -1063.7 0.
476.733 -1049.37 0.
827.026 -724.301 0.
930.227 -483.224 0.
653.636 -443.141 0.
561.376 -653.451 0.
469.116 -863.76 0.
473.012 -937.01 0.
540.515 -771.899 0.
608.017 -606.788 0.
587.043 -576.184 0.
567.548 -623.453 0.
548.053 -670.721 0.
618.779 -678.227 0.
603.433 -715.703 0.
600.502 -747.182 0.
1016.74 -502.443 0.
1051.12 -421.575 0.
520.488 -582.934 0.
553.393 -507.379 0.
586.298 -431.824 0.
542.507 -503.793 0.
443.023 -734.327 0.
343.539 -964.861 0.
499.132 -903.465 0.
541.871 -805.6 0.
584.61 -707.736 0.
735.369 -579.186 0.
763.919 -505.85 0.
937.518 -411.277 0.
792.512 -750.128 0.
647.507 -1088.98 0.
95.2706 -1478.96 0.
140.378 -1372.26 0.
185.484 -1265.56 0.
140.288 -1186.24 0.
187.459 -1071.79 0.
234.629 -957.35 0.
253.28 -826.03 0.
318.938 -670.911 0.
830.331 -334.572 0.
129.316 -638.445 0.
129.068 -641.455 0.
-137.542 -768.3 0.
-166.694 -833.561 0.
-195.846 -898.821 0.
-279.197 -961.354 0.
-274.358 -951.794 0.
-269.518 -942.234 0.
95.5171 -625.457 0.
212.435 -356.034 0.
329.353 -86.6092 0.
280.564 -164.539 0.
239.434 -259.568 0.
-108.35 -464.982 0.
-106.551 -465.143 0.
-104.75 -465.304 0.
-185.29 -514.007 0.
-191.283 -531.961 0.
-197.276 -549.915 0.
-246.977 -546.916 0.
-222.324 -490.677 0.
-197.671 -434.439 0.
-107.896 -226.346 0.
3.46776 25.4405 0.
-466.042 424.166 0.
456.061 1035.31 0.
195.17 423.992 0.
890.42 1391.26 0.
445.051 347.719 0.
622.345 757.702 0.
157.13 17.5335 0.
252.709 244.783 0.
330.305 430.014 0.
371.326 958.6 0.
203.835 570.427 0.
159.832 471.102 0.
424.64 796.539 0.
563.687 1122.64 0.
577.144 711.417 0.
133.389 -322.978 0.
395.57 290.361 0.
510.82 511.712 0.
795.369 1177.66 0.
651.559 843.872 0.
269.205 -230.595 0.
387.579 52.3156 0.
411.647 115.139 0.
133.488 -299.885 0.
601.308 794.76 0.
522.388 -173.866 0.
1031.57 -136.446 0.
1669.45 1357.24 0.
1119.39 264.895 0.
1486.01 1122.49 0.
1222.07 509.47 0.
-36.0371 -796.898 0.
951.559 1503.4 0.
860.558 1286.38 0.
1235.03 596.338 0.
1107.23 299.406 0.
1236.76 602.38 0.
1331.39 -57.2048 0.
1066.42 -676.991 0.
299.185 -968.353 0.
1280.84 1325.37 0.
1013.95 704.917 0.
782.8 -114.353 0.
832.874 -0.719794 0.
996.362 378.329 0.
698.456 -68.962 0.
406.652 -750.779 0.
544.22 -430.915 0.
783.031 -42.7198 0.
904.996 242.8 0.
-1707.22 -817.286 0.
1635.77 744.954 0.
1040.14 -639.564 0.
880.247 354.412 0.
985.264 599.53 0.
743.272 34.9151 0.
436.613 -458.363 0.
722.576 210.81 0.
582.634 -113.618 0.
1008.07 -184.845 0.
511.973 -1342.24 0.
1150.43 147.447 0.
933.911 90.2791 0.
1260.06 845.744 0.
1192.8 541.231 0.
1023.87 153.878 0.
1127.24 402.736 0.
979.711 224.667 0.
1320.04 1022.05 0.
1008.23 297.914 0.
497.859 -176.243 0.
766.17 454.859 0.
1119.47 1284.81 0.
706.777 193.507 0.
437.641 -434.814 0.
1187.2 945.587 0.
828.284 596.631 0.
734.698 375.416 0.
120.445 283.963 0.
-208.297 -490.521 0.
570.036 1317.95 0.
328.095 760.723 0.
452.414 1051.32 0.
765.994 1783.39 0.
901.521 964.847 0.
762.516 640.999 0.
175.206 -727.51 0.
522.197 478.542 0.
172.296 -336.1 0.
227.938 179.069 0.
661.356 1193.5 0.
443.854 688.955 0.
-199.118 -713.273 0.
198.62 214.28 0.
163.68 132.199 0.
-338.695 -493.232 0.
-387.223 -604.69 0.
185.94 733.33 0.
-194.485 137.117 0.
-509.881 -596.495 0.
-209.198 -325.276 0.
-121.308 -330.754 0.
-163.839 -431.86 0.
41.829 -410.808 0.
53.2443 -388.459 0.
64.6598 -366.11 0.
-44.4952 -435.228 0.
-84.9238 -526.758 0.
-125.353 -618.287 0.
-256.831 -758.582 0.
-305.281 -872.887 0.
-353.731 -987.192 0.
-163.297 -901.152 0.
-150.551 -870.955 0.
-60.0529 -810.475 0.
-51.4934 -793.567 0.
-42.934 -776.659 0.
-145.318 -822.715 0.
-172.762 -885.807 0.
-200.207 -948.899 0.
125.378 -870.35 0.
84.5305 -963.979 0.
43.6821 -1057.61 0.
-366.848 -1243.77 0.
-364.199 -1233.04 0.
-539.518 -1298.78 0.
480.371 -963.486 0.
428.891 -1082.85 0.
412.729 -1176.95 0.
382.962 -1247.56 0.
353.195 -1318.17 0.
-127.811 -1446.62 0.
1.29808 -1148.7 0.
130.407 -850.783 0.
643.896 -711.907 0.
515.456 -1012.26 0.
387.014 -1312.62 0.
714.86 -1153.5 0.
743.718 -1090.19 0.
113.544 -1298.32 0.
218.575 -1057.11 0.
323.605 -815.902 0.
550.516 -642.428 0.
457.297 -864.703 0.
364.077 -1086.98 0.
292.245 -1122.88 0.
366.733 -950.677 0.
441.221 -778.475 0.
645.557 -667.27 0.
641.56 -679.03 0.
667.913 -678.355 0.
1056.4 -397.69 0.
1114.66 -258.462 0.
357.115 -519.53 0.
295.563 -663.505 0.
234.011 -807.48 0.
307.44 -816.704 0.
336.827 -749.366 0.
366.213 -682.028 0.
852.3 -474.295 0.
838.011 -505.986 0.
823.722 -537.679 0.
710.507 -736.711 0.
626.634 -939.659 0.
235.761 -1255.86 0.
223.467 -1276.96 0.
211.173 -1298.05 0.
289.897 -1184.95 0.
412.319 -896.267 0.
534.739 -607.585 0.
280.04 -618.185 0.
279.101 -620.895 0.
278.162 -623.606 0.
385.52 -724.538 0.
293.034 -941.383 0.
1032.97 -795.576 0.
-85.9202 -1193.23 0.
-42.1639 -1092.94 0.
-280.204 -1071.03 0.
-147.302 -770.474 0.
-14.3985 -469.913 0.
-41.5147 -392.037 0.
-83.1492 -489.519 0.
-124.783 -587.001 0.
159.873 -551.46 0.
116.706 -650.314 0.
73.5392 -749.168 0.
77.0497 -543.053 0.
195.682 -266.348 0.
-95.0267 -202.852 0.
-112.756 -241.045 0.
-130.486 -279.238 0.
68.537 -250.038 0.
15.7863 -372.876 0.
-36.9646 -495.714 0.
-331.03 -595.125 0.
-266.537 -443.616 0.
-202.044 -292.108 0.
-144.028 -381.553 0.
-237.917 -598.887 0.
513.221 11.2119 0.
-95.5477 -290.735 0.
-138.281 -391.338 0.
-33.3854 -410.21 0.
-21.9038 -388.273 0.
-10.422 -366.335 0.
-38.9988 -402.296 0.
-78.9829 -494.015 0.
-118.967 -585.734 0.
-105.056 -661.132 0.
-152.911 -776.087 0.
-200.767 -891.042 0.
20.8307 -791.087 0.
33.7858 -761.269 0.
-18.9695 -759.945 0.
-11.2392 -742.235 0.
-3.50895 -724.526 0.
-231.224 -829.889 0.
-258.738 -892.581 0.
-286.252 -955.273 0.
300.227 -765.877 0.
259.648 -859.936 0.
219.068 -953.995 0.
-466.274 -1254.99 0.
-463.732 -1244.19 0.
329.448 -894.859 0.
254.402 -1030.9 0.
203.635 -1150.72 0.
324.612 -1182.22 0.
295.536 -1253.42 0.
266.46 -1324.62 0.
114.781 -1311.6 0.
243.999 -1013.7 0.
373.217 -715.799 0.
624.01 -688.27 0.
496.376 -989.268 0.
368.741 -1290.27 0.
551.553 -1190.77 0.
580.688 -1127.35 0.
82.2782 -1278.5 0.
186.921 -1037.22 0.
291.563 -795.934 0.
562.673 -606.916 0.
469.293 -828.986 0.
375.913 -1051.06 0.
363.456 -1062.49 0.
438.26 -890.41 0.
513.064 -718.329 0.
825.377 -559.004 0.
821.732 -570.842 0.
-693.364 -1229.54 0.
961.35 -407.137 0.
1020.14 -268.751 0.
190.951 -558.268 0.
129.542 -703.11 0.
68.1331 -847.953 0.
358.8 -762.579 0.
387.64 -695.299 0.
416.481 -628.019 0.
829.679 -453.839 0.
815.458 -485.816 0.
801.237 -517.795 0.
889.115 -628.597 0.
805.849 -831.693 0.
25.1896 -1312.77 0.
13.7163 -1334.16 0.
2.24289 -1355.56 0.
199.75 -1193.06 0.
322.214 -904.19 0.
444.678 -615.32 0.
265.246 -591.945 0.
264.978 -595.078 0.
264.711 -598.211 0.
492.659 -649.089 0.
400.425 -866.407 0.
530.645 -978.167 0.
-250.432 -1231.02 0.
-206.926 -1130.73 0.
-46.7016 -941.281 0.
86.0217 -640.679 0.
218.746 -340.074 0.
125.06 -288.712 0.
83.8945 -386.742 0.
42.7297 -484.772 0.
62.0715 -562.705 0.
19.5401 -662.348 0.
-22.9912 -761.99 0.
83.8179 -509.185 0.
202.31 -232.492 0.
-277.194 -248.299 0.
-294.662 -286.387 0.
-312.132 -324.476 0.
170.164 -175.417 0.
117.19 -297.958 0.
64.2158 -420.499 0.
-253.658 -531.752 0.
-189.299 -380.636 0.
-124.941 -229.52 0.
207.994 -198.291 0.
113.9 -416.988 0.
445.622 -507.977 0.
-259.498 -518.781 0.
-71.0948 -78.7118 0.
227.025 291.885 0.
104.115 7.3003 0.
-18.7944 -277.284 0.
-37.2681 -443.268 0.
-71.7827 -522.592 0.
-106.297 -601.917 0.
35.73 -594.497 0.
11.9951 -650.721 0.
-11.74 -706.945 0.
41.0675 -684.655 0.
42.6992 -681.759 0.
54.8385 -668.828 0.
126.204 -500.934 0.
197.569 -333.039 0.
-15.4125 -352.874 0.
-58.1745 -453.143 0.
-100.936 -553.412 0.
440.917 -355.551 0.
449.088 -340.406 0.
457.259 -325.26 0.
-133.263 -597.734 0.
-145.495 -625.133 0.
831.315 -228.426 0.
433.119 -371.804 0.
439.639 -352.276 0.
670.605 -236.137 0.
683.147 -202.882 0.
695.689 -169.628 0.
624.234 -252.804 0.
544.88 -433.817 0.
465.525 -614.83 0.
630.952 -546.065 0.
674.007 -444.981 0.
717.062 -343.898 0.
754.535 -575.108 0.
597.331 -935.304 0.
33.8163 -1411.65 0.
154.463 -1129.96 0.
275.109 -848.284 0.
547.964 -596.879 0.
515.098 -673.338 0.
482.231 -749.797 0.
569.617 -723.762 0.
592.918 -665.848 0.
616.218 -607.934 0.
835.743 -528.128 0.
818.636 -564.119 0.
1184.62 -438.247 0.
783.957 -660.237 0.
757.394 -721.973 0.
62.499 -1010.32 0.
158.094 -788.428 0.
253.69 -566.538 0.
549.502 -408.429 0.
477.433 -582.354 0.
405.364 -756.278 0.
623.535 -739.027 0.
601.153 -787.492 0.
578.77 -835.957 0.
918.581 -553.585 0.
998.526 -363.629 0.
271.612 -549.982 0.
228.969 -650.981 0.
186.325 -751.979 0.
415.686 -634.168 0.
518.412 -396.259 0.
621.137 -158.349 0.
389.897 -326.006 0.
247.497 -653.929 0.
105.097 -981.85 0.
506.775 -715.353 0.
607.543 -488.436 0.
928.308 -164.635 0.
14.6177 -412.159 0.
89.038 -236.566 0.
441.727 -38.1097 0.
299.622 -363.224 0.
157.518 -688.337 0.
-88.4157 -845.722 0.
17.0682 -599.523 0.
122.552 -353.324 0.
59.4736 -383.342 0.
10.3977 -497.428 0.
-38.6786 -611.514 0.
114.542 -405.193 0.
202.779 -197.851 0.
-327.441 -294.173 0.
-376.968 -411.894 0.
-426.495 -529.615 0.
37.3523 -327.078 0.
123.966 -126.179 0.
210.579 74.7196 0.
11.2307 -30.2998 0.
-68.4233 -217.686 0.
-148.077 -405.071 0.
364.363 -185.912 0.
391.532 -125.189 0.
156.268 -599.129 0.
-421.595 -560.014 0.
-233.77 -118.906 0.
220.605 322.286 0.
97.9981 37.6527 0.
-24.6087 -246.98 0.
33.7852 -382.516 0.
-0.759344 -461.986 0.
-35.3039 -541.456 0.
181.119 -499.27 0.
157.669 -555.782 0.
134.219 -612.294 0.
-141.814 -734.505 0.
-140.222 -731.675 0.
128.527 -601.333 0.
200.488 -433.527 0.
272.45 -265.72 0.
120.692 -264.439 0.
77.6811 -363.738 0.
34.6705 -463.038 0.
217.523 -421.019 0.
226.145 -405.883 0.
234.769 -390.747 0.
125.929 -453.57 0.
113.89 -481.194 0.
239.098 -450.259 0.
430.825 -342.433 0.
437.619 -323.039 0.
631.902 -220.258 0.
645.027 -187.624 0.
658.151 -154.991 0.
549.707 -251.704 0.
471.099 -433.44 0.
392.49 -615.175 0.
546.035 -552.013 0.
589.047 -451.175 0.
632.059 -350.337 0.
787.948 -529.394 0.
631.893 -890.082 0.
112.844 -1343.95 0.
234.233 -1063.36 0.
355.621 -782.766 0.
517.313 -580.44 0.
485.314 -658.113 0.
453.314 -735.786 0.
664.451 -648.829 0.
688.894 -592.092 0.
713.337 -535.354 0.
667.468 -567.83 0.
651.509 -605.244 0.
-380.246 -1077.04 0.
760.998 -636.861 0.
733.556 -698.25 0.
405.396 -833.4 0.
499.711 -610.834 0.
594.026 -388.267 0.
622.328 -347.823 0.
549.584 -521.729 0.
476.838 -695.635 0.
481.75 -767.324 0.
460.005 -816.355 0.
438.26 -865.387 0.
765.195 -587.479 0.
845.619 -397.823 0.
312.922 -501.532 0.
269.445 -601.824 0.
225.967 -702.117 0.
478.416 -578.947 0.
580.113 -340.141 0.
681.81 -101.336 0.
440.43 -272.842 0.
296.725 -599.909 0.
153.021 -926.974 0.
554.804 -664.543 0.
654.172 -436.952 0.
522.301 -305.408 0.
0.82646 -385.802 0.
75.6227 -210.554 0.
491.177 13.6106 0.
349.885 -312.257 0.
208.593 -638.124 0.
-171.524 -849.642 0.
-65.9206 -603.837 0.
39.6822 -358.032 0.
-11.2076 -380.867 0.
-59.6477 -495.965 0.
-108.088 -611.062 0.
113.764 -373.234 0.
202.415 -165.998 0.
-182.528 -200.454 0.
-232.416 -317.237 0.
-282.305 -434.019 0.
-180.781 -390.174 0.
-94.4504 -189.254 0.
-8.11968 11.6661 0.
84.2805 33.2351 0.
4.63686 -154.721 0.
-75.0071 -342.678 0.
416.838 -131.829 0.
443.174 -72.017 0.
-95.6705 -581.612 0.
-17.7768 724.555 0.
-276.557 117.209 0.
18.5279 -116.801 0.
-390.192 -1071.77 0.
347.934 649.012 0.
657.621 989.991 0.
99.403 -317.505 0.
281.649 103.721 0.
869.199 876.801 0.
806.003 729.407 0.
673.291 419.421 0.
191.226 392.643 0.
44.6232 50.9841 0.
1259.17 1953.16 0.
1407 2296.01 0.
558.304 313.13 0.
188.066 -333.994 0.
521.477 445.299 0.
539.563 488.848 0.
266.449 144.395 0.
440.204 548.838 0.
470.376 618.221 0.
827.494 713.333 0.
863.747 794.681 0.
422.123 258.05 0.
296.125 -625.59 0.
685.597 282.972 0.
629.292 -110.426 0.
446.515 -535.269 0.
786.88 261.04 0.
919.333 771.974 0.
435.096 -357.762 0.
839.012 584.869 0.
709.737 27.6167 0.
481.442 -505.194 0.
980.56 659.187 0.
1300.35 634.352 0.
848.608 -415.052 0.
832.137 209.498 0.
827.878 200.958 0.
623.552 -274.321 0.
626.6 -259.888 0.
932.718 454.791 0.
836.137 230.405 0.
689.287 -736.269 0.
814.385 -448.356 0.
998.685 -21.8828 0.
689.915 -157.625 0.
1020.46 614.334 0.
271.024 110.746 0.
1143.91 323.354 0.
1089.06 201.024 0.
1231.53 473.349 0.
631.513 -921.199 0.
891.4 -308.664 0.
515.065 -714.866 0.
1011.28 444.175 0.
1229.54 954.38 0.
670.901 -22.5591 0.
789.978 258.813 0.
917.742 559.716 0.
1110.2 531.868 0.
937.527 135.36 0.
684.65 311.891 0.
211.777 -787.389 0.
224.414 -754.137 0.
804.343 93.0119 0.
882.696 275.387 0.
785.329 47.6825 0.
623.092 112.382 0.
744.195 395.406 0.
400.979 -406.053 0.
1368.01 1178.78 0.
1072.78 497.225 0.
264.352 712.945 0.
324.46 413.58 0.
-500.688 -1506.32 0.
625.476 264.696 0.
312.334 -466.312 0.
684.726 402.608 0.
150.152 78.4312 0.
404.785 667.99 0.
41.9304 -182.777 0.
196.912 270.895 0.
297.862 508.483 0.
278.154 464.806 0.
765.329 1181.56 0.
132.693 -296.063 0.
-287.242 -687.474 0.
287.648 658.838 0.
142.991 325.386 0.
-59.5332 335.535 0.
-154.888 115.245 0.
-265.982 -142.353 0.
27.8856 -201.355 0.
-222.338 -786.249 0.
-131.616 -573.292 0.
292.066 -474.602 0.
545.955 118.783 0.
-392.891 -658.321 0.
-367.058 -680.469 0.
-431.595 -833.082 0.
-106.664 -785.409 0.
-64.0854 -685.959 0.
-21.5058 -586.509 0.
-241.361 -605.59 0.
-204.844 -525.129 0.
-168.328 -444.668 0.
248.66 -339.134 0.
179.906 -499.246 0.
111.152 -659.358 0.
-134.428 -708.877 0.
-97.9594 -621.077 0.
79.0507 -483.624 0.
96.7575 -443.61 0.
114.464 -403.597 0.
240.036 -340.106 0.
212.973 -404.612 0.
185.91 -469.117 0.
-39.8939 -678.073 0.
-133.542 -893.628 0.
-227.19 -1109.18 0.
259.863 -920.791 0.
280.754 -874.64 0.
711.971 -651.577 0.
131.119 -921.286 0.
116.98 -953.683 0.
256.515 -895.21 0.
305.646 -780.352 0.
354.776 -665.494 0.
351.783 -619.697 0.
347.415 -631.034 0.
343.048 -642.37 0.
345.99 -703.266 0.
290.525 -829.712 0.
235.06 -956.158 0.
689.859 -691.182 0.
735.9 -577.802 0.
347.689 -668.666 0.
316.729 -740.073 0.
285.768 -811.481 0.
421.959 -758.887 0.
475.547 -633.562 0.
529.134 -508.238 0.
782.769 -380.899 0.
762.097 -434.672 0.
741.426 -488.445 0.
663.876 -556.279 0.
645.331 -595.28 0.
-553.811 -1140.21 0.
909.519 -451.047 0.
940.818 -376.132 0.
630.79 -524.05 0.
486.629 -859.363 0.
342.467 -1194.68 0.
376.79 -1186.93 0.
542.152 -797.273 0.
707.513 -407.618 0.
508.448 -410.172 0.
488.208 -453.993 0.
467.967 -497.815 0.
590.817 -486.239 0.
572.782 -531.393 0.
275.756 -672.368 0.
346.473 -507.875 0.
417.189 -343.382 0.
551.228 -331.379 0.
354.202 -792.384 0.
157.175 -1253.39 0.
234.519 -1225.86 0.
376.759 -896.319 0.
519.001 -566.779 0.
318.254 -654.435 0.
280.854 -738.865 0.
348.559 -778.606 0.
-339.385 -1036.82 0.
-322.135 -992.754 0.
132.832 -754.313 0.
167.357 -671.815 0.
201.882 -589.316 0.
131.658 -552.437 0.
167.222 -470.988 0.
202.786 -389.539 0.
-9.08155 -382.722 0.
51.6547 -243.25 0.
112.391 -103.777 0.
-41.1075 -321.536 0.
-130.807 -532.689 0.
-213.27 -682.911 0.
-89.539 -391.795 0.
34.1918 -100.68 0.
-282.418 -161.82 0.
-402.708 -444.557 0.
-523 -727.294 0.
-121.932 -623.542 0.
-89.5791 -547.51 0.
-57.2263 -471.478 0.
180.993 -307.801 0.
207.3 -244.804 0.
-700.553 -761.453 0.
-42.405 -511.037 0.
-107.209 -663.187 0.
109.92 -660.123 0.
152.173 -560.084 0.
194.427 -460.046 0.
-488.432 -679.4 0.
-451.924 -599.242 0.
-415.417 -519.082 0.
142.299 -355.399 0.
73.4024 -515.118 0.
4.5052 -674.838 0.
57.0157 -595.487 0.
93.9138 -507.765 0.
-74.7742 -520.178 0.
-57.7442 -479.453 0.
-40.7139 -438.728 0.
328.703 -269.577 0.
301.603 -334.257 0.
274.503 -398.938 0.
33.8769 -615.84 0.
-59.541 -831.573 0.
-152.959 -1047.31 0.
440.563 -810.172 0.
461.185 -764.041 0.
1157.37 -427.298 0.
99.0989 -903.093 0.
85.3908 -935.527 0.
229.963 -876.334 0.
278.481 -760.504 0.
326.999 -644.674 0.
404.595 -565.318 0.
400.236 -576.6 0.
395.876 -587.882 0.
303.499 -689.811 0.
248.411 -816.718 0.
193.323 -943.626 0.
653.796 -674.66 0.
699.453 -560.516 0.
230.119 -689.337 0.
199.378 -760.768 0.
168.636 -832.2 0.
453.435 -716.177 0.
507.488 -591.104 0.
561.542 -466.032 0.
722.879 -374.212 0.
702.452 -428.625 0.
682.025 -483.037 0.
858.248 -440.439 0.
840.062 -479.899 0.
-2249.57 -1834.46 0.
1045.7 -360.038 0.
1076.43 -284.815 0.
439.872 -575.341 0.
295.492 -911.006 0.
151.111 -1246.67 0.
471.214 -1115.22 0.
636.058 -725.621 0.
800.902 -336.027 0.
527.636 -371.941 0.
507.167 -415.452 0.
486.698 -458.962 0.
506.229 -491.092 0.
488.799 -536.844 0.
313.898 -622.883 0.
385.295 -459.026 0.
456.692 -295.169 0.
479.038 -329.487 0.
282.709 -790.975 0.
86.3795 -1252.46 0.
480.367 -1090.46 0.
622.049 -760.283 0.
763.73 -430.102 0.
19.1786 -749.736 0.
-17.2951 -834.883 0.
897.511 -511.241 0.
-373.009 -1020.13 0.
-354.991 -976.958 0.
79.0399 -744.098 0.
114.054 -661.925 0.
149.069 -579.752 0.
456.479 -383.422 0.
492.041 -301.857 0.
527.603 -220.293 0.
103.147 -300.868 0.
164.279 -161.802 0.
225.412 -22.737 0.
-220.583 -365.09 0.
-310.269 -575.785 0.
-112.447 -609.937 0.
11.3018 -318.851 0.
135.051 -27.7648 0.
-273.31 -125.498 0.
-393.969 -408.324 0.
-514.63 -691.15 0.
-67.9022 -570.091 0.
-35.6749 -494.522 0.
-3.44795 -418.954 0.
-27.3061 -365.415 0.
-1.28752 -302.603 0.
-492.415 -102.472 0.
309.166 8.31362 0.
220.381 -196.168 0.
270.402 -248.856 0.
401.079 53.0173 0.
531.756 354.891 0.
-137.614 118.416 0.
-240.584 -121.625 0.
-343.552 -361.664 0.
73.1924 -207.267 0.
104.92 -134.953 0.
136.647 -62.6395 0.
253.491 -134.546 0.
180.746 -304.854 0.
-52.2638 -506.88 0.
49.645 -267.192 0.
151.554 -27.5048 0.
515.924 208.315 0.
413.514 -26.3843 0.
311.106 -261.084 0.
179.278 -422.623 0.
162.482 -461.279 0.
145.685 -499.934 0.
436.786 -522.443 0.
339.15 -747.684 0.
790.702 -737.48 0.
289.91 -592.197 0.
482.309 -142.176 0.
625.863 139.654 0.
471.378 -224.09 0.
316.892 -587.834 0.
347.061 -741.814 0.
340.527 -755.889 0.
333.994 -769.964 0.
321.84 -722.318 0.
374.902 -598.34 0.
427.964 -474.361 0.
752.808 -208.386 0.
818.583 -57.9216 0.
503.927 -106.95 0.
385.484 -380.978 0.
267.041 -655.006 0.
501.329 -694.825 0.
518.879 -653.024 0.
536.429 -611.222 0.
590.141 -546.329 0.
617.338 -478.864 0.
644.534 -411.398 0.
973.604 -303.305 0.
942.723 -375.076 0.
-1322.19 -1405.2 0.
977.834 -471.141 0.
952.746 -533.683 0.
307.905 -816.33 0.
397.61 -614.043 0.
487.315 -411.755 0.
822.885 -253.175 0.
732.74 -468.166 0.
642.595 -683.158 0.
374.436 -742.07 0.
461.736 -542.122 0.
549.036 -342.173 0.
580.216 -322.692 0.
568.307 -345.632 0.
359.697 -455.391 0.
352.76 -468.497 0.
345.823 -481.603 0.
412.578 -447.871 0.
425.91 -417.728 0.
439.242 -387.585 0.
906.655 -161.351 0.
923.001 -125.048 0.
939.347 -88.7439 0.
106.626 -284.185 0.
213.28 -39.2783 0.
193.002 151.742 0.
120.542 -83.1324 0.
13.162 -333.351 0.
118.21 -439.961 0.
136.293 -396.36 0.
154.376 -352.758 0.
554.894 -161.616 0.
547.972 -178.561 0.
541.049 -195.507 0.
41.5723 -459.303 0.
12.3498 -523.022 0.
-16.8724 -586.74 0.
-337.5 -662.405 0.
-300.316 -578.241 0.
-14.6515 -391.664 0.
-10.5547 -384.073 0.
-6.45788 -376.482 0.
-328.553 -505.104 0.
-315.694 -473.788 0.
-302.835 -442.472 0.
47.2765 -226.438 0.
95.378 -115.455 0.
143.48 -4.47278 0.
-32.1588 -81.5308 0.
-40.572 -99.4707 0.
-293.56 9.93384 0.
325.591 45.7935 0.
237.426 -158.92 0.
71.2778 -301.301 0.
202.293 0.386369 0.
333.308 302.074 0.
145.762 274.344 0.
43.5776 33.3876 0.
-58.6063 -207.568 0.
-117.207 -258.793 0.
-86.0528 -186.058 0.
-54.8991 -113.322 0.
119.676 -159.898 0.
47.1601 -329.981 0.
158.847 -385.324 0.
260.112 -145.049 0.
361.378 95.2245 0.
415.52 194.402 0.
312.643 -39.5444 0.
209.768 -273.49 0.
282.897 -346.618 0.
266.156 -385.459 0.
249.414 -424.301 0.
4.85793 -676.49 0.
-92.4873 -902.295 0.
-78.7819 -1079.88 0.
500.431 -469.811 0.
693.015 -19.7273 0.
590.217 155.977 0.
436.537 -208.202 0.
282.855 -572.381 0.
378.466 -697.466 0.
372.099 -712.007 0.
365.733 -726.548 0.
459.413 -631.488 0.
512.723 -507.915 0.
566.033 -384.342 0.
580.171 -251.594 0.
645.482 -100.414 0.
705.182 9.9594 0.
586.921 -263.697 0.
468.66 -537.352 0.
585.995 -629.432 0.
603.185 -587.331 0.
620.374 -545.231 0.
537.4 -537.064 0.
565.965 -471.084 0.
594.531 -405.104 0.
951.341 -280.255 0.
920.683 -351.99 0.
-1792.77 -1574.46 0.
828.617 -503.381 0.
803.351 -565.66 0.
469.143 -716.026 0.
557.686 -512.78 0.
646.227 -309.532 0.
730.166 -264.427 0.
639.334 -478.88 0.
548.502 -693.332 0.
407.224 -697.541 0.
493.22 -496.53 0.
579.215 -295.52 0.
703.293 -240.68 0.
691.283 -263.75 0.
283.99 -455.463 0.
276.795 -468.115 0.
269.599 -480.766 0.
472.434 -393.367 0.
484.871 -362.325 0.
497.307 -331.282 0.
763.064 -191.032 0.
779.784 -154.83 0.
796.505 -118.627 0.
154.537 -231.781 0.
260.536 13.8246 0.
575.895 344.966 0.
408.608 70.0264 0.
300.798 -179.897 0.
-24.8917 -470.449 0.
-7.14622 -426.36 0.
10.5992 -382.272 0.
304.441 -239.246 0.
297.871 -256.203 0.
291.301 -273.162 0.
-20.1122 -451.345 0.
-49.067 -515.676 0.
-78.0214 -580.006 0.
-112.37 -535.355 0.
-75.7582 -450.91 0.
-51.2513 -377.629 0.
-47.2625 -369.78 0.
-43.2735 -361.931 0.
-72.5243 -363.083 0.
-60.0095 -331.571 0.
-47.4939 -300.058 0.
-53.9925 -240.018 0.
-5.36131 -129.579 0.
43.2703 -19.1418 0.
-106.719 -82.026 0.
-114.715 -100.618 0.
17.613 87.4627 0.
582.713 681.861 0.
66.5999 -519.847 0.
-338.995 -874.319 0.
481.47 1045.95 0.
276.755 574.009 0.
524.083 663.059 0.
200.475 -90.5772 0.
135.364 -241.174 0.
37.9654 489.66 0.
-19.8558 354.71 0.
-37.3439 313.948 0.
195.456 298.469 0.
-175.664 -568.763 0.
827.111 821.878 0.
655.026 418.593 0.
369.916 -247.338 0.
181.738 -141.491 0.
477.422 550.111 0.
288.759 110.889 0.
373.493 -296.884 0.
798.017 689.283 0.
1052.67 1278.84 0.
291.89 828.867 0.
53.253 275.728 0.
633.151 24.7145 0.
814.296 -95.3999 0.
1136.76 656.847 0.
759.349 636.13 0.
450.392 -89.5807 0.
27.0148 -1081.29 0.
758.415 167.166 0.
1030.74 804.756 0.
459.629 -525.456 0.
480.476 -825.119 0.
1062.28 534.782 0.
826.534 -13.1265 0.
915.779 885.066 0.
657.873 276.527 0.
1217.46 859.071 0.
909.858 138.566 0.
1063.59 494.351 0.
1202.14 674.176 0.
1150.76 555.766 0.
823.94 -205.211 0.
869.04 357.088 0.
849.673 316.197 0.
913.03 468.395 0.
1339.77 686.98 0.
1305.56 604.794 0.
-3144.79 -683.886 0.
1227.23 756.071 0.
1139.22 547.418 0.
884.014 -14.8117 0.
925.528 79.3201 0.
811.001 -190.977 0.
612.671 -328.085 0.
657.621 -225.565 0.
1129.78 873.979 0.
1452.67 1706.76 0.
1107.86 899.319 0.
231.814 -1147.58 0.
479.544 -970.694 0.
804.986 -205.098 0.
320.859 -186.817 0.
361.589 -89.7984 0.
905.54 1181.4 0.
1012.27 791.36 0.
562.609 -257.663 0.
833.398 374.505 0.
997.64 656.284 0.
1248.35 1242.78 0.
970.976 595.898 0.
417.924 317.038 0.
836.325 1299.79 0.
601.245 850.602 0.
980.061 894.706 0.
486.508 -257.619 0.
31.4542 -47.9124 0.
146.03 216.277 0.
-216.398 -632.306 0.
-161.037 -833.125 0.
95.3324 -227.225 0.
313.619 290.87 0.
339.344 525.441 0.
-121.497 -552.967 0.
-709.664 -1927.91 0.
285.168 16.9874 0.
991.811 1670.41 0.
372.293 701.083 0.
595.017 1222.12 0.
146.822 176.545 0.
164.46 -249.205 0.
354.531 196.635 0.
306.479 85.6712 0.
-85.1503 -103.622 0.
225.612 626.417 0.
8.04871 123.146 0.
485.646 1461.05 0.
-72.817 153.234 0.
-158.497 -230.764 0.
75.7906 25.0615 0.
148.612 198.342 0.
295.038 284.073 0.
94.5664 -181.183 0.
-105.907 -646.437 0.
-266.739 -823.725 0.
-142.617 -533.375 0.
-18.4962 -243.026 0.
-40.775 -191.276 0.
-52.5951 -219.932 0.
-64.415 -248.589 0.
-223.889 -336.02 0.
-232.308 -358.166 0.
403.848 -124.957 0.
291.176 -392.908 0.
178.504 -660.861 0.
23.5635 -858.096 0.
50.8667 -796.877 0.
78.1704 -735.658 0.
276.182 -522.853 0.
377.931 -288.436 0.
479.679 -54.0182 0.
-91.1295 -136.933 0.
-7.39864 58.0573 0.
422.253 401.097 0.
863.624 214.7 0.
666.161 -247.277 0.
102.258 -771.934 0.
118.286 -734.099 0.
134.314 -696.265 0.
568.555 -434.926 0.
653.763 -236.766 0.
738.971 -38.6066 0.
903.441 18.1758 0.
839.36 -127.913 0.
775.28 -274 0.
339.316 -481.218 0.
340.26 -483.476 0.
474.74 -431.883 0.
458.811 -471.624 0.
442.883 -511.365 0.
768.194 -409.408 0.
740.148 -476.527 0.
712.101 -543.646 0.
490.017 -643.347 0.
506.619 -600.519 0.
523.221 -557.691 0.
918.22 -160.68 0.
1069.07 190.818 0.
-3498.09 -1481.34 0.
1074.82 216.457 0.
938.162 -103.432 0.
568.215 -469.331 0.
552.99 -506.027 0.
537.766 -542.722 0.
425.293 -584.865 0.
453.517 -519.289 0.
481.741 -453.712 0.
569.876 -366.437 0.
599.436 -300.274 0.
628.998 -234.112 0.
935.665 -137.742 0.
907.944 -200.971 0.
242.622 -516.308 0.
310.543 -357.924 0.
378.464 -199.541 0.
557.206 -56.8869 0.
525.253 -132.854 0.
493.3 -208.822 0.
530.306 -210.364 0.
537.197 -189.728 0.
544.088 -169.092 0.
154.225 -493.879 0.
42.364 -749.843 0.
678.416 -680.959 0.
96.5277 -806.891 0.
162.514 -653.619 0.
11.8731 -582.503 0.
111.289 -356.129 0.
210.706 -129.754 0.
32.7816 -155.092 0.
-18.7723 -272.412 0.
-70.3263 -389.731 0.
47.8777 -394.363 0.
26.5282 -448.176 0.
5.17809 -501.988 0.
31.7935 -390.762 0.
92.6732 -246.8 0.
18.3359 -196.735 0.
-68.8351 -399.488 0.
-156.006 -602.242 0.
-10.219 -564.144 0.
115.489 -271.868 0.
241.196 20.4083 0.
-80.8 -80.1417 0.
-139.778 -215.854 0.
-198.756 -351.566 0.
-275.823 -425.736 0.
-287.156 -453.909 0.
467.748 63.9181 0.
-184.34 -57.8642 0.
-111.503 115.602 0.
481.89 397.014 0.
282.768 -69.406 0.
83.644 -535.825 0.
-438.42 -864.019 0.
-313.383 -574.174 0.
-188.348 -284.328 0.
236.388 -39.9795 0.
224.657 -68.3916 0.
212.926 -96.8037 0.
-386.463 -373.109 0.
-394.782 -395.447 0.
399.34 -96.4996 0.
285.891 -363.928 0.
172.441 -631.359 0.
227.106 -740.393 0.
253.952 -679.082 0.
280.799 -617.77 0.
291.692 -484.177 0.
393.79 -250.017 0.
495.888 -15.8571 0.
-32.998 -81.149 0.
51.0631 114.064 0.
-371.933 91.6294 0.
772.065 205.513 0.
575.082 -256.762 0.
51.9698 -762.316 0.
68.2754 -724.631 0.
84.5808 -686.946 0.
661.446 -364.781 0.
746.489 -166.066 0.
831.532 32.6496 0.
1000.69 90.5947 0.
936.839 -56.3515 0.
872.99 -203.297 0.
366.637 -437.579 0.
367.123 -439.778 0.
256.478 -494.317 0.
240.667 -534.383 0.
224.857 -574.45 0.
827.706 -353.196 0.
799.526 -420.644 0.
771.346 -488.093 0.
564.854 -579.367 0.
581.732 -537.33 0.
598.61 -495.293 0.
859.074 -154.716 0.
1010.05 196.712 0.
-2984.13 -1228.71 0.
1188.21 297.814 0.
1051.72 -22.1878 0.
435.612 -495.975 0.
420.268 -532.573 0.
404.924 -569.17 0.
349.183 -585.917 0.
377.257 -520.688 0.
405.332 -455.46 0.
591.761 -324.167 0.
621.616 -258.345 0.
651.47 -192.525 0.
1073.04 -47.6651 0.
1045.52 -111.386 0.
333.07 -445.567 0.
401.036 -287.565 0.
469.003 -129.564 0.
465.354 -64.3698 0.
433.137 -140.744 0.
400.92 -217.119 0.
428.318 -223.236 0.
435.189 -203.458 0.
442.061 -183.68 0.
271.458 -411.762 0.
159.669 -668.03 0.
492.012 -730.389 0.
-78.2096 -849.84 0.
-12.441 -695.948 0.
283.189 -437.948 0.
382.813 -210.818 0.
482.438 16.3123 0.
-66.1118 -166.06 0.
-117.347 -282.974 0.
-168.582 -399.887 0.
189.845 -303.488 0.
168.455 -357.173 0.
147.063 -410.858 0.
-45.5264 -391.618 0.
16.3429 -248.453 0.
67.0513 -142.544 0.
-19.4017 -346.252 0.
-105.854 -549.96 0.
-40.1122 -545.756 0.
85.6445 -253.82 0.
211.401 38.1169 0.
-68.8539 -42.8099 0.
-127.539 -178.998 0.
-186.224 -315.186 0.
-202.249 -364.835 0.
-213.984 -392.462 0.
48.6653 -13.4001 0.
-278.957 -166.976 0.
-318.857 -261.694 0.
250.209 -75.3683 0.
258.178 -51.9864 0.
266.148 -28.6041 0.
-185.769 -233.716 0.
-214.043 -296.257 0.
-242.317 -358.798 0.
213.543 -138.929 0.
243.967 -65.7857 0.
274.39 7.3577 0.
-250.455 -225.982 0.
-254.501 -238.446 0.
418.24 33.6545 0.
353.585 -118.198 0.
288.93 -270.049 0.
405.306 -291.151 0.
442.126 -206.687 0.
478.946 -122.224 0.
310.324 -256.008 0.
220.952 -462.839 0.
131.581 -669.669 0.
-183.524 -726.289 0.
-108.153 -549.307 0.
123.936 -303.543 0.
464.481 -291.992 0.
389.612 -463.578 0.
139.096 -676.753 0.
137.362 -680.206 0.
135.628 -683.66 0.
539.147 -494.188 0.
567.542 -427.35 0.
595.935 -360.514 0.
788.214 -245.196 0.
801.168 -217.214 0.
814.122 -189.231 0.
632.142 -195.234 0.
673.712 -97.6847 0.
357.793 -181.353 0.
269.747 -383.48 0.
181.703 -585.605 0.
741.696 -432.09 0.
787.034 -328.736 0.
832.371 -225.382 0.
653 -267.159 0.
654.104 -263.788 0.
655.209 -260.418 0.
717.745 -517.919 0.
531.843 -955.456 0.
664.436 -1255.15 0.
743.887 -769.35 0.
980.04 -216.551 0.
566.352 -57.5576 0.
531.177 -137.582 0.
496.002 -217.607 0.
506.548 -223.763 0.
535.95 -155.546 0.
565.352 -87.3295 0.
644.026 -214.027 0.
503.407 -541.537 0.
362.788 -869.046 0.
720.263 -638.62 0.
784.831 -487.884 0.
361.205 -558.653 0.
366.597 -546.819 0.
371.99 -534.986 0.
227.698 -536.358 0.
320.118 -321.2 0.
412.539 -106.041 0.
478.881 -36.307 0.
441.302 -128.946 0.
403.722 -221.585 0.
457.095 -222.905 0.
456.273 -228.003 0.
171.566 -354.257 0.
10.3595 -350.256 0.
50.8054 -259.475 0.
466.81 -33.5702 0.
438.437 -98.9428 0.
410.064 -164.316 0.
-179.987 -451.83 0.
-178.946 -451.613 0.
-177.905 -451.396 0.
257.729 -185.278 0.
315.937 -46.2969 0.
374.146 92.683 0.
141.699 -175.695 0.
37.9162 -416.464 0.
-228.503 -685.313 0.
-177.745 -570.044 0.
-126.989 -454.776 0.
-16.7838 -363.234 0.
-32.1637 -399.516 0.
-47.5439 -435.799 0.
-210.014 -449.869 0.
-150.389 -312.556 0.
-90.7638 -175.242 0.
27.1127 -41.5504 0.
67.8284 52.4191 0.
462.86 191.718 0.
-132.377 -75.3264 0.
-172.826 -169.208 0.
18.7524 -143.406 0.
27.0638 -120.147 0.
35.376 -96.8875 0.
-42.5747 -139.301 0.
-70.521 -202.188 0.
-98.4672 -265.074 0.
31.7355 -186.431 0.
63.0435 -114.363 0.
94.351 -42.2947 0.
114.822 -36.3929 0.
111.172 -49.4443 0.
361.942 40.7938 0.
297.619 -111.192 0.
233.295 -263.178 0.
223.829 -335.494 0.
260.708 -251.532 0.
297.586 -167.57 0.
135.351 -300.184 0.
46.1161 -506.849 0.
-43.1189 -713.513 0.
84.0432 -578.143 0.
159.627 -400.993 0.
989.01 101.231 0.
365.434 -303.545 0.
290.864 -475.258 0.
327.422 -564.45 0.
326.068 -568.085 0.
324.714 -571.719 0.
320.533 -556.614 0.
348.87 -489.931 0.
377.205 -423.248 0.
562.449 -312.662 0.
574.972 -284.428 0.
587.493 -256.194 0.
1029.98 7.09191 0.
1072.04 104.024 0.
508.482 -83.4971 0.
420.998 -286.306 0.
333.514 -489.114 0.
584.939 -467.635 0.
630.329 -365.279 0.
675.719 -262.923 0.
506.098 -297.536 0.
506.709 -294.112 0.
507.321 -290.689 0.
857.263 -427.143 0.
670.951 -864.421 0.
-841.376 -1868.96 0.
670.41 -769.108 0.
906.265 -216.367 0.
598.365 -14.0501 0.
563.012 -94.3141 0.
527.659 -174.578 0.
614.453 -144.309 0.
644.231 -76.5909 0.
674.008 -8.87281 0.
663.897 -173.166 0.
524.132 -501.044 0.
384.366 -828.922 0.
394.204 -747.221 0.
458.958 -597.198 0.
481.491 -474.483 0.
487.09 -463.219 0.
492.688 -451.956 0.
259.749 -490.02 0.
351.531 -274.742 0.
443.314 -59.4639 0.
538.746 19.545 0.
500.406 -73.0468 0.
462.066 -165.639 0.
638.153 -115.376 0.
636.602 -120.193 0.
544.704 -161.628 0.
-88.9446 -360.051 0.
-48.3822 -269.402 0.
267.056 -88.9119 0.
238.613 -154.293 0.
210.17 -219.674 0.
-34.2701 -355.402 0.
-32.9612 -355.297 0.
-31.6519 -355.191 0.
202.48 -177.084 0.
261.421 -38.5237 0.
320.363 100.036 0.
456.708 -7.27905 0.
352.708 -247.768 0.
-383.969 -721.283 0.
-333.7 -605.564 0.
-283.431 -489.846 0.
-90.2766 -365.994 0.
-106.032 -401.758 0.
-121.788 -437.522 0.
-119.398 -380.045 0.
-59.5106 -242.912 0.
0.377014 -105.778 0.
194.485 60.2676 0.
235.567 153.364 0.
-174.267 532.393 0.
-252.202 -600.9 0.
391.141 894.765 0.
111.953 547.098 0.
-124.676 -2.50877 0.
55.5229 420.808 0.
-275.1 -919.637 0.
295.043 414.117 0.
-82.1704 -462.562 0.
-65.5516 -45.5318 0.
88.4479 314.971 0.
-0.206138 109.213 0.
588.915 407.481 0.
615.972 474.075 0.
317.975 80.5903 0.
708.23 990.032 0.
407.906 288.327 0.
183.705 -73.5363 0.
213.333 -2.17546 0.
399.691 434.105 0.
341.023 543.953 0.
279.258 397.218 0.
5.1366 -244.681 0.
202.669 -754.467 0.
554.348 68.4064 0.
422.269 182.245 0.
465.682 136.776 0.
265.109 -330.053 0.
334.469 -864.516 0.
605.827 -233.953 0.
448.953 -601.919 0.
252.638 -277.199 0.
3.42005 -859.477 0.
-69.732 -1030.84 0.
605.323 231.521 0.
636.581 302.084 0.
388.603 -278.143 0.
1743.1 951.238 0.
1528.37 448.39 0.
624.983 -49.0644 0.
586.292 -142.86 0.
600.691 -112.539 0.
413.635 -542.8 0.
363.132 -664.109 0.
165.815 -1127.62 0.
230.426 -627.709 0.
649.927 348.62 0.
304.715 -459.371 0.
1357.28 521.018 0.
1374.91 557.23 0.
-719.687 -904.234 0.
1053.09 308.622 0.
891.394 -69.868 0.
305.191 -739.75 0.
343.207 -650.494 0.
371.069 -584.095 0.
633.233 -264.657 0.
957.159 488.352 0.
919.813 398.59 0.
569.341 -394.364 0.
811.548 167.458 0.
855.195 265.24 0.
335.389 -251.342 0.
399.781 -104.968 0.
834.494 163.556 0.
611.022 -361.138 0.
852.394 200.227 0.
726.036 566.497 0.
648.962 389.13 0.
325.602 -362.024 0.
-43.2819 -1426.06 0.
733.304 386.51 0.
1334.99 1791.8 0.
565.833 -589.378 0.
797.011 -43.2237 0.
-264.074 -53.7301 0.
331.082 832.238 0.
39.6511 152.653 0.
619.419 1153.18 0.
443.691 735.888 0.
141.233 23.3704 0.
218.531 -3.41509 0.
486.679 620.82 0.
171.629 -115.789 0.
467.076 568.995 0.
527.261 709.419 0.
223.049 -0.5795 0.
901.684 481.322 0.
897.785 473.602 0.
-348.851 -318.314 0.
60.8193 638.406 0.
123.908 786.362 0.
-91.4974 -210.605 0.
-90.6568 -207.712 0.
233.082 548.567 0.
664.151 1317.61 0.
311.66 498.744 0.
417.994 749.433 0.
418.171 302.511 0.
577.973 672.207 0.
-763.639 -540.024 0.
-162.508 -335.452 0.
-145.253 -296.86 0.
-269.182 -308.87 0.
-235.752 -229.474 0.
-202.322 -150.078 0.
55.5655 11.1611 0.
70.8798 48.2493 0.
86.1938 85.3376 0.
-1.49713 -7.08564 0.
-57.1489 -134.035 0.
-112.801 -260.983 0.
480.017 -92.7456 0.
433.095 -197.871 0.
67.2273 -432.274 0.
114.869 -320.965 0.
162.51 -209.656 0.
214.979 -131.204 0.
194.862 -172.654 0.
174.744 -214.105 0.
108.993 -259.002 0.
105.108 -267.212 0.
101.224 -275.421 0.
352.761 -274.384 0.
286.609 -428.284 0.
-41.1813 -694.062 0.
329.009 -258.87 0.
471.492 73.3937 0.
722.912 351.644 0.
629.371 131.394 0.
535.831 -88.8554 0.
320.637 -304.997 0.
297.556 -361.619 0.
274.476 -418.24 0.
337.572 -437.062 0.
312.205 -496.185 0.
286.839 -555.308 0.
1125.58 -341.303 0.
1042.26 -534.674 0.
80.453 -1048.66 0.
267.139 -610.497 0.
453.825 -172.335 0.
767.148 131.54 0.
655.551 -127.629 0.
543.954 -386.798 0.
158.825 -590.291 0.
216.039 -463.032 0.
273.253 -335.772 0.
1022.91 64.9634 0.
1059.44 147.421 0.
-1261.81 -782.754 0.
860.579 -103.806 0.
741.775 -385.184 0.
416.051 -673.785 0.
485.878 -510.492 0.
555.705 -347.199 0.
480.012 -378.643 0.
397.345 -569.123 0.
314.678 -759.602 0.
353.628 -640.524 0.
470.576 -364.183 0.
587.525 -87.8428 0.
529.538 -134.063 0.
504.712 -192.91 0.
485.869 -245.413 0.
468.196 -289.684 0.
450.523 -333.956 0.
391.829 -415.113 0.
349.486 -516.074 0.
307.141 -617.035 0.
337.457 -649.104 0.
334.632 -660.101 0.
331.808 -671.098 0.
393.181 -477.77 0.
505.217 -215.864 0.
289.909 -95.0298 0.
-114.27 -323.08 0.
-144.683 -393.01 0.
43.1219 -376.281 0.
10.7425 -455.414 0.
-21.6369 -534.548 0.
196.062 -471.785 0.
202.458 -453.956 0.
208.854 -436.127 0.
103.595 -405.233 0.
154.632 -284.826 0.
205.67 -164.42 0.
474.397 -72.5778 0.
455.682 -115.312 0.
-299.709 -459.137 0.
-255.164 -356.017 0.
-210.619 -252.897 0.
-83.1829 -156.459 0.
-106.875 -213.692 0.
-130.567 -270.925 0.
-150.634 -309.652 0.
-155.602 -318.4 0.
-160.57 -327.148 0.
10.88 -375.935 0.
-71.8319 -568.507 0.
97.9798 -139.311 0.
-178.732 -310.648 0.
-161.818 -271.574 0.
-268.782 -279.196 0.
-235.947 -199.406 0.
-203.111 -119.618 0.
-9.2434 15.1357 0.
6.46561 51.7228 0.
22.1743 88.31 0.
72.2372 55.6177 0.
17.1192 -72.3867 0.
-37.9992 -200.39 0.
622.577 0.911756 0.
576.374 -105.306 0.
46.8436 -407.084 0.
95.0617 -296.372 0.
143.279 -185.66 0.
301.565 -60.6876 0.
281.554 -102.094 0.
261.543 -143.5 0.
260.236 -164.498 0.
256.924 -173.335 0.
253.612 -182.172 0.
300.733 -264.607 0.
236.121 -419.108 0.
-614.215 -909.575 0.
383.303 -202.998 0.
526.563 128.868 0.
578.923 322.087 0.
485.826 101.69 0.
392.728 -118.707 0.
431.286 -226.567 0.
407.943 -283.067 0.
384.6 -339.567 0.
376.519 -390.945 0.
350.94 -450.177 0.
325.36 -509.41 0.
1063.77 -334.337 0.
980.449 -528.317 0.
-50.3462 -1073.45 0.
135.674 -635.538 0.
321.693 -197.628 0.
862.138 203.51 0.
750.119 -56.0501 0.
638.1 -315.61 0.
70.4518 -597.909 0.
126.757 -470.043 0.
183.064 -342.177 0.
869.925 31.1687 0.
906.35 113.317 0.
-91.1869 -250.182 0.
856.81 -74.9102 0.
737.892 -356.53 0.
535.009 -587.83 0.
605.632 -425.598 0.
676.255 -263.366 0.
368.953 -395.652 0.
286.875 -586.65 0.
204.797 -777.648 0.
228.837 -661.248 0.
346.151 -385.216 0.
463.465 -109.184 0.
721.682 -20.0471 0.
696.945 -79.3466 0.
292 -295.757 0.
274.498 -340.932 0.
256.996 -386.108 0.
515.951 -329.444 0.
473.681 -431.105 0.
431.41 -532.767 0.
416.365 -583.474 0.
413.974 -594.778 0.
411.583 -606.083 0.
135.804 -557.652 0.
247.803 -296 0.
516.529 34.3168 0.
-33.1156 -255.807 0.
-63.4792 -325.993 0.
155.399 -294.756 0.
123.695 -374.545 0.
91.9913 -454.335 0.
428.366 -339.537 0.
434.681 -321.512 0.
440.996 -303.486 0.
187.382 -337.782 0.
238.506 -217.234 0.
289.629 -96.6865 0.
259.654 -132.892 0.
241.557 -175.854 0.
-152.798 -363.967 0.
-107.522 -261.336 0.
-62.2458 -158.705 0.
-82.7421 -124.283 0.
-106.281 -181.113 0.
-129.819 -237.944 0.
-277.489 -332.382 0.
-282.367 -341.216 0.
-287.244 -350.05 0.
-116.598 -400.651 0.
-200.221 -593.132 0.
-1232.95 -736.364 0.
-69.6994 -143.968 0.
-51.5996 -103.138 0.
-120.971 -106.827 0.
-117.287 -100.735 0.
-113.603 -94.6422 0.
-79.1193 -92.3507 0.
-103.526 -145.159 0.
-127.932 -197.966 0.
128.494 -37.2583 0.
184.015 90.8654 0.
239.535 218.989 0.
720.389 406.722 0.
695.778 351.237 0.
301.213 130.649 0.
234.81 -22.4629 0.
168.407 -175.574 0.
202.577 -259.43 0.
188.215 -295.133 0.
173.854 -330.836 0.
324.647 -219.689 0.
385.535 -77.7992 0.
446.423 64.09 0.
416.231 129.072 0.
446.339 203.223 0.
538.921 304.163 0.
640.158 304.243 0.
614.63 251.536 0.
522.698 180.865 0.
498.764 127.112 0.
474.831 73.3592 0.
597.84 24.4441 0.
513.554 -169.38 0.
429.267 -363.204 0.
412.832 -315.718 0.
497.267 -116.106 0.
581.701 83.5059 0.
1118.72 235.832 0.
1063.25 103.822 0.
280.295 -337.035 0.
239.558 -439.633 0.
198.82 -542.232 0.
589.401 -335.506 0.
738.873 12.8329 0.
888.347 361.172 0.
337.831 123.859 0.
216.295 -158.644 0.
94.7578 -441.146 0.
677.324 -297.183 0.
641.137 -378.601 0.
765.819 -392.324 0.
722.96 -327.499 0.
766.206 -226.945 0.
786.571 -181.953 0.
725.697 -323.695 0.
664.824 -465.436 0.
171.96 -652.508 0.
274.82 -414.122 0.
377.68 -175.736 0.
307.089 -272.889 0.
209.644 -502.011 0.
112.198 -731.134 0.
583.503 -505.903 0.
602.996 -455.614 0.
110.465 -606.955 0.
199.302 -394.582 0.
288.137 -182.21 0.
735.553 129.478 0.
749.663 166.074 0.
763.773 202.669 0.
740.549 189.56 0.
722.474 152.175 0.
704.398 114.79 0.
234.339 -88.75 0.
238.686 -77.4979 0.
947.295 237.072 0.
93.3311 -152.23 0.
81.5853 -179.444 0.
349.135 -107.386 0.
278.695 -267.124 0.
208.255 -426.863 0.
305.375 -424.362 0.
349.3 -322.419 0.
393.226 -220.477 0.
220.831 -290.992 0.
203.123 -331.804 0.
185.414 -372.615 0.
33.7783 -429.461 0.
39.9089 -415.437 0.
-92.4912 -458.502 0.
-71.226 -408.365 0.
-49.9609 -358.227 0.
-141.937 -331.064 0.
-80.7544 -190.106 0.
-19.572 -49.1466 0.
-144.575 12.9392 0.
-85.1973 152.04 0.
-25.8198 291.141 0.
88.871 136.005 0.
-62.0304 -216.995 0.
332.278 -32.9731 0.
78.1056 -49.3505 0.
96.2097 -8.42953 0.
77.2639 7.9493 0.
80.9985 13.9562 0.
84.7328 19.9632 0.
-41.8802 -43.4681 0.
-66.3841 -96.3769 0.
-90.8879 -149.285 0.
309.16 69.2538 0.
363.988 198.276 0.
418.816 327.298 0.
443.063 319.822 0.
418.508 264.778 0.
398.942 201.61 0.
332.484 48.5234 0.
266.026 -104.563 0.
127.788 -258.334 0.
113.765 -294.137 0.
99.743 -329.941 0.
418.456 -148.631 0.
479.639 -6.88109 0.
540.823 134.869 0.
364.432 137.212 0.
393.924 212.465 0.
851.722 472.104 0.
722.174 370.976 0.
696.924 318.082 0.
695.54 284.248 0.
671.502 230.542 0.
647.465 176.836 0.
656.258 81.8464 0.
572.021 -112.492 0.
487.783 -306.831 0.
419.33 -281.474 0.
503.884 -82.1984 0.
588.437 117.077 0.
751.026 111.498 0.
695.614 -20.9282 0.
498.201 -210.983 0.
457.016 -313.769 0.
415.831 -416.555 0.
439.186 -367.843 0.
588.008 -19.2212 0.
736.83 329.4 0.
351.226 159.703 0.
229.745 -122.853 0.
108.263 -405.409 0.
696.605 -257.243 0.
660.526 -339.057 0.
683.725 -395.552 0.
714.355 -299.493 0.
757.828 -198.983 0.
889.085 -103.374 0.
828.951 -245.841 0.
768.817 -388.309 0.
102.8 -651.05 0.
205.419 -412.734 0.
308.038 -174.417 0.
255.715 -261.955 0.
157.985 -490.474 0.
60.2544 -718.993 0.
609.611 -465.329 0.
629.056 -414.872 0.
193.751 -539.935 0.
282.466 -327.817 0.
371.182 -115.7 0.
707.937 150.038 0.
721.945 186.271 0.
735.952 222.503 0.
664.5 188.362 0.
647.26 150.511 0.
630.019 112.66 0.
270.077 -41.9499 0.
274.484 -30.6877 0.
752.225 182.824 0.
239.431 -58.9399 0.
227.145 -84.9405 0.
528.611 0.336351 0.
459.053 -159.785 0.
389.496 -319.906 0.
-83.5766 -559.735 0.
-38.6364 -458.589 0.
6.30463 -357.444 0.
210.488 -262.046 0.
192.659 -302.649 0.
174.83 -343.252 0.
31.9264 -398.617 0.
38.0806 -384.723 0.
37.2866 -372.892 0.
58.5767 -322.373 0.
79.8667 -271.854 0.
-42.4527 -257.536 0.
18.5149 -115.976 0.
79.4822 25.5835 0.
-41.8041 88.2011 0.
17.4692 227.431 0.
76.7422 366.66 0.
177.163 202.671 0.
26.5583 -151.212 0.
-252.665 697.463 0.
81.7847 -289.804 0.
220.511 33.2874 0.
74.785 -338.418 0.
252.147 80.4213 0.
453.835 553.433 0.
-67.447 -152.485 0.
127.035 302.106 0.
244.559 576.452 0.
865.86 1064.91 0.
531.175 281.012 0.
28.3995 -894.359 0.
-154.613 -542.85 0.
-4.24274 -192.441 0.
200.475 -411.043 0.
533.466 369.475 0.
576.197 473.308 0.
276.815 255.578 0.
356.535 438.894 0.
190.827 50.1872 0.
434.385 -266.002 0.
543.057 -13.1667 0.
645.406 224.368 0.
362.466 266.954 0.
607.155 840.378 0.
55.1099 -442.634 0.
795.295 407.011 0.
637.14 35.8239 0.
231.89 -1105.82 0.
832.525 302.259 0.
727.423 63.8188 0.
256.188 -921.231 0.
933.064 657.655 0.
639.688 -27.5788 0.
430.224 -245.065 0.
280.103 -595.877 0.
50.9995 -1130.85 0.
278.618 -254.229 0.
506.382 273.103 0.
797.027 103.788 0.
811.058 137.369 0.
896.401 337.406 0.
612.198 354.907 0.
478.525 43.7603 0.
252.683 -482.491 0.
479.105 462.294 0.
232.438 -115.129 0.
121.267 -376.192 0.
464.625 -803.364 0.
712.662 -226.648 0.
837.988 -520.497 0.
592.136 -514.385 0.
766.088 -108.609 0.
1100.63 218.498 0.
658.073 -811.052 0.
1011.24 16.0688 0.
682.243 860.316 0.
642.429 767.323 0.
427.491 265.652 0.
318.66 14.1901 0.
148.874 -382.228 0.
-137.066 -1049.48 0.
761.656 -127.646 0.
840.868 59.0052 0.
311.798 -388.08 0.
447.133 -72.0526 0.
708.916 539.559 0.
896.883 673.408 0.
388.305 -517.669 0.
642.922 72.3416 0.
695.585 432.97 0.
650.045 326.534 0.
605.401 222.166 0.
-163.373 -1091.67 0.
483.874 422.099 0.
-375.878 -593.821 0.
298.517 -172.774 0.
286.014 -204.233 0.
456.44 -469.205 0.
365.529 -680.691 0.
334.992 -750.837 0.
-33.9475 302.833 0.
-350.391 -432.245 0.
-74.9425 213.015 0.
511.159 495.053 0.
399.99 233.958 0.
439.58 324.255 0.
254.292 146.101 0.
71.4119 -280.087 0.
-22.4657 -712.313 0.
394.305 262.447 0.
657.914 877.48 0.
417.747 658.665 0.
425.153 680.027 0.
-314.794 -1042.62 0.
-40.3804 -70.9533 0.
-6.38494 9.11189 0.
113.051 286.353 0.
157.976 22.2169 0.
265.316 271.178 0.
433.166 142.909 0.
160.849 -21.5909 0.
163.606 -13.9197 0.
15.7759 -65.7453 0.
15.7353 -64.9695 0.
15.6938 -64.1928 0.
-79.9215 -120.951 0.
-93.6049 -157.194 0.
-107.289 -193.437 0.
375.339 -73.729 0.
311.855 -224.752 0.
248.37 -375.776 0.
183.283 -297.246 0.
259.361 -121.031 0.
127.355 -53.4682 0.
69.1252 -188.814 0.
10.8966 -324.159 0.
49.2934 -348.713 0.
109.713 -207.841 0.
170.133 -66.97 0.
658.102 155.533 0.
618.177 64.8996 0.
578.252 -25.734 0.
69.3687 -270.786 0.
66.0743 -283.718 0.
469.765 -122.435 0.
612.53 -215.881 0.
531.871 -408.912 0.
437.003 -543.319 0.
511.095 -371.602 0.
585.188 -199.886 0.
505.008 -138.332 0.
535.229 -71.7505 0.
565.45 -5.16935 0.
436.053 -38.4027 0.
439.021 -34.5003 0.
441.988 -30.5983 0.
461.435 -46.0578 0.
450.69 -71.441 0.
797.006 56.3882 0.
794.058 51.9852 0.
791.111 47.5815 0.
316.083 -181.503 0.
283.293 -258.718 0.
250.503 -335.933 0.
271.618 -294.81 0.
323.489 -175.164 0.
375.361 -55.5176 0.
724.523 27.4563 0.
663.539 -114.567 0.
433.944 -329.482 0.
730.035 -157.026 0.
752.078 -102.753 0.
755.203 -52.7088 0.
775.965 2.53696 0.
796.728 57.7821 0.
349.971 -161.022 0.
289.804 -304.558 0.
229.635 -448.096 0.
149.839 -431.081 0.
221.198 -264.235 0.
292.556 -97.3893 0.
686.368 10.0974 0.
639.763 -99.5369 0.
352.992 -307.303 0.
327.491 -366.09 0.
301.99 -424.875 0.
336.881 -430.997 0.
349.52 -405.569 0.
362.159 -380.141 0.
458.793 -303.128 0.
483.788 -242.431 0.
508.783 -181.734 0.
339.212 -275.851 0.
316.373 -330.416 0.
-127.06 -562.73 0.
182.282 -384.35 0.
210.395 -325.079 0.
403.262 -188.085 0.
430.676 -125.872 0.
458.091 -63.6601 0.
-146.998 -314.607 0.
-163.274 -353.371 0.
-179.549 -392.136 0.
167.825 -282.076 0.
151.827 -319.646 0.
135.829 -357.216 0.
188.346 -207.119 0.
263.283 -31.1865 0.
154.943 51.7341 0.
161.415 63.8338 0.
167.887 75.9347 0.
91.8005 29.4584 0.
63.0932 -36.2804 0.
34.386 -102.018 0.
-42.1053 -174.195 0.
-58.6694 -217.169 0.
-75.2338 -260.144 0.
225.486 168.863 0.
433.244 649.375 0.
383.036 157.315 0.
130.997 -3.50605 0.
133.85 4.58329 0.
-186.718 -121.447 0.
-185.742 -121.033 0.
-184.768 -120.619 0.
-91.8518 -93.385 0.
-104.585 -129.866 0.
-117.319 -166.347 0.
389.616 -37.1269 0.
325.757 -188.209 0.
261.898 -339.29 0.
486.094 -135.252 0.
562.017 40.44 0.
-128.932 -131.077 0.
-186.702 -267.006 0.
-244.471 -402.934 0.
105.672 -293.583 0.
165.823 -152.293 0.
225.974 -11.0042 0.
724.348 214.344 0.
684.395 124.303 0.
644.442 34.2611 0.
10.7363 -265.764 0.
7.17865 -278.39 0.
879.987 83.7611 0.
735.004 -132.46 0.
654.367 -325.493 0.
412.382 -521.83 0.
486.388 -350.377 0.
560.394 -178.924 0.
415.764 -144.749 0.
445.841 -78.5892 0.
475.917 -12.4294 0.
358.01 -40.1226 0.
361.79 -37.1768 0.
365.57 -34.2313 0.
593.343 42.6026 0.
583.718 16.2837 0.
834.54 105.628 0.
832.331 100.469 0.
830.123 95.3085 0.
254.488 -174.338 0.
221.915 -251.686 0.
189.343 -329.034 0.
431.913 -195.336 0.
484.083 -75.5992 0.
536.253 44.1375 0.
632.844 20.309 0.
572.101 -121.839 0.
-1015.72 -919.874 0.
717.128 -130.856 0.
739.094 -76.3423 0.
489.399 -134.382 0.
510.283 -79.205 0.
531.167 -24.0284 0.
498.477 -66.3445 0.
437.939 -209.563 0.
377.401 -352.782 0.
193.966 -379.634 0.
264.847 -212.446 0.
335.728 -45.2584 0.
540.396 -21.2726 0.
492.843 -129.583 0.
380.537 -265.595 0.
354.062 -323.601 0.
327.586 -381.608 0.
248.464 -438.81 0.
260.51 -413.059 0.
272.555 -387.308 0.
568.931 -226.283 0.
593.781 -165.244 0.
618.631 -104.206 0.
542.713 -156.78 0.
520.273 -211.31 0.
1005.71 -47.5773 0.
169.576 -358.515 0.
198.097 -299.276 0.
206.44 -242.012 0.
234.782 -180.417 0.
263.124 -118.822 0.
55.7319 -194.868 0.
40.3188 -234.103 0.
24.9058 -273.338 0.
171.052 -248.989 0.
155.301 -286.903 0.
139.549 -324.818 0.
309.72 -122.649 0.
384.879 52.8604 0.
-12.0991 11.3473 0.
-6.34827 24.0355 0.
-0.597294 36.7249 0.
41.1784 37.7937 0.
12.5259 -27.5941 0.
-16.1265 -92.9813 0.
26.4607 -112.458 0.
9.65607 -155.614 0.
-7.14877 -198.769 0.
249.866 207.833 0.
457.227 687.978 0.
363.762 343.621 0.
330.352 467.148 0.
395.202 618.276 0.
-8.47875 518.39 0.
-61.8011 399.853 0.
-115.123 281.316 0.
96.0487 245.327 0.
6.80027 41.4382 0.
-82.4484 -162.45 0.
389.937 -56.2122 0.
355.736 -134.216 0.
321.534 -212.22 0.
569.856 -8.8445 0.
635.169 146.358 0.
-80.4771 -38.2646 0.
-42.1655 53.2635 0.
-3.85413 144.791 0.
388.209 294.749 0.
277.059 34.8108 0.
165.908 -225.127 0.
592.72 -50.4942 0.
679.762 150.38 0.
766.805 351.254 0.
183.442 57.8885 0.
126.209 -74.6913 0.
1372.57 350.019 0.
918.037 224.28 0.
954.995 312.845 0.
715.865 249.447 0.
672.16 146.975 0.
628.455 44.5016 0.
318.439 -76.8753 0.
389.27 84.3895 0.
460.102 245.655 0.
474.518 182.206 0.
381.227 -35.4917 0.
287.936 -253.189 0.
599.127 -96.4063 0.
628.225 -27.9942 0.
737.742 52.4106 0.
676.748 -86.4892 0.
615.753 -225.389 0.
119.337 -449.382 0.
212.165 -226.906 0.
304.993 -4.43229 0.
557.036 115.411 0.
491.181 -35.0489 0.
425.326 -185.509 0.
634.944 -27.8426 0.
699.588 123.429 0.
-1132.49 -537.262 0.
910.001 384.347 0.
935.688 442.379 0.
503.03 238.109 0.
373.111 -65.9104 0.
243.192 -369.929 0.
385.433 -390.941 0.
450.326 -236.359 0.
515.219 -81.7763 0.
295.437 -157.897 0.
276.339 -202.656 0.
257.24 -247.416 0.
397.246 -133.545 0.
432.358 -53.7135 0.
484.519 6.03372 0.
397.711 -199.407 0.
310.903 -404.848 0.
150.287 -531.021 0.
236.395 -330.179 0.
322.504 -129.337 0.
687.656 108.975 0.
700.989 139.352 0.
714.322 169.73 0.
707.579 127.517 0.
677.276 63.0801 0.
766.689 47.4214 0.
342.181 -159.941 0.
326.772 -192.195 0.
98.0095 -296.707 0.
129.559 -218.425 0.
161.109 -140.145 0.
225.034 -115.344 0.
177.821 -225.105 0.
130.609 -334.866 0.
242.494 -254.489 0.
289.554 -144.023 0.
336.614 -33.558 0.
327.939 -4.52367 0.
344.633 32.7742 0.
-178.873 -160.123 0.
-159.836 -114.24 0.
-140.799 -68.3571 0.
51.0088 32.85 0.
43.4761 14.3392 0.
35.9432 -4.17045 0.
72.8813 22.3655 0.
89.0289 61.7608 0.
105.177 101.156 0.
61.9929 -39.0495 0.
-21.6666 -232.327 0.
1084.39 683.489 0.
406.078 530.923 0.
471.527 682.189 0.
-22.1884 543.146 0.
-74.7535 425.273 0.
-127.319 307.399 0.
226.93 332.988 0.
138.507 129.049 0.
50.0848 -74.8882 0.
425.638 -10.7982 0.
391.766 -89.1434 0.
357.895 -167.489 0.
391.86 -50.5952 0.
458.081 103.232 0.
201.521 113.983 0.
240.004 205.135 0.
278.487 296.286 0.
438.046 349.582 0.
327.287 89.044 0.
216.527 -171.494 0.
532.624 -45.8358 0.
619.169 155.76 0.
705.715 357.356 0.
332.699 149.693 0.
275.367 16.9226 0.
340.283 -63.0802 0.
904.947 252.965 0.
941.773 341.461 0.
711.609 277.684 0.
667.163 175.584 0.
622.717 73.4844 0.
133.317 -123.961 0.
203.917 37.2177 0.
274.518 198.397 0.
642.328 284.165 0.
549.179 66.1199 0.
456.031 -151.925 0.
650.542 -43.2298 0.
680.281 24.7572 0.
546.418 2.74383 0.
485.489 -136.24 0.
424.56 -275.223 0.
155.884 -401.779 0.
248.605 -179.216 0.
341.326 43.3474 0.
411.41 82.0704 0.
345.824 -68.5244 0.
280.238 -219.119 0.
810.155 81.9249 0.
875.48 232.935 0.
-105.96 -65.0638 0.
886.406 405.765 0.
911.863 464.438 0.
464.76 253.466 0.
335.397 -51.1041 0.
206.034 -355.675 0.
332.923 -379.816 0.
398.966 -226.182 0.
465.009 -72.5473 0.
305.362 -121.79 0.
287.034 -166.55 0.
268.706 -211.309 0.
345.337 -123.514 0.
380.957 -43.9972 0.
471.089 32.3784 0.
384.562 -173.232 0.
298.035 -378.842 0.
131.329 -505.35 0.
218.375 -305.391 0.
305.421 -105.432 0.
556.8 84.8494 0.
570.424 114.608 0.
584.048 144.368 0.
637.118 129.811 0.
607.557 64.8039 0.
964.372 163.902 0.
610.406 -13.0906 0.
594.993 -45.091 0.
96.9208 -265.364 0.
128.633 -187.157 0.
160.345 -108.951 0.
372.87 -22.0057 0.
326.037 -131.924 0.
279.203 -241.842 0.
446.268 -134.381 0.
493.883 -24.3601 0.
541.499 85.6609 0.
171.576 -40.1843 0.
188.021 -2.78992 0.
-214.475 -142.573 0.
-194.859 -97.3624 0.
-175.242 -52.1524 0.
159.909 109.644 0.
152.14 91.5489 0.
144.371 73.4548 0.
16.1823 29.5124 0.
32.5703 68.7165 0.
48.9584 107.92 0.
-136.702 -92.1555 0.
-220.716 -285.413 0.
321.647 -196.402 0.
-43.989 -640.886 0.
96.7768 -311.178 0.
-65.4303 459.945 0.
-403.2 -321.657 0.
-33.0899 548.396 0.
450.828 628.432 0.
83.8738 -224.054 0.
393.841 502.46 0.
379.388 -144.806 0.
222.081 -510.435 0.
261.849 -416.121 0.
453.396 451.865 0.
380.398 288.248 0.
-7.67419 -877.498 0.
327.217 -94.7362 0.
319.575 -110.859 0.
388.458 159.803 0.
240.077 -183.041 0.
608.45 678.343 0.
693.52 460.112 0.
367.452 -301.411 0.
96.131 -935.432 0.
188.085 -439.621 0.
353.173 -55.676 0.
-653.114 -1248.55 0.
114.666 -1531.16 0.
598.468 -396.018 0.
407.883 -392.683 0.
723.022 347.993 0.
588.494 39.8491 0.
-122.074 -345.386 0.
195.446 398.983 0.
-25.1529 -112.534 0.
667.15 40.549 0.
455.397 -454.547 0.
715.573 151.635 0.
418.539 -638.145 0.
534.908 -371.15 0.
567.542 447.979 0.
429.516 124.954 0.
-52.7523 -1001.27 0.
-160.296 -1158.58 0.
498.913 378.959 0.
713.666 879.576 0.
736.994 1131.61 0.
478.556 537.382 0.
82.5865 -377.502 0.
708.869 -445.928 0.
914.361 28.9855 0.
-1640.63 88.2827 0.
734.73 130.945 0.
591.114 -205.442 0.
511.501 468.381 0.
489.684 418.624 0.
323.022 30.4561 0.
331.082 -270.133 0.
661.514 506.198 0.
472.548 70.9377 0.
12.4234 -794.663 0.
-58.1014 -955.676 0.
315.49 -80.1459 0.
213.682 -313.301 0.
258.655 -206.284 0.
600.555 399.861 0.
408.95 -48.6967 0.
181.787 -579.807 0.
112.012 -483.743 0.
364.757 100.941 0.
781.669 1068.09 0.
516.766 257.152 0.
-192.715 -1406.35 0.
367.447 -106.565 0.
616.834 273.058 0.
769.365 631.153 0.
886.807 -516.879 0.
673.219 -358.977 0.
343.272 -1117.87 0.
290.412 205.646 0.
756.774 1300.55 0.
-353.448 -1282.71 0.
210.705 -654.751 0.
963.597 1103.89 0.
897.731 952.829 0.
553.671 -223.021 0.
352.794 -692.96 0.
631.263 -44.3844 0.
-128.341 -417.115 0.
114.005 146.053 0.
-73.2876 285.258 0.
-143.543 122.647 0.
-463.413 -623.149 0.
-257.649 -1044.79 0.
424.505 546.372 0.
128.969 -143.772 0.
-172.116 -268.108 0.
-104.427 -113.071 0.
-38.0151 40.5899 0.
-152.353 275.065 0.
-498.615 -535.094 0.
592.917 108.291 0.
-85.5251 -265.476 0.
-145.14 -403.731 0.
21.7158 -383.423 0.
85.3704 -235.273 0.
149.026 -87.121 0.
130.97 15.687 0.
183.482 137.399 0.
235.992 259.111 0.
416.617 316.949 0.
369.544 210.902 0.
322.472 104.854 0.
108.092 11.4387 0.
105.722 17.0446 0.
489.148 169.583 0.
396.284 -44.662 0.
303.42 -258.907 0.
148.261 -377.957 0.
254.564 -124.463 0.
360.866 129.03 0.
314.163 138.963 0.
250.151 -16.453 0.
186.138 -171.869 0.
785.014 80.9389 0.
804.662 125.284 0.
678.922 108.377 0.
574.17 -56.0602 0.
511.043 -202.422 0.
514.486 -274.107 0.
560.975 -162.542 0.
607.463 -50.9761 0.
212.111 -178.129 0.
196.11 -207.483 0.
180.111 -236.838 0.
521.789 -22.0796 0.
584.903 123.265 0.
648.017 268.609 0.
512.501 120.702 0.
447.329 -30.8974 0.
408.774 -151.982 0.
430.509 -102.693 0.
452.244 -53.4046 0.
131.526 -186.308 0.
110.364 -243.176 0.
89.2027 -300.044 0.
249.487 -272.992 0.
226.73 -327.614 0.
203.974 -382.235 0.
782.207 -62.7586 0.
839.802 69.2173 0.
-1564.75 -853.259 0.
462.432 -111.342 0.
395.212 -266.417 0.
90.4945 -444.032 0.
198.239 -191.004 0.
305.983 62.0247 0.
403.313 275.689 0.
475.991 449.508 0.
548.67 623.326 0.
565.267 468.793 0.
397.374 81.8637 0.
229.479 -305.064 0.
174.04 -296.556 0.
212.749 -203.839 0.
232.384 -127.723 0.
256.597 -72.1127 0.
280.81 -16.5034 0.
781.982 291.06 0.
882.259 522.954 0.
982.536 754.847 0.
824.157 711.489 0.
773.856 591.059 0.
723.556 470.628 0.
685.29 222.253 0.
543.304 -108.314 0.
-152.563 -666.897 0.
502.647 -175.687 0.
614.951 85.0472 0.
314.025 56.1836 0.
170.061 -279.101 0.
26.0963 -614.385 0.
341.823 -525.683 0.
465.454 -233.101 0.
589.083 59.4808 0.
532.916 82.7326 0.
512.214 35.5802 0.
491.511 -11.5717 0.
6.44633 -49.6666 0.
107.615 185.985 0.
-42.9035 262.271 0.
-138.489 42.4546 0.
-234.075 -177.362 0.
158.941 -79.6442 0.
227.749 77.356 0.
296.557 234.357 0.
-120.22 93.1578 0.
-136.342 56.0566 0.
-152.464 18.9555 0.
-161.721 -53.1821 0.
-203.789 -150.457 0.
-1052.34 -567.834 0.
-314.464 -332.714 0.
-373.505 -471.04 0.
588.384 -109.859 0.
653.087 38.5995 0.
717.792 187.059 0.
87.9044 30.5996 0.
142.248 152.034 0.
196.59 273.47 0.
230.258 268.301 0.
183.228 162.694 0.
136.198 57.0852 0.
-63.4091 -32.6888 0.
-66.4071 -26.4773 0.
560.598 232.285 0.
468.094 17.7632 0.
375.59 -196.759 0.
150.41 -347.587 0.
256.418 -93.8308 0.
362.426 159.924 0.
32.6681 52.6224 0.
-29.7617 -103.282 0.
-92.1922 -259.187 0.
1264.11 317.25 0.
1284.29 361.544 0.
-575.351 -398.799 0.
378.643 -107.526 0.
314.812 -253.338 0.
604.869 -207.251 0.
649.687 -94.3146 0.
694.504 18.6218 0.
540.29 -8.66588 0.
523.83 -37.8513 0.
507.371 -67.0368 0.
395.57 -43.0036 0.
459.295 101.379 0.
523.02 245.761 0.
239.692 38.1921 0.
175.728 -114.398 0.
544 -63.9197 0.
565.458 -14.4768 0.
586.916 34.9664 0.
-1.91928 -213.084 0.
-23.43 -269.867 0.
-44.9403 -326.649 0.
412.41 -171.743 0.
389.531 -225.7 0.
366.652 -279.656 0.
696.709 -65.9872 0.
755.294 65.0731 0.
-2088.53 -1046.27 0.
273.332 -160.163 0.
206.137 -314.984 0.
68.4218 -421.8 0.
176.463 -168.939 0.
284.503 83.9208 0.
232.231 234.605 0.
305.641 408.312 0.
379.051 582.019 0.
594.461 512.626 0.
425.532 126.849 0.
256.603 -258.925 0.
135.008 -284.015 0.
173.555 -190.791 0.
79.187 -160.61 0.
103.466 -104.964 0.
127.746 -49.3196 0.
1207.76 505.858 0.
1308.84 737.588 0.
1409.92 969.317 0.
986.466 814.159 0.
935.861 694.013 0.
885.256 573.867 0.
808.614 305.546 0.
665.623 -24.343 0.
-459.709 -766.603 0.
217.202 -266.714 0.
328.739 -5.56207 0.
444.102 142.329 0.
300.301 -193.158 0.
156.5 -528.646 0.
449.783 -448.517 0.
573.623 -155.475 0.
697.462 137.566 0.
362.748 40.9394 0.
341.808 -5.5818 0.
320.868 -52.1025 0.
-3.24175 -22.9931 0.
97.5984 212.559 0.
18.0558 319.656 0.
-77.5655 100.031 0.
-173.187 -119.594 0.
179.989 -40.37 0.
249.197 116.423 0.
318.406 273.217 0.
-233.634 77.587 0.
-249.65 40.6529 0.
-265.666 3.71893 0.
18.4961 53.1533 0.
-24.3526 -43.0171 0.
