# vtk DataFile Version 2.0
test grain
ASCII
DATASET UNSTRUCTURED_GRID
POINTS 5000 float
0.499941 0.00100031 0.
0.501942 0.00100029 0.
0.503942 0.00100028 0.
0.505942 0.00100027 0.
0.507943 0.00100028 0.
0.509944 0.00100028 0.
0.511945 0.00100024 0.
0.513946 0.00100014 0.
0.515948 0.00100004 0.
0.517949 0.00100001 0.
0.51995 0.00100002 0.
0.521951 0.00100002 0.
0.523952 0.00100002 0.
0.525953 0.00100001 0.
0.527953 0.001 0.
0.529955 0.00100001 0.
0.531956 0.00100001 0.
0.533958 0.00100001 0.
0.535959 0.00100001 0.
0.537961 0.001 0.
0.539962 0.000999999 0.
0.541963 0.001 0.
0.543964 0.001 0.
0.545965 0.001 0.
0.547966 0.001 0.
0.549968 0.001 0.
0.551969 0.001 0.
0.55397 0.001 0.
0.555971 0.001 0.
0.557973 0.001 0.
0.559974 0.001 0.
0.561976 0.001 0.
0.563977 0.001 0.
0.565979 0.001 0.
0.56798 0.001 0.
0.569981 0.001 0.
0.571982 0.001 0.
0.573983 0.001 0.
0.575985 0.001 0.
0.577987 0.001 0.
0.579988 0.001 0.
0.581989 0.000999999 0.
0.58399 0.000999999 0.
0.585991 0.000999999 0.
0.587993 0.001 0.
0.589994 0.000999999 0.
0.591995 0.001 0.
0.593997 0.001 0.
0.595998 0.001 0.
0.597999 0.001 0.
0.600001 0.001 0.
0.602003 0.001 0.
0.604005 0.001 0.
0.606007 0.001 0.
0.608008 0.000999999 0.
0.610008 0.000999998 0.
0.61201 0.000999999 0.
0.614012 0.000999999 0.
0.616014 0.001 0.
0.618015 0.001 0.
0.620016 0.001 0.
0.622017 0.001 0.
0.624018 0.001 0.
0.62602 0.001 0.
0.628021 0.001 0.
0.630022 0.001 0.
0.632023 0.001 0.
0.634025 0.001 0.
0.636026 0.001 0.
0.638027 0.001 0.
0.640028 0.001 0.
0.642029 0.001 0.
0.64403 0.001 0.
0.646031 0.001 0.
0.648032 0.001 0.
0.650033 0.001 0.
0.652034 0.001 0.
0.654036 0.000999999 0.
0.656037 0.001 0.
0.658039 0.000999999 0.
0.66004 0.000999999 0.
0.662042 0.000999999 0.
0.664043 0.001 0.
0.666044 0.001 0.
0.668045 0.001 0.
0.670046 0.001 0.
0.672047 0.000999998 0.
0.674048 0.000999995 0.
0.676049 0.000999993 0.
0.678051 0.000999994 0.
0.680052 0.00100001 0.
0.682053 0.00100002 0.
0.684054 0.00100004 0.
0.686055 0.00100007 0.
0.688056 0.00100009 0.
0.690057 0.00100012 0.
0.692058 0.00100015 0.
0.694059 0.00100018 0.
0.696061 0.00100021 0.
0.698063 0.00100024 0.
0.499941 0.00300092 0.
0.501942 0.00300088 0.
0.503942 0.00300084 0.
0.505942 0.00300081 0.
0.507943 0.00300083 0.
0.509944 0.00300085 0.
0.511945 0.00300073 0.
0.513946 0.00300043 0.
0.515948 0.00300013 0.
0.517949 0.00300003 0.
0.51995 0.00300005 0.
0.521951 0.00300007 0.
0.523952 0.00300005 0.
0.525953 0.00300003 0.
0.527953 0.00300001 0.
0.529955 0.00300002 0.
0.531956 0.00300003 0.
0.533957 0.00300003 0.
0.535959 0.00300002 0.
0.53796 0.00300001 0.
0.539962 0.003 0.
0.541963 0.003 0.
0.543964 0.003 0.
0.545966 0.003 0.
0.547967 0.003 0.
0.549968 0.003 0.
0.551969 0.003 0.
0.55397 0.003 0.
0.555971 0.003 0.
0.557973 0.003 0.
0.559974 0.00300001 0.
0.561976 0.00300001 0.
0.563977 0.00300001 0.
0.565979 0.00300001 0.
0.56798 0.00300001 0.
0.569982 0.00300001 0.
0.571983 0.00300001 0.
0.573984 0.003 0.
0.575986 0.003 0.
0.577987 0.003 0.
0.579988 0.003 0.
0.58199 0.003 0.
0.583991 0.003 0.
0.585992 0.003 0.
0.587993 0.003 0.
0.589994 0.003 0.
0.591995 0.003 0.
0.593997 0.003 0.
0.595998 0.003 0.
0.597999 0.003 0.
0.600001 0.003 0.
0.602003 0.003 0.
0.604005 0.003 0.
0.606007 0.003 0.
0.608008 0.003 0.
0.610009 0.00299999 0.
0.61201 0.003 0.
0.614012 0.003 0.
0.616013 0.003 0.
0.618015 0.003 0.
0.620016 0.003 0.
0.622017 0.003 0.
0.624018 0.003 0.
0.626019 0.00300001 0.
0.62802 0.00300001 0.
0.630022 0.00300001 0.
0.632023 0.00300001 0.
0.634024 0.00300001 0.
0.636025 0.00300001 0.
0.638027 0.003 0.
0.640028 0.003 0.
0.642029 0.003 0.
0.644031 0.003 0.
0.646032 0.003 0.
0.648032 0.003 0.
0.650033 0.003 0.
0.652034 0.003 0.
0.654036 0.003 0.
0.656037 0.003 0.
0.658038 0.003 0.
0.66004 0.003 0.
0.662041 0.003 0.
0.664043 0.003 0.
0.666044 0.00300001 0.
0.668045 0.00300001 0.
0.670046 0.003 0.
0.672047 0.00299999 0.
0.674048 0.00299998 0.
0.676049 0.00299998 0.
0.67805 0.00299998 0.
0.680052 0.00300003 0.
0.682053 0.00300007 0.
0.684054 0.00300013 0.
0.686055 0.0030002 0.
0.688056 0.00300027 0.
0.690057 0.00300035 0.
0.692058 0.00300044 0.
0.69406 0.00300053 0.
0.696061 0.00300062 0.
0.698063 0.00300072 0.
0.499941 0.00500152 0.
0.501941 0.00500147 0.
0.503942 0.00500139 0.
0.505943 0.00500134 0.
0.507943 0.00500138 0.
0.509944 0.00500141 0.
0.511945 0.00500122 0.
0.513946 0.00500072 0.
0.515947 0.00500022 0.
0.517949 0.00500005 0.
0.51995 0.00500009 0.
0.521951 0.00500012 0.
0.523952 0.00500009 0.
0.525952 0.00500005 0.
0.527953 0.00500002 0.
0.529954 0.00500003 0.
0.531955 0.00500005 0.
0.533957 0.00500005 0.
0.535958 0.00500003 0.
0.53796 0.00500001 0.
0.539961 0.005 0.
0.541963 0.005 0.
0.543965 0.005 0.
0.545966 0.005 0.
0.547967 0.005 0.
0.549969 0.00500001 0.
0.551969 0.005 0.
0.55397 0.005 0.
0.555971 0.005 0.
0.557973 0.00500001 0.
0.559974 0.00500001 0.
0.561976 0.00500001 0.
0.563977 0.00500001 0.
0.565979 0.00500001 0.
0.567981 0.00500001 0.
0.569982 0.00500001 0.
0.571984 0.00500001 0.
0.573985 0.00500001 0.
0.575986 0.00500001 0.
0.577988 0.005 0.
0.579989 0.005 0.
0.58199 0.00499999 0.
0.583991 0.00499999 0.
0.585992 0.005 0.
0.587993 0.005 0.
0.589994 0.005 0.
0.591995 0.005 0.
0.593997 0.005 0.
0.595998 0.005 0.
0.597999 0.00500001 0.
0.600001 0.00500001 0.
0.602003 0.005 0.
0.604005 0.005 0.
0.606007 0.005 0.
0.608009 0.00499999 0.
0.61001 0.00499999 0.
0.612011 0.00499999 0.
0.614012 0.00499999 0.
0.616013 0.005 0.
0.618014 0.005 0.
0.620016 0.005 0.
0.622017 0.00500001 0.
0.624018 0.00500001 0.
0.626019 0.00500001 0.
0.62802 0.00500002 0.
0.630021 0.00500002 0.
0.632023 0.00500002 0.
0.634024 0.00500002 0.
0.636025 0.00500001 0.
0.638026 0.005 0.
0.640028 0.005 0.
0.642029 0.005 0.
0.644031 0.005 0.
0.646032 0.005 0.
0.648033 0.005 0.
0.650034 0.005 0.
0.652035 0.005 0.
0.654035 0.005 0.
0.656036 0.005 0.
0.658038 0.005 0.
0.660039 0.005 0.
0.662041 0.005 0.
0.664042 0.00500001 0.
0.666043 0.00500002 0.
0.668045 0.00500001 0.
0.670046 0.005 0.
0.672048 0.00499999 0.
0.674048 0.00499997 0.
0.676049 0.00499996 0.
0.67805 0.00499997 0.
0.680051 0.00500004 0.
0.682053 0.00500012 0.
0.684054 0.00500021 0.
0.686055 0.00500033 0.
0.688056 0.00500045 0.
0.690057 0.00500058 0.
0.692058 0.00500074 0.
0.69406 0.00500089 0.
0.696061 0.00500104 0.
0.698062 0.00500121 0.
0.49994 0.00700342 0.
0.501941 0.0070033 0.
0.503942 0.00700319 0.
0.505943 0.00700307 0.
0.507944 0.00700292 0.
0.509945 0.00700276 0.
0.511945 0.00700261 0.
0.513947 0.00700245 0.
0.515948 0.0070023 0.
0.517949 0.00700205 0.
0.51995 0.00700175 0.
0.521951 0.00700145 0.
0.523952 0.0070014 0.
0.525953 0.00700139 0.
0.527953 0.00700138 0.
0.529955 0.00700146 0.
0.531956 0.00700154 0.
0.533957 0.00700163 0.
0.535958 0.00700177 0.
0.53796 0.0070019 0.
0.539961 0.00700183 0.
0.541963 0.00700158 0.
0.543965 0.00700133 0.
0.545966 0.00700135 0.
0.547967 0.00700144 0.
0.549968 0.00700154 0.
0.551969 0.00700126 0.
0.55397 0.00700098 0.
0.555971 0.00700078 0.
0.557973 0.00700089 0.
0.559974 0.00700101 0.
0.561976 0.00700108 0.
0.563977 0.00700111 0.
0.565979 0.00700114 0.
0.56798 0.00700118 0.
0.569982 0.00700124 0.
0.571983 0.0070013 0.
0.573985 0.00700122 0.
0.575986 0.00700111 0.
0.577988 0.00700102 0.
0.579989 0.00700104 0.
0.58199 0.00700107 0.
0.583991 0.00700105 0.
0.585992 0.00700093 0.
0.587993 0.00700081 0.
0.589994 0.00700084 0.
0.591995 0.00700101 0.
0.593997 0.00700117 0.
0.595998 0.00700126 0.
0.597999 0.00700132 0.
0.6 0.00700138 0.
0.602003 0.00700123 0.
0.604005 0.00700109 0.
0.606007 0.00700102 0.
0.608008 0.00700123 0.
0.61001 0.00700143 0.
0.612011 0.00700146 0.
0.614012 0.00700128 0.
0.616013 0.00700109 0.
0.618015 0.00700115 0.
0.620016 0.00700133 0.
0.622018 0.00700151 0.
0.624018 0.00700155 0.
0.626019 0.00700157 0.
0.62802 0.00700161 0.
0.630022 0.00700178 0.
0.632023 0.00700195 0.
0.634024 0.007002 0.
0.636025 0.00700184 0.
0.638026 0.00700168 0.
0.640028 0.00700156 0.
0.642029 0.00700146 0.
0.644031 0.00700135 0.
0.646032 0.00700153 0.
0.648033 0.00700178 0.
0.650034 0.00700203 0.
0.652035 0.00700178 0.
0.654035 0.00700153 0.
0.656036 0.00700137 0.
0.658038 0.00700155 0.
0.660039 0.00700172 0.
0.66204 0.00700178 0.
0.664042 0.00700169 0.
0.666043 0.0070016 0.
0.668044 0.00700157 0.
0.670046 0.00700158 0.
0.672047 0.00700158 0.
0.674048 0.00700153 0.
0.676049 0.00700147 0.
0.67805 0.0070014 0.
0.680052 0.00700132 0.
0.682053 0.00700124 0.
0.684054 0.00700123 0.
0.686055 0.00700134 0.
0.688056 0.00700145 0.
0.690057 0.00700176 0.
0.692058 0.00700221 0.
0.69406 0.00700266 0.
0.696061 0.0070027 0.
0.698062 0.00700265 0.
0.49994 0.00900532 0.
0.501941 0.00900514 0.
0.503942 0.00900499 0.
0.505943 0.0090048 0.
0.507944 0.00900445 0.
0.509945 0.00900411 0.
0.511946 0.009004 0.
0.513947 0.00900419 0.
0.515948 0.00900438 0.
0.517949 0.00900405 0.
0.51995 0.00900342 0.
0.521951 0.00900279 0.
0.523952 0.00900271 0.
0.525953 0.00900272 0.
0.527954 0.00900274 0.
0.529955 0.00900288 0.
0.531956 0.00900303 0.
0.533958 0.00900322 0.
0.535959 0.00900351 0.
0.53796 0.0090038 0.
0.539961 0.00900366 0.
0.541963 0.00900316 0.
0.543965 0.00900265 0.
0.545966 0.00900269 0.
0.547967 0.00900289 0.
0.549968 0.00900308 0.
0.551969 0.00900253 0.
0.55397 0.00900196 0.
0.555971 0.00900155 0.
0.557973 0.00900178 0.
0.559974 0.009002 0.
0.561976 0.00900216 0.
0.563977 0.00900221 0.
0.565979 0.00900227 0.
0.56798 0.00900236 0.
0.569981 0.00900248 0.
0.571982 0.00900259 0.
0.573984 0.00900243 0.
0.575986 0.00900222 0.
0.577988 0.00900203 0.
0.579988 0.00900209 0.
0.581989 0.00900215 0.
0.58399 0.00900211 0.
0.585991 0.00900187 0.
0.587993 0.00900162 0.
0.589994 0.00900169 0.
0.591995 0.00900202 0.
0.593996 0.00900235 0.
0.595998 0.00900251 0.
0.597999 0.00900263 0.
0.6 0.00900275 0.
0.602002 0.00900246 0.
0.604005 0.00900217 0.
0.606007 0.00900204 0.
0.608008 0.00900246 0.
0.610009 0.00900287 0.
0.612011 0.00900293 0.
0.614012 0.00900256 0.
0.616013 0.00900219 0.
0.618015 0.00900231 0.
0.620016 0.00900266 0.
0.622018 0.00900301 0.
0.624019 0.00900309 0.
0.626019 0.00900313 0.
0.62802 0.00900321 0.
0.630022 0.00900355 0.
0.632023 0.00900388 0.
0.634025 0.00900399 0.
0.636026 0.00900368 0.
0.638027 0.00900336 0.
0.640028 0.00900312 0.
0.64203 0.00900291 0.
0.644031 0.0090027 0.
0.646032 0.00900306 0.
0.648033 0.00900357 0.
0.650035 0.00900406 0.
0.652035 0.00900356 0.
0.654035 0.00900305 0.
0.656036 0.00900275 0.
0.658038 0.0090031 0.
0.660039 0.00900345 0.
0.66204 0.00900355 0.
0.664041 0.00900336 0.
0.666043 0.00900318 0.
0.668044 0.00900313 0.
0.670045 0.00900316 0.
0.672047 0.00900318 0.
0.674048 0.00900309 0.
0.676049 0.00900298 0.
0.678051 0.00900283 0.
0.680052 0.0090026 0.
0.682053 0.00900236 0.
0.684054 0.00900225 0.
0.686055 0.00900235 0.
0.688056 0.00900245 0.
0.690057 0.00900293 0.
0.692058 0.00900368 0.
0.694059 0.00900444 0.
0.696061 0.00900436 0.
0.698062 0.0090041 0.
0.49994 0.0110065 0.
0.501941 0.0110062 0.
0.503942 0.011006 0.
0.505943 0.0110058 0.
0.507944 0.0110055 0.
0.509945 0.0110052 0.
0.511946 0.0110051 0.
0.513947 0.0110052 0.
0.515948 0.0110054 0.
0.517949 0.011005 0.
0.51995 0.0110042 0.
0.521952 0.0110034 0.
0.523952 0.0110033 0.
0.525953 0.0110033 0.
0.527954 0.0110034 0.
0.529955 0.0110036 0.
0.531957 0.0110037 0.
0.533958 0.0110039 0.
0.535959 0.0110041 0.
0.53796 0.0110044 0.
0.539962 0.0110042 0.
0.541963 0.0110037 0.
0.543965 0.0110032 0.
0.545966 0.0110032 0.
0.547967 0.0110034 0.
0.549968 0.0110036 0.
0.551969 0.011003 0.
0.55397 0.0110024 0.
0.555971 0.011002 0.
0.557973 0.0110022 0.
0.559974 0.0110024 0.
0.561976 0.0110026 0.
0.563977 0.0110026 0.
0.565978 0.0110027 0.
0.567979 0.0110027 0.
0.569981 0.0110027 0.
0.571982 0.0110027 0.
0.573983 0.0110026 0.
0.575985 0.0110024 0.
0.577987 0.0110023 0.
0.579988 0.0110023 0.
0.581989 0.0110023 0.
0.58399 0.0110022 0.
0.585991 0.011002 0.
0.587993 0.0110018 0.
0.589994 0.0110019 0.
0.591995 0.0110023 0.
0.593997 0.0110026 0.
0.595998 0.0110027 0.
0.597999 0.0110028 0.
0.6 0.0110028 0.
0.602002 0.0110026 0.
0.604005 0.0110023 0.
0.606007 0.0110022 0.
0.608008 0.0110026 0.
0.610009 0.011003 0.
0.61201 0.0110031 0.
0.614012 0.0110027 0.
0.616013 0.0110024 0.
0.618015 0.0110027 0.
0.620016 0.0110032 0.
0.622018 0.0110037 0.
0.624019 0.0110036 0.
0.62602 0.0110035 0.
0.628021 0.0110034 0.
0.630022 0.0110039 0.
0.632024 0.0110044 0.
0.634025 0.0110046 0.
0.636026 0.0110041 0.
0.638027 0.0110037 0.
0.640028 0.0110035 0.
0.64203 0.0110034 0.
0.644031 0.0110033 0.
0.646032 0.0110036 0.
0.648033 0.0110041 0.
0.650034 0.0110046 0.
0.652035 0.0110042 0.
0.654036 0.0110039 0.
0.656036 0.0110037 0.
0.658038 0.0110039 0.
0.660039 0.0110042 0.
0.66204 0.0110042 0.
0.664041 0.0110041 0.
0.666042 0.0110039 0.
0.668044 0.0110038 0.
0.670045 0.0110037 0.
0.672046 0.0110036 0.
0.674048 0.0110036 0.
0.676049 0.0110036 0.
0.67805 0.0110035 0.
0.680051 0.0110033 0.
0.682052 0.0110031 0.
0.684053 0.011003 0.
0.686054 0.0110031 0.
0.688055 0.0110033 0.
0.690057 0.0110037 0.
0.692058 0.0110044 0.
0.694059 0.0110051 0.
0.69606 0.011005 0.
0.698061 0.0110047 0.
0.499941 0.0130069 0.
0.501942 0.0130066 0.
0.503943 0.0130064 0.
0.505943 0.0130062 0.
0.507944 0.0130061 0.
0.509945 0.013006 0.
0.511946 0.0130058 0.
0.513947 0.0130056 0.
0.515949 0.0130054 0.
0.51795 0.0130048 0.
0.519951 0.013004 0.
0.521952 0.0130033 0.
0.523953 0.0130032 0.
0.525954 0.0130032 0.
0.527955 0.0130033 0.
0.529956 0.0130035 0.
0.531957 0.0130036 0.
0.533958 0.0130037 0.
0.53596 0.0130037 0.
0.537961 0.0130036 0.
0.539962 0.0130034 0.
0.541963 0.0130031 0.
0.543965 0.0130028 0.
0.545966 0.0130028 0.
0.547967 0.0130029 0.
0.549968 0.013003 0.
0.551969 0.0130027 0.
0.55397 0.0130024 0.
0.555971 0.0130022 0.
0.557972 0.0130023 0.
0.559974 0.0130023 0.
0.561975 0.0130024 0.
0.563976 0.0130024 0.
0.565978 0.0130024 0.
0.567979 0.0130022 0.
0.56998 0.0130019 0.
0.571982 0.0130016 0.
0.573983 0.0130016 0.
0.575985 0.0130017 0.
0.577986 0.0130017 0.
0.579988 0.0130015 0.
0.581989 0.0130014 0.
0.58399 0.0130013 0.
0.585992 0.0130014 0.
0.587993 0.0130014 0.
0.589994 0.0130016 0.
0.591996 0.0130018 0.
0.593997 0.0130021 0.
0.595998 0.013002 0.
0.597999 0.0130018 0.
0.600001 0.0130016 0.
0.602002 0.0130016 0.
0.604004 0.0130015 0.
0.606006 0.0130015 0.
0.608007 0.0130016 0.
0.610009 0.0130018 0.
0.61201 0.0130018 0.
0.614011 0.0130018 0.
0.616012 0.0130018 0.
0.618014 0.0130022 0.
0.620015 0.0130028 0.
0.622017 0.0130034 0.
0.624018 0.013003 0.
0.626019 0.0130025 0.
0.628021 0.0130022 0.
0.630022 0.0130028 0.
0.632024 0.0130034 0.
0.634025 0.0130037 0.
0.636026 0.0130033 0.
0.638027 0.0130028 0.
0.640029 0.0130027 0.
0.64203 0.0130029 0.
0.644031 0.013003 0.
0.646032 0.0130032 0.
0.648033 0.0130034 0.
0.650034 0.0130037 0.
0.652035 0.0130039 0.
0.654036 0.013004 0.
0.656037 0.0130041 0.
0.658038 0.013004 0.
0.660039 0.0130039 0.
0.66204 0.0130039 0.
0.664041 0.0130038 0.
0.666043 0.0130037 0.
0.668044 0.0130034 0.
0.670045 0.0130031 0.
0.672046 0.0130029 0.
0.674047 0.013003 0.
0.676048 0.0130032 0.
0.678049 0.0130034 0.
0.68005 0.0130034 0.
0.682051 0.0130034 0.
0.684052 0.0130034 0.
0.686054 0.0130037 0.
0.688055 0.0130039 0.
0.690056 0.0130042 0.
0.692057 0.0130045 0.
0.694058 0.0130047 0.
0.696059 0.0130046 0.
0.69806 0.0130045 0.
0.499942 0.0150073 0.
0.501942 0.0150069 0.
0.503943 0.0150067 0.
0.505944 0.0150065 0.
0.507945 0.0150066 0.
0.509946 0.0150068 0.
0.511947 0.0150066 0.
0.513948 0.015006 0.
0.515949 0.0150054 0.
0.51795 0.0150047 0.
0.519951 0.0150039 0.
0.521952 0.0150031 0.
0.523953 0.0150031 0.
0.525954 0.0150032 0.
0.527955 0.0150032 0.
0.529956 0.0150034 0.
0.531957 0.0150036 0.
0.533959 0.0150036 0.
0.53596 0.0150032 0.
0.537961 0.0150029 0.
0.539963 0.0150027 0.
0.541964 0.0150026 0.
0.543965 0.0150025 0.
0.545966 0.0150025 0.
0.547967 0.0150024 0.
0.549968 0.0150024 0.
0.551969 0.0150024 0.
0.55397 0.0150024 0.
0.555971 0.0150024 0.
0.557972 0.0150023 0.
0.559973 0.0150022 0.
0.561974 0.0150022 0.
0.563976 0.0150022 0.
0.565977 0.0150021 0.
0.567979 0.0150018 0.
0.56998 0.0150012 0.
0.571981 0.0150006 0.
0.573983 0.0150007 0.
0.575984 0.015001 0.
0.577985 0.0150011 0.
0.579987 0.0150008 0.
0.581989 0.0150005 0.
0.583991 0.0150004 0.
0.585992 0.0150007 0.
0.587993 0.0150011 0.
0.589994 0.0150013 0.
0.591996 0.0150014 0.
0.593997 0.0150015 0.
0.595999 0.0150012 0.
0.598 0.0150008 0.
0.600001 0.0150004 0.
0.602003 0.0150005 0.
0.604004 0.0150007 0.
0.606005 0.0150008 0.
0.608007 0.0150007 0.
0.610009 0.0150006 0.
0.61201 0.0150006 0.
0.614011 0.0150009 0.
0.616012 0.0150012 0.
0.618013 0.0150017 0.
0.620015 0.0150025 0.
0.622016 0.0150032 0.
0.624018 0.0150025 0.
0.626019 0.0150016 0.
0.628021 0.015001 0.
0.630022 0.0150017 0.
0.632024 0.0150025 0.
0.634025 0.0150028 0.
0.636026 0.0150024 0.
0.638028 0.0150019 0.
0.640029 0.0150019 0.
0.64203 0.0150023 0.
0.64403 0.0150028 0.
0.646031 0.0150028 0.
0.648033 0.0150028 0.
0.650034 0.0150027 0.
0.652035 0.0150035 0.
0.654036 0.0150042 0.
0.656037 0.0150046 0.
0.658038 0.0150041 0.
0.660039 0.0150037 0.
0.66204 0.0150035 0.
0.664041 0.0150035 0.
0.666043 0.0150035 0.
0.668044 0.0150031 0.
0.670045 0.0150026 0.
0.672046 0.0150021 0.
0.674047 0.0150025 0.
0.676048 0.0150029 0.
0.678048 0.0150033 0.
0.680049 0.0150035 0.
0.682051 0.0150037 0.
0.684052 0.0150039 0.
0.686053 0.0150043 0.
0.688054 0.0150046 0.
0.690055 0.0150047 0.
0.692056 0.0150045 0.
0.694057 0.0150043 0.
0.696058 0.0150043 0.
0.698059 0.0150043 0.
0.499942 0.0170081 0.
0.501943 0.0170078 0.
0.503944 0.0170077 0.
0.505944 0.0170076 0.
0.507945 0.0170076 0.
0.509946 0.0170076 0.
0.511948 0.0170072 0.
0.513949 0.0170065 0.
0.51595 0.0170057 0.
0.517951 0.0170049 0.
0.519952 0.0170041 0.
0.521953 0.0170032 0.
0.523954 0.0170033 0.
0.525955 0.0170035 0.
0.527955 0.0170037 0.
0.529957 0.0170038 0.
0.531958 0.017004 0.
0.533959 0.0170039 0.
0.53596 0.0170035 0.
0.537961 0.0170031 0.
0.539963 0.0170029 0.
0.541964 0.0170029 0.
0.543965 0.0170028 0.
0.545966 0.0170029 0.
0.547967 0.0170029 0.
0.549968 0.017003 0.
0.551969 0.0170028 0.
0.55397 0.0170027 0.
0.555971 0.0170025 0.
0.557972 0.0170024 0.
0.559974 0.0170024 0.
0.561975 0.0170023 0.
0.563976 0.0170021 0.
0.565977 0.017002 0.
0.567979 0.0170018 0.
0.56998 0.0170014 0.
0.571982 0.0170011 0.
0.573983 0.0170011 0.
0.575984 0.0170012 0.
0.577986 0.0170012 0.
0.579987 0.017001 0.
0.581989 0.0170008 0.
0.58399 0.0170007 0.
0.585992 0.0170008 0.
0.587993 0.0170009 0.
0.589994 0.0170011 0.
0.591996 0.0170013 0.
0.593997 0.0170016 0.
0.595999 0.0170013 0.
0.598 0.0170008 0.
0.600001 0.0170003 0.
0.602003 0.0170003 0.
0.604004 0.0170002 0.
0.606006 0.0170003 0.
0.608007 0.0170006 0.
0.610008 0.0170008 0.
0.61201 0.017001 0.
0.614011 0.017001 0.
0.616012 0.017001 0.
0.618013 0.0170013 0.
0.620015 0.0170018 0.
0.622016 0.0170022 0.
0.624018 0.017002 0.
0.626019 0.0170017 0.
0.628021 0.0170016 0.
0.630022 0.0170021 0.
0.632024 0.0170026 0.
0.634025 0.0170028 0.
0.636026 0.0170026 0.
0.638028 0.0170023 0.
0.640029 0.0170025 0.
0.64203 0.017003 0.
0.644031 0.0170036 0.
0.646032 0.0170037 0.
0.648032 0.0170038 0.
0.650033 0.0170038 0.
0.652035 0.0170041 0.
0.654036 0.0170043 0.
0.656037 0.0170044 0.
0.658038 0.0170039 0.
0.660039 0.0170035 0.
0.66204 0.0170033 0.
0.664041 0.0170034 0.
0.666043 0.0170035 0.
0.668044 0.0170035 0.
0.670045 0.0170034 0.
0.672046 0.0170034 0.
0.674047 0.0170034 0.
0.676047 0.0170034 0.
0.678048 0.0170035 0.
0.680049 0.0170038 0.
0.68205 0.017004 0.
0.684051 0.0170043 0.
0.686052 0.0170047 0.
0.688053 0.017005 0.
0.690054 0.0170052 0.
0.692055 0.0170052 0.
0.694057 0.0170052 0.
0.696058 0.0170052 0.
0.698058 0.0170052 0.
0.499943 0.0190089 0.
0.501944 0.0190087 0.
0.503944 0.0190087 0.
0.505945 0.0190087 0.
0.507946 0.0190085 0.
0.509947 0.0190084 0.
0.511949 0.0190079 0.
0.51395 0.019007 0.
0.515951 0.0190061 0.
0.517952 0.0190052 0.
0.519953 0.0190043 0.
0.521955 0.0190033 0.
0.523955 0.0190035 0.
0.525955 0.0190038 0.
0.527956 0.0190041 0.
0.529957 0.0190042 0.
0.531958 0.0190044 0.
0.53396 0.0190043 0.
0.535961 0.0190038 0.
0.537962 0.0190033 0.
0.539963 0.0190031 0.
0.541964 0.0190031 0.
0.543966 0.0190031 0.
0.545967 0.0190032 0.
0.547967 0.0190034 0.
0.549968 0.0190036 0.
0.551969 0.0190033 0.
0.55397 0.0190029 0.
0.555971 0.0190026 0.
0.557973 0.0190026 0.
0.559974 0.0190025 0.
0.561975 0.0190024 0.
0.563976 0.0190021 0.
0.565977 0.0190019 0.
0.567979 0.0190018 0.
0.56998 0.0190017 0.
0.571982 0.0190017 0.
0.573983 0.0190015 0.
0.575985 0.0190014 0.
0.577986 0.0190012 0.
0.579988 0.0190011 0.
0.581989 0.0190011 0.
0.58399 0.019001 0.
0.585991 0.0190009 0.
0.587992 0.0190007 0.
0.589994 0.0190009 0.
0.591995 0.0190013 0.
0.593997 0.0190017 0.
0.595998 0.0190013 0.
0.598 0.0190008 0.
0.600001 0.0190003 0.
0.602003 0.019 0.
0.604004 0.0189998 0.
0.606006 0.0189998 0.
0.608007 0.0190005 0.
0.610008 0.0190011 0.
0.612009 0.0190014 0.
0.614011 0.0190012 0.
0.616012 0.0190009 0.
0.618013 0.0190009 0.
0.620015 0.019001 0.
0.622016 0.0190012 0.
0.624018 0.0190015 0.
0.62602 0.0190019 0.
0.628021 0.0190022 0.
0.630023 0.0190024 0.
0.632024 0.0190026 0.
0.634025 0.0190028 0.
0.636026 0.0190028 0.
0.638027 0.0190027 0.
0.640029 0.0190031 0.
0.64203 0.0190037 0.
0.644031 0.0190044 0.
0.646032 0.0190046 0.
0.648032 0.0190047 0.
0.650033 0.0190049 0.
0.652034 0.0190047 0.
0.654035 0.0190045 0.
0.656036 0.0190043 0.
0.658038 0.0190037 0.
0.660039 0.0190032 0.
0.66204 0.019003 0.
0.664041 0.0190033 0.
0.666042 0.0190035 0.
0.668044 0.0190038 0.
0.670045 0.0190043 0.
0.672046 0.0190047 0.
0.674046 0.0190044 0.
0.676047 0.019004 0.
0.678048 0.0190036 0.
0.680049 0.019004 0.
0.68205 0.0190044 0.
0.684051 0.0190048 0.
0.686052 0.0190051 0.
0.688053 0.0190054 0.
0.690054 0.0190057 0.
0.692055 0.0190059 0.
0.694056 0.0190061 0.
0.696057 0.0190061 0.
0.698058 0.0190061 0.
0.499944 0.0210096 0.
0.501945 0.0210094 0.
0.503945 0.0210094 0.
0.505946 0.0210093 0.
0.507947 0.021009 0.
0.509948 0.0210087 0.
0.511949 0.0210081 0.
0.51395 0.0210071 0.
0.515952 0.0210062 0.
0.517953 0.0210053 0.
0.519954 0.0210044 0.
0.521955 0.0210036 0.
0.523956 0.0210037 0.
0.525956 0.0210041 0.
0.527956 0.0210044 0.
0.529958 0.0210044 0.
0.531959 0.0210044 0.
0.53396 0.0210042 0.
0.535961 0.0210039 0.
0.537962 0.0210035 0.
0.539963 0.0210032 0.
0.541965 0.0210031 0.
0.543966 0.021003 0.
0.545967 0.0210031 0.
0.547967 0.0210033 0.
0.549968 0.0210035 0.
0.551969 0.0210032 0.
0.55397 0.0210028 0.
0.555972 0.0210025 0.
0.557973 0.0210024 0.
0.559974 0.0210024 0.
0.561975 0.0210022 0.
0.563976 0.021002 0.
0.565977 0.0210017 0.
0.567979 0.0210017 0.
0.56998 0.0210017 0.
0.571982 0.0210017 0.
0.573983 0.0210015 0.
0.575985 0.0210011 0.
0.577986 0.0210008 0.
0.579987 0.0210008 0.
0.581989 0.0210008 0.
0.58399 0.0210007 0.
0.585991 0.0210005 0.
0.587992 0.0210003 0.
0.589993 0.0210004 0.
0.591995 0.0210009 0.
0.593997 0.0210013 0.
0.595998 0.021001 0.
0.597999 0.0210004 0.
0.600001 0.0209998 0.
0.602002 0.0209997 0.
0.604004 0.0209995 0.
0.606006 0.0209996 0.
0.608007 0.0210004 0.
0.610008 0.0210012 0.
0.612009 0.0210015 0.
0.61401 0.021001 0.
0.616012 0.0210006 0.
0.618013 0.0210005 0.
0.620015 0.0210005 0.
0.622016 0.0210005 0.
0.624018 0.021001 0.
0.626019 0.0210016 0.
0.628021 0.0210022 0.
0.630022 0.0210023 0.
0.632024 0.0210024 0.
0.634025 0.0210025 0.
0.636026 0.0210026 0.
0.638027 0.0210027 0.
0.640028 0.0210031 0.
0.64203 0.0210038 0.
0.644031 0.0210045 0.
0.646032 0.0210048 0.
0.648033 0.021005 0.
0.650033 0.0210052 0.
0.652034 0.0210048 0.
0.654035 0.0210044 0.
0.656037 0.021004 0.
0.658038 0.0210036 0.
0.660039 0.0210031 0.
0.66204 0.021003 0.
0.664041 0.0210032 0.
0.666042 0.0210034 0.
0.668043 0.021004 0.
0.670044 0.0210047 0.
0.672045 0.0210054 0.
0.674046 0.0210049 0.
0.676047 0.0210043 0.
0.678048 0.0210038 0.
0.680049 0.0210042 0.
0.68205 0.0210046 0.
0.68405 0.021005 0.
0.686051 0.0210054 0.
0.688052 0.0210058 0.
0.690053 0.0210061 0.
0.692054 0.0210063 0.
0.694055 0.0210065 0.
0.696056 0.0210067 0.
0.698058 0.021007 0.
0.499946 0.0230102 0.
0.501946 0.02301 0.
0.503946 0.0230098 0.
0.505947 0.0230096 0.
0.507948 0.0230091 0.
0.509949 0.0230085 0.
0.51195 0.0230078 0.
0.513951 0.0230069 0.
0.515952 0.0230059 0.
0.517953 0.0230052 0.
0.519954 0.0230045 0.
0.521955 0.0230039 0.
0.523956 0.023004 0.
0.525957 0.0230043 0.
0.527957 0.0230045 0.
0.529958 0.0230042 0.
0.531959 0.023004 0.
0.53396 0.0230038 0.
0.535961 0.0230036 0.
0.537963 0.0230035 0.
0.539964 0.0230032 0.
0.541965 0.0230029 0.
0.543966 0.0230025 0.
0.545967 0.0230025 0.
0.547967 0.0230026 0.
0.549968 0.0230027 0.
0.55197 0.0230025 0.
0.553971 0.0230023 0.
0.555973 0.0230021 0.
0.557974 0.023002 0.
0.559975 0.0230019 0.
0.561976 0.0230018 0.
0.563977 0.0230017 0.
0.565978 0.0230016 0.
0.567979 0.0230015 0.
0.56998 0.0230014 0.
0.571981 0.0230012 0.
0.573983 0.0230009 0.
0.575984 0.0230005 0.
0.577985 0.0230001 0.
0.579987 0.0230001 0.
0.581988 0.0230001 0.
0.58399 0.023 0.
0.585991 0.0229997 0.
0.587992 0.0229994 0.
0.589993 0.0229996 0.
0.591994 0.0230001 0.
0.593995 0.0230005 0.
0.595997 0.0230002 0.
0.597999 0.0229996 0.
0.6 0.0229989 0.
0.602002 0.0229991 0.
0.604004 0.0229993 0.
0.606005 0.0229996 0.
0.608006 0.0230004 0.
0.610007 0.0230011 0.
0.612008 0.0230013 0.
0.61401 0.0230006 0.
0.616011 0.023 0.
0.618013 0.0229999 0.
0.620014 0.023 0.
0.622016 0.0230001 0.
0.624017 0.0230005 0.
0.626019 0.023001 0.
0.62802 0.0230015 0.
0.630022 0.0230017 0.
0.632023 0.0230019 0.
0.634024 0.0230021 0.
0.636026 0.0230022 0.
0.638027 0.0230022 0.
0.640028 0.0230026 0.
0.642029 0.0230032 0.
0.64403 0.0230038 0.
0.646032 0.0230042 0.
0.648033 0.0230045 0.
0.650034 0.0230048 0.
0.652035 0.0230043 0.
0.654036 0.0230039 0.
0.656037 0.0230036 0.
0.658038 0.0230034 0.
0.660039 0.0230032 0.
0.662041 0.0230032 0.
0.664042 0.0230032 0.
0.666043 0.0230033 0.
0.668044 0.0230039 0.
0.670044 0.0230047 0.
0.672045 0.0230055 0.
0.674046 0.023005 0.
0.676046 0.0230044 0.
0.678047 0.0230039 0.
0.680048 0.0230043 0.
0.682049 0.0230047 0.
0.68405 0.0230052 0.
0.686051 0.0230057 0.
0.688052 0.0230062 0.
0.690053 0.0230064 0.
0.692054 0.0230063 0.
0.694055 0.0230062 0.
0.696055 0.0230069 0.
0.698056 0.0230078 0.
0.499947 0.0250108 0.
0.501947 0.0250105 0.
0.503947 0.0250102 0.
0.505947 0.0250099 0.
0.507948 0.0250091 0.
0.509949 0.0250084 0.
0.51195 0.0250076 0.
0.513951 0.0250066 0.
0.515953 0.0250057 0.
0.517954 0.0250051 0.
0.519955 0.0250046 0.
0.521956 0.0250042 0.
0.523957 0.0250043 0.
0.525958 0.0250045 0.
0.527959 0.0250047 0.
0.529959 0.0250041 0.
0.53196 0.0250036 0.
0.533961 0.0250033 0.
0.535962 0.0250033 0.
0.537963 0.0250034 0.
0.539964 0.0250032 0.
0.541965 0.0250026 0.
0.543965 0.025002 0.
0.545966 0.0250019 0.
0.547968 0.0250019 0.
0.549969 0.0250019 0.
0.55197 0.0250018 0.
0.553972 0.0250018 0.
0.555973 0.0250017 0.
0.557974 0.0250016 0.
0.559975 0.0250015 0.
0.561976 0.0250015 0.
0.563977 0.0250015 0.
0.565978 0.0250015 0.
0.567979 0.0250013 0.
0.56998 0.025001 0.
0.571981 0.0250007 0.
0.573982 0.0250003 0.
0.575984 0.0249999 0.
0.577985 0.0249994 0.
0.579986 0.0249994 0.
0.581988 0.0249993 0.
0.583989 0.0249992 0.
0.58599 0.0249989 0.
0.587991 0.0249986 0.
0.589992 0.0249988 0.
0.591993 0.0249993 0.
0.593994 0.0249998 0.
0.595996 0.0249994 0.
0.597998 0.0249987 0.
0.6 0.0249981 0.
0.602002 0.0249986 0.
0.604003 0.0249991 0.
0.606005 0.0249997 0.
0.608006 0.0250003 0.
0.610007 0.025001 0.
0.612008 0.025001 0.
0.614009 0.0250002 0.
0.616011 0.0249994 0.
0.618013 0.0249993 0.
0.620014 0.0249995 0.
0.622016 0.0249997 0.
0.624017 0.0250001 0.
0.626018 0.0250004 0.
0.62802 0.0250008 0.
0.630021 0.0250011 0.
0.632023 0.0250014 0.
0.634024 0.0250017 0.
0.636025 0.0250017 0.
0.638026 0.0250018 0.
0.640027 0.0250021 0.
0.642029 0.0250026 0.
0.64403 0.0250031 0.
0.646031 0.0250036 0.
0.648033 0.025004 0.
0.650034 0.0250043 0.
0.652035 0.0250039 0.
0.654036 0.0250035 0.
0.656038 0.0250031 0.
0.658039 0.0250032 0.
0.66004 0.0250033 0.
0.662041 0.0250033 0.
0.664042 0.0250033 0.
0.666043 0.0250032 0.
0.668044 0.0250038 0.
0.670044 0.0250047 0.
0.672045 0.0250056 0.
0.674045 0.0250052 0.
0.676046 0.0250046 0.
0.678047 0.0250041 0.
0.680048 0.0250045 0.
0.682049 0.0250048 0.
0.68405 0.0250053 0.
0.686051 0.025006 0.
0.688052 0.0250066 0.
0.690052 0.0250067 0.
0.692053 0.0250063 0.
0.694054 0.0250059 0.
0.696054 0.0250071 0.
0.698055 0.0250086 0.
0.499947 0.0270116 0.
0.501947 0.027011 0.
0.503948 0.0270105 0.
0.505948 0.0270099 0.
0.507949 0.0270092 0.
0.50995 0.0270086 0.
0.511951 0.0270078 0.
0.513952 0.0270069 0.
0.515953 0.027006 0.
0.517954 0.0270054 0.
0.519955 0.0270048 0.
0.521956 0.0270042 0.
0.523957 0.0270043 0.
0.525958 0.0270045 0.
0.527959 0.0270046 0.
0.52996 0.0270042 0.
0.53196 0.0270037 0.
0.533961 0.0270034 0.
0.535962 0.0270032 0.
0.537963 0.0270031 0.
0.539964 0.0270029 0.
0.541965 0.0270025 0.
0.543966 0.0270022 0.
0.545967 0.0270019 0.
0.547968 0.0270016 0.
0.549969 0.0270013 0.
0.55197 0.0270013 0.
0.553972 0.0270014 0.
0.555973 0.0270014 0.
0.557974 0.0270013 0.
0.559975 0.0270012 0.
0.561976 0.0270012 0.
0.563977 0.0270014 0.
0.565978 0.0270016 0.
0.567979 0.0270013 0.
0.56998 0.0270009 0.
0.571981 0.0270004 0.
0.573983 0.0269997 0.
0.575984 0.026999 0.
0.577985 0.0269984 0.
0.579986 0.0269982 0.
0.581988 0.0269979 0.
0.583989 0.0269978 0.
0.58599 0.0269977 0.
0.587991 0.0269976 0.
0.589992 0.0269977 0.
0.591993 0.026998 0.
0.593994 0.0269982 0.
0.595996 0.026998 0.
0.597998 0.0269975 0.
0.6 0.0269971 0.
0.602002 0.0269975 0.
0.604003 0.0269978 0.
0.606005 0.0269982 0.
0.608006 0.0269987 0.
0.610007 0.0269992 0.
0.612008 0.0269992 0.
0.61401 0.0269987 0.
0.616011 0.0269982 0.
0.618013 0.0269983 0.
0.620014 0.0269988 0.
0.622016 0.0269992 0.
0.624017 0.0269995 0.
0.626018 0.0269998 0.
0.628019 0.0270001 0.
0.630021 0.0270006 0.
0.632022 0.027001 0.
0.634024 0.0270013 0.
0.636025 0.0270014 0.
0.638026 0.0270014 0.
0.640027 0.0270017 0.
0.642028 0.0270022 0.
0.64403 0.0270027 0.
0.646031 0.0270032 0.
0.648032 0.0270037 0.
0.650033 0.0270041 0.
0.652035 0.0270035 0.
0.654036 0.0270028 0.
0.656037 0.0270024 0.
0.658038 0.0270028 0.
0.660039 0.0270032 0.
0.662041 0.0270034 0.
0.664042 0.0270033 0.
0.666043 0.0270032 0.
0.668043 0.0270037 0.
0.670044 0.0270045 0.
0.672045 0.0270053 0.
0.674045 0.0270051 0.
0.676046 0.0270048 0.
0.678046 0.0270045 0.
0.680047 0.0270048 0.
0.682048 0.027005 0.
0.684049 0.0270054 0.
0.68605 0.0270061 0.
0.688052 0.0270068 0.
0.690052 0.0270072 0.
0.692053 0.0270075 0.
0.694053 0.0270078 0.
0.696054 0.0270087 0.
0.698054 0.0270097 0.
0.499946 0.0290124 0.
0.501947 0.0290116 0.
0.503948 0.0290107 0.
0.505949 0.0290099 0.
0.50795 0.0290094 0.
0.509951 0.0290088 0.
0.511952 0.0290081 0.
0.513953 0.0290073 0.
0.515954 0.0290064 0.
0.517955 0.0290056 0.
0.519956 0.0290049 0.
0.521956 0.0290041 0.
0.523957 0.0290042 0.
0.525958 0.0290044 0.
0.527959 0.0290046 0.
0.52996 0.0290042 0.
0.531961 0.0290038 0.
0.533962 0.0290034 0.
0.535963 0.0290031 0.
0.537964 0.0290028 0.
0.539965 0.0290026 0.
0.541966 0.0290025 0.
0.543967 0.0290023 0.
0.545968 0.0290019 0.
0.547969 0.0290013 0.
0.549969 0.0290006 0.
0.55197 0.0290008 0.
0.553972 0.029001 0.
0.555973 0.0290012 0.
0.557974 0.029001 0.
0.559976 0.0290008 0.
0.561977 0.0290009 0.
0.563977 0.0290012 0.
0.565978 0.0290016 0.
0.567979 0.0290013 0.
0.56998 0.0290007 0.
0.571981 0.029 0.
0.573983 0.0289991 0.
0.575984 0.0289982 0.
0.577985 0.0289973 0.
0.579986 0.0289969 0.
0.581987 0.0289966 0.
0.583988 0.0289964 0.
0.58599 0.0289965 0.
0.587991 0.0289967 0.
0.589992 0.0289967 0.
0.591993 0.0289967 0.
0.593994 0.0289967 0.
0.595996 0.0289965 0.
0.597998 0.0289964 0.
0.6 0.0289962 0.
0.602002 0.0289964 0.
0.604003 0.0289965 0.
0.606005 0.0289968 0.
0.608006 0.028997 0.
0.610007 0.0289973 0.
0.612008 0.0289974 0.
0.61401 0.0289971 0.
0.616011 0.0289969 0.
0.618013 0.0289973 0.
0.620014 0.028998 0.
0.622016 0.0289987 0.
0.624017 0.028999 0.
0.626018 0.0289992 0.
0.628019 0.0289995 0.
0.630021 0.029 0.
0.632022 0.0290006 0.
0.634023 0.029001 0.
0.636024 0.029001 0.
0.638025 0.029001 0.
0.640026 0.0290013 0.
0.642027 0.0290017 0.
0.644029 0.0290022 0.
0.64603 0.0290027 0.
0.648032 0.0290033 0.
0.650033 0.0290039 0.
0.652034 0.0290031 0.
0.654035 0.0290022 0.
0.656036 0.0290017 0.
0.658038 0.0290024 0.
0.660039 0.0290031 0.
0.66204 0.0290034 0.
0.664041 0.0290033 0.
0.666043 0.0290032 0.
0.668043 0.0290036 0.
0.670044 0.0290042 0.
0.672045 0.0290049 0.
0.674045 0.029005 0.
0.676045 0.029005 0.
0.678046 0.029005 0.
0.680047 0.0290051 0.
0.682048 0.0290052 0.
0.684049 0.0290055 0.
0.68605 0.0290062 0.
0.688051 0.0290069 0.
0.690052 0.0290077 0.
0.692052 0.0290088 0.
0.694053 0.0290098 0.
0.696053 0.0290104 0.
0.698054 0.0290108 0.
0.499947 0.0310128 0.
0.501948 0.0310119 0.
0.503949 0.0310109 0.
0.50595 0.03101 0.
0.507951 0.0310095 0.
0.509952 0.0310089 0.
0.511953 0.0310083 0.
0.513954 0.0310075 0.
0.515955 0.0310067 0.
0.517956 0.0310059 0.
0.519956 0.0310051 0.
0.521957 0.0310042 0.
0.523957 0.0310043 0.
0.525958 0.0310045 0.
0.527959 0.0310046 0.
0.52996 0.0310042 0.
0.531962 0.0310037 0.
0.533963 0.0310033 0.
0.535963 0.0310029 0.
0.537964 0.0310024 0.
0.539965 0.0310023 0.
0.541966 0.0310023 0.
0.543967 0.0310024 0.
0.545968 0.0310019 0.
0.547969 0.0310012 0.
0.54997 0.0310005 0.
0.551971 0.0310005 0.
0.553972 0.0310006 0.
0.555973 0.0310006 0.
0.557974 0.0310005 0.
0.559976 0.0310004 0.
0.561977 0.0310005 0.
0.563978 0.0310009 0.
0.565978 0.0310013 0.
0.567979 0.0310009 0.
0.56998 0.0310002 0.
0.571982 0.0309994 0.
0.573983 0.0309985 0.
0.575984 0.0309976 0.
0.577985 0.0309967 0.
0.579986 0.0309963 0.
0.581987 0.0309958 0.
0.583988 0.0309955 0.
0.58599 0.0309957 0.
0.587991 0.0309959 0.
0.589992 0.0309959 0.
0.591993 0.0309957 0.
0.593994 0.0309956 0.
0.595996 0.0309954 0.
0.597998 0.0309952 0.
0.6 0.0309949 0.
0.602002 0.0309951 0.
0.604003 0.0309953 0.
0.606005 0.0309955 0.
0.608006 0.0309957 0.
0.610007 0.0309958 0.
0.612008 0.0309959 0.
0.61401 0.0309959 0.
0.616011 0.0309959 0.
0.618013 0.0309964 0.
0.620014 0.0309972 0.
0.622015 0.030998 0.
0.624017 0.0309983 0.
0.626018 0.0309985 0.
0.628019 0.0309988 0.
0.630021 0.0309994 0.
0.632022 0.0310001 0.
0.634023 0.0310005 0.
0.636024 0.0310006 0.
0.638025 0.0310006 0.
0.640026 0.0310008 0.
0.642027 0.0310011 0.
0.644028 0.0310014 0.
0.64603 0.031002 0.
0.648031 0.0310026 0.
0.650033 0.0310032 0.
0.652034 0.0310025 0.
0.654035 0.0310019 0.
0.656036 0.0310015 0.
0.658037 0.0310022 0.
0.660039 0.0310028 0.
0.66204 0.0310031 0.
0.664041 0.0310031 0.
0.666042 0.031003 0.
0.668043 0.0310034 0.
0.670044 0.031004 0.
0.672044 0.0310046 0.
0.674045 0.0310048 0.
0.676045 0.031005 0.
0.678046 0.0310052 0.
0.680047 0.0310053 0.
0.682048 0.0310054 0.
0.684049 0.0310058 0.
0.68605 0.0310065 0.
0.688051 0.0310073 0.
0.690052 0.0310084 0.
0.692052 0.0310098 0.
0.694052 0.0310112 0.
0.696053 0.0310116 0.
0.698053 0.0310118 0.
0.499948 0.033013 0.
0.501949 0.0330121 0.
0.50395 0.0330111 0.
0.505951 0.0330102 0.
0.507952 0.0330096 0.
0.509953 0.033009 0.
0.511954 0.0330084 0.
0.513954 0.0330077 0.
0.515955 0.033007 0.
0.517956 0.0330062 0.
0.519957 0.0330053 0.
0.521957 0.0330045 0.
0.523958 0.0330045 0.
0.525959 0.0330046 0.
0.52796 0.0330046 0.
0.529961 0.033004 0.
0.531962 0.0330035 0.
0.533963 0.0330029 0.
0.535963 0.0330025 0.
0.537964 0.033002 0.
0.539965 0.0330019 0.
0.541966 0.0330021 0.
0.543967 0.0330024 0.
0.545968 0.033002 0.
0.547969 0.0330014 0.
0.54997 0.0330008 0.
0.551971 0.0330004 0.
0.553972 0.033 0.
0.555973 0.0329997 0.
0.557975 0.0329998 0.
0.559976 0.0329999 0.
0.561977 0.0330001 0.
0.563977 0.0330002 0.
0.565978 0.0330004 0.
0.567979 0.033 0.
0.56998 0.0329993 0.
0.571982 0.0329986 0.
0.573983 0.0329979 0.
0.575984 0.0329973 0.
0.577986 0.0329966 0.
0.579987 0.0329961 0.
0.581988 0.0329956 0.
0.583989 0.0329953 0.
0.58599 0.0329953 0.
0.587991 0.0329952 0.
0.589992 0.0329952 0.
0.591993 0.0329951 0.
0.593994 0.0329951 0.
0.595996 0.0329946 0.
0.597998 0.0329939 0.
0.6 0.0329933 0.
0.602002 0.0329937 0.
0.604003 0.0329942 0.
0.606005 0.0329945 0.
0.608006 0.0329946 0.
0.610007 0.0329946 0.
0.612009 0.0329947 0.
0.61401 0.0329949 0.
0.616011 0.0329951 0.
0.618012 0.0329956 0.
0.620013 0.0329963 0.
0.622015 0.0329971 0.
0.624016 0.0329974 0.
0.626018 0.0329978 0.
0.628019 0.0329981 0.
0.630021 0.0329988 0.
0.632022 0.0329994 0.
0.634023 0.0329999 0.
0.636024 0.033 0.
0.638026 0.0330001 0.
0.640027 0.0330002 0.
0.642027 0.0330003 0.
0.644028 0.0330004 0.
0.64603 0.0330009 0.
0.648031 0.0330014 0.
0.650033 0.033002 0.
0.652034 0.0330019 0.
0.654035 0.0330018 0.
0.656036 0.0330018 0.
0.658037 0.0330021 0.
0.660038 0.0330024 0.
0.662039 0.0330025 0.
0.66404 0.0330025 0.
0.666041 0.0330025 0.
0.668042 0.033003 0.
0.670043 0.0330038 0.
0.672044 0.0330045 0.
0.674045 0.0330047 0.
0.676045 0.0330048 0.
0.678046 0.033005 0.
0.680047 0.0330053 0.
0.682048 0.0330056 0.
0.684049 0.0330061 0.
0.686049 0.033007 0.
0.68805 0.033008 0.
0.690051 0.0330092 0.
0.692051 0.0330106 0.
0.694052 0.033012 0.
0.696052 0.0330124 0.
0.698052 0.0330127 0.
0.499948 0.0350133 0.
0.50195 0.0350123 0.
0.503951 0.0350113 0.
0.505952 0.0350104 0.
0.507953 0.0350097 0.
0.509953 0.035009 0.
0.511954 0.0350084 0.
0.513955 0.0350078 0.
0.515956 0.0350072 0.
0.517957 0.0350064 0.
0.519957 0.0350056 0.
0.521957 0.0350048 0.
0.523958 0.0350047 0.
0.525959 0.0350046 0.
0.52796 0.0350046 0.
0.529961 0.0350039 0.
0.531962 0.0350032 0.
0.533963 0.0350026 0.
0.535963 0.035002 0.
0.537964 0.0350015 0.
0.539965 0.0350015 0.
0.541966 0.0350019 0.
0.543967 0.0350023 0.
0.545968 0.0350021 0.
0.54797 0.0350016 0.
0.549971 0.0350011 0.
0.551972 0.0350002 0.
0.553973 0.0349994 0.
0.555974 0.0349987 0.
0.557975 0.0349991 0.
0.559975 0.0349994 0.
0.561976 0.0349996 0.
0.563977 0.0349996 0.
0.565978 0.0349996 0.
0.567979 0.0349991 0.
0.569981 0.0349985 0.
0.571982 0.0349978 0.
0.573983 0.0349973 0.
0.575985 0.0349969 0.
0.577986 0.0349965 0.
0.579987 0.034996 0.
0.581988 0.0349955 0.
0.583989 0.034995 0.
0.585991 0.0349948 0.
0.587992 0.0349946 0.
0.589993 0.0349946 0.
0.591994 0.0349946 0.
0.593995 0.0349946 0.
0.595996 0.0349938 0.
0.597998 0.0349927 0.
0.6 0.0349917 0.
0.602001 0.0349924 0.
0.604003 0.0349931 0.
0.606005 0.0349936 0.
0.608006 0.0349935 0.
0.610008 0.0349934 0.
0.612009 0.0349935 0.
0.61401 0.0349939 0.
0.616011 0.0349943 0.
0.618012 0.0349948 0.
0.620013 0.0349955 0.
0.622014 0.0349962 0.
0.624016 0.0349966 0.
0.626018 0.034997 0.
0.62802 0.0349975 0.
0.630021 0.0349981 0.
0.632022 0.0349988 0.
0.634023 0.0349993 0.
0.636025 0.0349995 0.
0.638026 0.0349997 0.
0.640027 0.0349997 0.
0.642028 0.0349995 0.
0.644028 0.0349994 0.
0.64603 0.0349997 0.
0.648031 0.0350003 0.
0.650033 0.0350008 0.
0.652034 0.0350013 0.
0.654035 0.0350018 0.
0.656036 0.0350021 0.
0.658037 0.035002 0.
0.660038 0.0350019 0.
0.662039 0.0350019 0.
0.66404 0.035002 0.
0.66604 0.0350021 0.
0.668041 0.0350027 0.
0.670042 0.0350035 0.
0.672043 0.0350043 0.
0.674044 0.0350045 0.
0.676045 0.0350046 0.
0.678046 0.0350048 0.
0.680047 0.0350053 0.
0.682048 0.0350057 0.
0.684049 0.0350064 0.
0.686049 0.0350076 0.
0.688049 0.0350087 0.
0.69005 0.03501 0.
0.692051 0.0350114 0.
0.694051 0.0350128 0.
0.696052 0.0350133 0.
0.698051 0.0350135 0.
0.49995 0.0370134 0.
0.501951 0.0370126 0.
0.503952 0.0370118 0.
0.505953 0.037011 0.
0.507954 0.0370101 0.
0.509954 0.0370092 0.
0.511955 0.0370084 0.
0.513956 0.0370079 0.
0.515957 0.0370073 0.
0.517957 0.0370066 0.
0.519958 0.0370057 0.
0.521959 0.0370047 0.
0.523959 0.0370045 0.
0.52596 0.0370043 0.
0.527961 0.0370041 0.
0.529962 0.0370037 0.
0.531962 0.0370033 0.
0.533963 0.0370028 0.
0.535964 0.0370022 0.
0.537964 0.0370015 0.
0.539965 0.0370013 0.
0.541966 0.0370014 0.
0.543967 0.0370016 0.
0.545969 0.0370014 0.
0.54797 0.0370011 0.
0.549971 0.0370008 0.
0.551972 0.0370001 0.
0.553973 0.0369994 0.
0.555973 0.0369988 0.
0.557974 0.0369989 0.
0.559975 0.036999 0.
0.561976 0.0369989 0.
0.563977 0.0369987 0.
0.565978 0.0369985 0.
0.567979 0.036998 0.
0.569981 0.0369974 0.
0.571982 0.0369967 0.
0.573983 0.0369962 0.
0.575985 0.0369957 0.
0.577986 0.0369953 0.
0.579987 0.0369949 0.
0.581988 0.0369946 0.
0.583989 0.0369943 0.
0.585991 0.0369941 0.
0.587992 0.0369939 0.
0.589993 0.0369936 0.
0.591994 0.0369933 0.
0.593995 0.0369929 0.
0.595997 0.0369924 0.
0.597998 0.0369918 0.
0.6 0.0369911 0.
0.602002 0.0369917 0.
0.604004 0.0369923 0.
0.606005 0.0369927 0.
0.608007 0.0369926 0.
0.610008 0.0369926 0.
0.612009 0.0369926 0.
0.61401 0.0369928 0.
0.616011 0.036993 0.
0.618012 0.0369935 0.
0.620013 0.0369941 0.
0.622014 0.0369947 0.
0.624016 0.0369954 0.
0.626018 0.0369961 0.
0.628019 0.0369968 0.
0.630021 0.0369973 0.
0.632022 0.0369978 0.
0.634023 0.0369982 0.
0.636025 0.0369984 0.
0.638026 0.0369987 0.
0.640028 0.0369988 0.
0.642028 0.036999 0.
0.644029 0.0369991 0.
0.64603 0.0369996 0.
0.648032 0.0370001 0.
0.650033 0.0370006 0.
0.652034 0.037001 0.
0.654035 0.0370014 0.
0.656035 0.0370017 0.
0.658036 0.0370017 0.
0.660037 0.0370018 0.
0.662038 0.037002 0.
0.664039 0.0370022 0.
0.66604 0.0370024 0.
0.668041 0.0370028 0.
0.670042 0.0370032 0.
0.672043 0.0370036 0.
0.674044 0.0370039 0.
0.676044 0.0370042 0.
0.678045 0.0370046 0.
0.680046 0.0370053 0.
0.682047 0.0370059 0.
0.684048 0.0370068 0.
0.686048 0.0370079 0.
0.688049 0.037009 0.
0.69005 0.0370103 0.
0.69205 0.0370116 0.
0.694051 0.037013 0.
0.696051 0.0370136 0.
0.698051 0.037014 0.
0.499951 0.0390136 0.
0.501952 0.0390129 0.
0.503953 0.0390124 0.
0.505954 0.0390117 0.
0.507955 0.0390105 0.
0.509956 0.0390093 0.
0.511956 0.0390084 0.
0.513957 0.039008 0.
0.515958 0.0390075 0.
0.517958 0.0390067 0.
0.519959 0.0390057 0.
0.52196 0.0390047 0.
0.52396 0.0390043 0.
0.525961 0.039004 0.
0.527962 0.0390037 0.
0.529962 0.0390035 0.
0.531963 0.0390034 0.
0.533963 0.039003 0.
0.535964 0.0390023 0.
0.537965 0.0390015 0.
0.539965 0.0390011 0.
0.541967 0.039001 0.
0.543968 0.0390008 0.
0.545969 0.0390007 0.
0.54797 0.0390006 0.
0.549971 0.0390004 0.
0.551972 0.0389999 0.
0.553972 0.0389994 0.
0.555973 0.0389989 0.
0.557974 0.0389987 0.
0.559975 0.0389985 0.
0.561976 0.0389982 0.
0.563977 0.0389978 0.
0.565978 0.0389974 0.
0.567979 0.0389969 0.
0.569981 0.0389963 0.
0.571982 0.0389956 0.
0.573983 0.038995 0.
0.575985 0.0389945 0.
0.577986 0.038994 0.
0.579987 0.0389938 0.
0.581988 0.0389937 0.
0.583989 0.0389935 0.
0.585991 0.0389933 0.
0.587992 0.0389931 0.
0.589993 0.0389927 0.
0.591995 0.038992 0.
0.593996 0.0389913 0.
0.595997 0.038991 0.
0.597999 0.0389908 0.
0.6 0.0389906 0.
0.602002 0.038991 0.
0.604004 0.0389915 0.
0.606006 0.0389918 0.
0.608007 0.0389918 0.
0.610008 0.0389917 0.
0.612009 0.0389917 0.
0.61401 0.0389918 0.
0.616011 0.0389918 0.
0.618012 0.0389922 0.
0.620014 0.0389927 0.
0.622015 0.0389931 0.
0.624016 0.0389941 0.
0.626018 0.0389951 0.
0.628019 0.0389961 0.
0.63002 0.0389964 0.
0.632022 0.0389968 0.
0.634023 0.0389972 0.
0.636025 0.0389974 0.
0.638026 0.0389976 0.
0.640028 0.0389979 0.
0.642029 0.0389984 0.
0.64403 0.0389989 0.
0.646031 0.0389994 0.
0.648032 0.0389999 0.
0.650033 0.0390004 0.
0.652033 0.0390007 0.
0.654034 0.0390009 0.
0.656035 0.0390012 0.
0.658036 0.0390015 0.
0.660037 0.0390018 0.
0.662038 0.0390021 0.
0.664039 0.0390024 0.
0.66604 0.0390028 0.
0.668041 0.0390029 0.
0.670041 0.0390028 0.
0.672042 0.0390028 0.
0.674043 0.0390033 0.
0.676043 0.0390038 0.
0.678044 0.0390044 0.
0.680045 0.0390053 0.
0.682045 0.0390061 0.
0.684046 0.0390071 0.
0.686047 0.0390082 0.
0.688049 0.0390093 0.
0.690049 0.0390106 0.
0.69205 0.0390119 0.
0.69405 0.0390132 0.
0.696051 0.0390139 0.
0.698051 0.0390145 0.
0.499953 0.0410138 0.
0.501954 0.0410132 0.
0.503955 0.0410128 0.
0.505956 0.0410121 0.
0.507956 0.0410108 0.
0.509957 0.0410095 0.
0.511957 0.0410085 0.
0.513958 0.041008 0.
0.515958 0.0410076 0.
0.517959 0.0410068 0.
0.51996 0.0410059 0.
0.521961 0.0410049 0.
0.523961 0.0410044 0.
0.525962 0.0410039 0.
0.527963 0.0410035 0.
0.529963 0.0410033 0.
0.531964 0.0410031 0.
0.533964 0.0410028 0.
0.535965 0.0410021 0.
0.537965 0.0410015 0.
0.539966 0.041001 0.
0.541967 0.0410008 0.
0.543968 0.0410005 0.
0.545969 0.0410003 0.
0.54797 0.0410003 0.
0.549971 0.0410002 0.
0.551972 0.0409998 0.
0.553973 0.0409995 0.
0.555974 0.040999 0.
0.557974 0.0409985 0.
0.559975 0.0409979 0.
0.561976 0.0409974 0.
0.563977 0.0409969 0.
0.565978 0.0409964 0.
0.56798 0.040996 0.
0.569981 0.0409955 0.
0.571982 0.040995 0.
0.573984 0.0409943 0.
0.575985 0.0409936 0.
0.577986 0.0409929 0.
0.579987 0.0409929 0.
0.581988 0.0409928 0.
0.58399 0.0409927 0.
0.585991 0.0409925 0.
0.587992 0.0409923 0.
0.589994 0.0409917 0.
0.591995 0.040991 0.
0.593997 0.0409902 0.
0.595998 0.0409901 0.
0.597999 0.0409901 0.
0.600001 0.0409902 0.
0.602003 0.0409905 0.
0.604004 0.0409908 0.
0.606006 0.040991 0.
0.608007 0.040991 0.
0.610008 0.040991 0.
0.612009 0.040991 0.
0.61401 0.040991 0.
0.616011 0.040991 0.
0.618013 0.0409914 0.
0.620014 0.0409918 0.
0.622015 0.0409923 0.
0.624016 0.0409933 0.
0.626018 0.0409944 0.
0.628019 0.0409953 0.
0.63002 0.0409956 0.
0.632022 0.0409959 0.
0.634023 0.0409961 0.
0.636025 0.0409962 0.
0.638026 0.0409963 0.
0.640028 0.0409969 0.
0.642029 0.0409978 0.
0.64403 0.0409987 0.
0.646031 0.0409992 0.
0.648032 0.0409997 0.
0.650033 0.0410002 0.
0.652033 0.0410004 0.
0.654034 0.0410006 0.
0.656035 0.0410009 0.
0.658036 0.0410012 0.
0.660036 0.0410015 0.
0.662037 0.0410019 0.
0.664038 0.0410022 0.
0.666039 0.0410026 0.
0.66804 0.0410026 0.
0.670041 0.0410025 0.
0.672041 0.0410024 0.
0.674042 0.041003 0.
0.676043 0.0410037 0.
0.678043 0.0410045 0.
0.680044 0.0410055 0.
0.682044 0.0410066 0.
0.684045 0.0410077 0.
0.686046 0.0410087 0.
0.688048 0.0410097 0.
0.690048 0.0410109 0.
0.692049 0.0410122 0.
0.694049 0.0410134 0.
0.69605 0.0410143 0.
0.698051 0.041015 0.
0.499955 0.0430141 0.
0.501956 0.0430135 0.
0.503956 0.0430131 0.
0.505957 0.0430124 0.
0.507958 0.0430111 0.
0.509958 0.0430097 0.
0.511958 0.0430087 0.
0.513959 0.0430081 0.
0.515959 0.0430076 0.
0.51796 0.0430069 0.
0.519961 0.0430061 0.
0.521961 0.0430053 0.
0.523962 0.0430047 0.
0.525963 0.0430041 0.
0.527964 0.0430035 0.
0.529964 0.0430031 0.
0.531965 0.0430026 0.
0.533965 0.0430022 0.
0.535966 0.0430018 0.
0.537966 0.0430014 0.
0.539967 0.043001 0.
0.541968 0.0430007 0.
0.543969 0.0430004 0.
0.54597 0.0430003 0.
0.547971 0.0430002 0.
0.549971 0.0430001 0.
0.551973 0.0429999 0.
0.553974 0.0429996 0.
0.555975 0.0429992 0.
0.557976 0.0429983 0.
0.559976 0.0429973 0.
0.561977 0.0429966 0.
0.563978 0.042996 0.
0.565979 0.0429955 0.
0.56798 0.0429952 0.
0.569982 0.042995 0.
0.571983 0.0429948 0.
0.573984 0.0429939 0.
0.575986 0.0429929 0.
0.577987 0.042992 0.
0.579988 0.042992 0.
0.581989 0.0429921 0.
0.58399 0.0429919 0.
0.585991 0.0429916 0.
0.587992 0.0429913 0.
0.589994 0.0429908 0.
0.591995 0.0429903 0.
0.593997 0.0429898 0.
0.595998 0.0429897 0.
0.597999 0.0429898 0.
0.600001 0.0429899 0.
0.602003 0.0429901 0.
0.604004 0.0429902 0.
0.606006 0.0429903 0.
0.608007 0.0429903 0.
0.610009 0.0429904 0.
0.61201 0.0429904 0.
0.614011 0.0429905 0.
0.616012 0.0429907 0.
0.618013 0.0429911 0.
0.620014 0.0429916 0.
0.622015 0.0429922 0.
0.624016 0.042993 0.
0.626018 0.0429939 0.
0.628019 0.0429946 0.
0.630021 0.0429948 0.
0.632022 0.042995 0.
0.634023 0.0429951 0.
0.636025 0.042995 0.
0.638026 0.0429948 0.
0.640027 0.0429956 0.
0.642028 0.0429971 0.
0.644029 0.0429985 0.
0.64603 0.0429991 0.
0.648031 0.0429995 0.
0.650032 0.0429998 0.
0.652033 0.0430001 0.
0.654034 0.0430004 0.
0.656035 0.0430007 0.
0.658036 0.0430009 0.
0.660036 0.0430011 0.
0.662037 0.0430013 0.
0.664038 0.0430015 0.
0.666039 0.0430018 0.
0.66804 0.043002 0.
0.67004 0.0430021 0.
0.672041 0.0430023 0.
0.674041 0.0430031 0.
0.676042 0.0430039 0.
0.678043 0.0430048 0.
0.680043 0.0430061 0.
0.682044 0.0430074 0.
0.684044 0.0430085 0.
0.686045 0.0430093 0.
0.688046 0.0430102 0.
0.690047 0.0430112 0.
0.692047 0.0430125 0.
0.694048 0.0430137 0.
0.696048 0.0430147 0.
0.698049 0.0430156 0.
0.499957 0.0450144 0.
0.501957 0.0450138 0.
0.503958 0.0450134 0.
0.505959 0.0450127 0.
0.507959 0.0450113 0.
0.509959 0.04501 0.
0.51196 0.0450089 0.
0.51396 0.0450082 0.
0.51596 0.0450075 0.
0.517961 0.0450069 0.
0.519961 0.0450064 0.
0.521962 0.0450058 0.
0.523963 0.0450051 0.
0.525964 0.0450043 0.
0.527965 0.0450035 0.
0.529965 0.0450028 0.
0.531966 0.0450021 0.
0.533966 0.0450015 0.
0.535967 0.0450014 0.
0.537967 0.0450013 0.
0.539968 0.045001 0.
0.541969 0.0450007 0.
0.54397 0.0450004 0.
0.54597 0.0450002 0.
0.547971 0.0450001 0.
0.549971 0.045 0.
0.551973 0.0449999 0.
0.553975 0.0449998 0.
0.555977 0.0449994 0.
0.557977 0.044998 0.
0.559977 0.0449967 0.
0.561978 0.0449957 0.
0.563979 0.0449951 0.
0.56598 0.0449946 0.
0.567981 0.0449944 0.
0.569982 0.0449945 0.
0.571984 0.0449946 0.
0.573985 0.0449935 0.
0.575987 0.0449923 0.
0.577988 0.0449912 0.
0.579989 0.0449912 0.
0.581989 0.0449913 0.
0.58399 0.0449912 0.
0.585991 0.0449907 0.
0.587993 0.0449903 0.
0.589994 0.0449899 0.
0.591996 0.0449896 0.
0.593997 0.0449893 0.
0.595999 0.0449894 0.
0.598 0.0449895 0.
0.600001 0.0449897 0.
0.602003 0.0449896 0.
0.604004 0.0449896 0.
0.606006 0.0449896 0.
0.608008 0.0449896 0.
0.610009 0.0449897 0.
0.61201 0.0449898 0.
0.614011 0.0449901 0.
0.616012 0.0449903 0.
0.618013 0.0449908 0.
0.620014 0.0449914 0.
0.622015 0.0449921 0.
0.624016 0.0449927 0.
0.626018 0.0449934 0.
0.628019 0.0449939 0.
0.630021 0.044994 0.
0.632022 0.0449941 0.
0.634023 0.044994 0.
0.636025 0.0449937 0.
0.638026 0.0449934 0.
0.640027 0.0449944 0.
0.642027 0.0449964 0.
0.644028 0.0449984 0.
0.646029 0.044999 0.
0.648031 0.0449992 0.
0.650032 0.0449994 0.
0.652033 0.0449998 0.
0.654034 0.0450001 0.
0.656035 0.0450004 0.
0.658036 0.0450005 0.
0.660036 0.0450006 0.
0.662037 0.0450007 0.
0.664038 0.0450009 0.
0.666039 0.045001 0.
0.668039 0.0450013 0.
0.67004 0.0450018 0.
0.67204 0.0450022 0.
0.674041 0.0450031 0.
0.676041 0.0450041 0.
0.678042 0.0450052 0.
0.680042 0.0450067 0.
0.682043 0.0450082 0.
0.684043 0.0450094 0.
0.686044 0.04501 0.
0.688044 0.0450106 0.
0.690045 0.0450116 0.
0.692046 0.0450128 0.
0.694046 0.045014 0.
0.696047 0.0450151 0.
0.698047 0.0450161 0.
0.499957 0.0470144 0.
0.501958 0.0470141 0.
0.503959 0.0470136 0.
0.505959 0.047013 0.
0.50796 0.0470115 0.
0.50996 0.04701 0.
0.51196 0.0470089 0.
0.513961 0.0470082 0.
0.515961 0.0470075 0.
0.517962 0.0470068 0.
0.519963 0.047006 0.
0.521963 0.0470052 0.
0.523964 0.0470046 0.
0.525964 0.047004 0.
0.527965 0.0470034 0.
0.529966 0.0470029 0.
0.531966 0.0470024 0.
0.533967 0.0470019 0.
0.535968 0.0470017 0.
0.537968 0.0470014 0.
0.539969 0.0470011 0.
0.54197 0.0470007 0.
0.543971 0.0470002 0.
0.545971 0.047 0.
0.547971 0.0469998 0.
0.549972 0.0469996 0.
0.551973 0.0469992 0.
0.553975 0.0469988 0.
0.555977 0.0469983 0.
0.557977 0.0469974 0.
0.559977 0.0469965 0.
0.561978 0.0469957 0.
0.563979 0.0469949 0.
0.56598 0.0469941 0.
0.567981 0.0469938 0.
0.569982 0.0469938 0.
0.571984 0.0469938 0.
0.573985 0.0469928 0.
0.575987 0.0469917 0.
0.577988 0.0469906 0.
0.579989 0.0469903 0.
0.58199 0.0469901 0.
0.583991 0.0469898 0.
0.585992 0.0469895 0.
0.587993 0.0469892 0.
0.589994 0.0469888 0.
0.591996 0.0469885 0.
0.593997 0.0469882 0.
0.595998 0.0469882 0.
0.598 0.0469883 0.
0.600001 0.0469885 0.
0.602003 0.0469884 0.
0.604005 0.0469882 0.
0.606007 0.0469882 0.
0.608008 0.0469883 0.
0.610009 0.0469885 0.
0.61201 0.0469887 0.
0.614011 0.046989 0.
0.616012 0.0469892 0.
0.618013 0.0469896 0.
0.620014 0.0469902 0.
0.622015 0.0469907 0.
0.624017 0.0469916 0.
0.626018 0.0469925 0.
0.62802 0.0469933 0.
0.630021 0.0469934 0.
0.632022 0.0469935 0.
0.634023 0.0469936 0.
0.636024 0.0469934 0.
0.638025 0.0469932 0.
0.640026 0.0469941 0.
0.642027 0.0469959 0.
0.644028 0.0469976 0.
0.646029 0.0469982 0.
0.64803 0.0469985 0.
0.650032 0.0469988 0.
0.652033 0.0469992 0.
0.654033 0.0469995 0.
0.656034 0.0469999 0.
0.658035 0.0470003 0.
0.660035 0.0470007 0.
0.662036 0.047001 0.
0.664037 0.0470012 0.
0.666038 0.0470014 0.
0.668038 0.0470018 0.
0.670039 0.0470023 0.
0.672039 0.0470027 0.
0.67404 0.0470034 0.
0.67604 0.0470042 0.
0.678041 0.047005 0.
0.680041 0.0470066 0.
0.682042 0.0470082 0.
0.684042 0.0470095 0.
0.686043 0.0470103 0.
0.688043 0.0470111 0.
0.690044 0.0470121 0.
0.692044 0.0470131 0.
0.694044 0.0470142 0.
0.696045 0.0470155 0.
0.698046 0.0470168 0.
0.499958 0.0490145 0.
0.501959 0.0490143 0.
0.50396 0.0490139 0.
0.50596 0.0490132 0.
0.507961 0.0490117 0.
0.509961 0.0490101 0.
0.511961 0.0490089 0.
0.513962 0.0490082 0.
0.515962 0.0490075 0.
0.517963 0.0490066 0.
0.519964 0.0490056 0.
0.521964 0.0490046 0.
0.523965 0.0490041 0.
0.525965 0.0490036 0.
0.527965 0.0490032 0.
0.529966 0.0490029 0.
0.531967 0.0490026 0.
0.533968 0.0490023 0.
0.535969 0.049002 0.
0.537969 0.0490016 0.
0.53997 0.0490011 0.
0.541971 0.0490006 0.
0.543971 0.0490001 0.
0.545972 0.0489997 0.
0.547972 0.0489995 0.
0.549972 0.0489992 0.
0.551974 0.0489985 0.
0.553975 0.0489979 0.
0.555977 0.0489973 0.
0.557977 0.0489968 0.
0.559978 0.0489964 0.
0.561978 0.0489957 0.
0.563979 0.0489947 0.
0.56598 0.0489937 0.
0.567981 0.0489933 0.
0.569983 0.0489932 0.
0.571984 0.048993 0.
0.573986 0.0489921 0.
0.575987 0.0489911 0.
0.577989 0.0489901 0.
0.57999 0.0489895 0.
0.58199 0.0489889 0.
0.583991 0.0489884 0.
0.585992 0.0489882 0.
0.587993 0.048988 0.
0.589994 0.0489877 0.
0.591996 0.0489873 0.
0.593997 0.0489869 0.
0.595998 0.048987 0.
0.598 0.0489871 0.
0.600001 0.0489873 0.
0.602003 0.0489871 0.
0.604005 0.0489869 0.
0.606007 0.0489867 0.
0.608008 0.048987 0.
0.610009 0.0489873 0.
0.61201 0.0489876 0.
0.61401 0.0489878 0.
0.616011 0.048988 0.
0.618013 0.0489884 0.
0.620014 0.0489889 0.
0.622015 0.0489894 0.
0.624017 0.0489905 0.
0.626018 0.0489916 0.
0.62802 0.0489927 0.
0.630021 0.0489928 0.
0.632022 0.048993 0.
0.634023 0.0489931 0.
0.636024 0.0489931 0.
0.638024 0.0489931 0.
0.640025 0.0489939 0.
0.642026 0.0489953 0.
0.644027 0.0489967 0.
0.646029 0.0489974 0.
0.64803 0.0489978 0.
0.650031 0.0489982 0.
0.652032 0.0489986 0.
0.654033 0.048999 0.
0.656033 0.0489994 0.
0.658034 0.049 0.
0.660035 0.0490007 0.
0.662035 0.0490012 0.
0.664036 0.0490015 0.
0.666037 0.0490019 0.
0.668038 0.0490023 0.
0.670038 0.0490028 0.
0.672038 0.0490032 0.
0.674039 0.0490037 0.
0.676039 0.0490042 0.
0.678039 0.0490049 0.
0.68004 0.0490065 0.
0.68204 0.0490082 0.
0.684041 0.0490096 0.
0.686042 0.0490106 0.
0.688042 0.0490117 0.
0.690043 0.0490126 0.
0.692043 0.0490135 0.
0.694043 0.0490144 0.
0.696043 0.0490159 0.
0.698044 0.0490174 0.
0.499959 0.0510153 0.
0.50196 0.0510148 0.
0.503961 0.0510144 0.
0.505961 0.0510137 0.
0.507961 0.0510121 0.
0.509962 0.0510105 0.
0.511962 0.0510092 0.
0.513963 0.0510083 0.
0.515963 0.0510074 0.
0.517964 0.0510065 0.
0.519964 0.0510055 0.
0.521965 0.0510045 0.
0.523965 0.051004 0.
0.525966 0.0510036 0.
0.527966 0.0510033 0.
0.529967 0.051003 0.
0.531967 0.0510028 0.
0.533968 0.0510024 0.
0.535969 0.051002 0.
0.53797 0.0510015 0.
0.53997 0.051001 0.
0.541971 0.0510006 0.
0.543972 0.0510001 0.
0.545972 0.0509997 0.
0.547972 0.0509993 0.
0.549973 0.0509988 0.
0.551974 0.050998 0.
0.553976 0.0509971 0.
0.555977 0.0509964 0.
0.557977 0.0509962 0.
0.559978 0.050996 0.
0.561978 0.0509954 0.
0.563979 0.0509943 0.
0.56598 0.0509932 0.
0.567982 0.0509926 0.
0.569983 0.0509924 0.
0.571984 0.0509921 0.
0.573986 0.0509913 0.
0.575987 0.0509903 0.
0.577989 0.0509894 0.
0.57999 0.0509887 0.
0.581991 0.050988 0.
0.583992 0.0509874 0.
0.585993 0.0509873 0.
0.587993 0.0509871 0.
0.589994 0.0509868 0.
0.591996 0.0509863 0.
0.593997 0.0509858 0.
0.595998 0.0509858 0.
0.598 0.0509859 0.
0.600001 0.050986 0.
0.602003 0.0509859 0.
0.604005 0.0509858 0.
0.606007 0.0509858 0.
0.608008 0.0509861 0.
0.610008 0.0509864 0.
0.612009 0.0509866 0.
0.61401 0.0509868 0.
0.616011 0.050987 0.
0.618012 0.0509874 0.
0.620014 0.0509879 0.
0.622015 0.0509884 0.
0.624017 0.0509895 0.
0.626018 0.0509907 0.
0.62802 0.0509917 0.
0.630021 0.050992 0.
0.632021 0.0509922 0.
0.634022 0.0509924 0.
0.636023 0.0509926 0.
0.638024 0.0509928 0.
0.640025 0.0509936 0.
0.642026 0.0509948 0.
0.644027 0.050996 0.
0.646028 0.0509967 0.
0.648029 0.0509971 0.
0.65003 0.0509976 0.
0.652031 0.0509981 0.
0.654032 0.0509986 0.
0.656032 0.0509991 0.
0.658033 0.0509998 0.
0.660034 0.0510004 0.
0.662035 0.051001 0.
0.664035 0.0510014 0.
0.666036 0.0510019 0.
0.668037 0.0510024 0.
0.670037 0.0510029 0.
0.672037 0.0510034 0.
0.674038 0.0510039 0.
0.676038 0.0510044 0.
0.678038 0.0510051 0.
0.680038 0.0510067 0.
0.682039 0.0510084 0.
0.68404 0.0510099 0.
0.68604 0.051011 0.
0.688041 0.0510121 0.
0.690041 0.0510131 0.
0.692041 0.0510138 0.
0.694042 0.0510146 0.
0.696042 0.0510163 0.
0.698042 0.0510181 0.
0.499961 0.0530165 0.
0.501961 0.0530157 0.
0.503962 0.0530151 0.
0.505962 0.0530143 0.
0.507963 0.0530127 0.
0.509963 0.0530111 0.
0.511963 0.0530097 0.
0.513964 0.0530084 0.
0.515964 0.0530072 0.
0.517964 0.0530063 0.
0.519965 0.0530055 0.
0.521965 0.0530047 0.
0.523966 0.0530043 0.
0.525966 0.053004 0.
0.527967 0.0530036 0.
0.529967 0.0530031 0.
0.531968 0.0530027 0.
0.533968 0.0530022 0.
0.535969 0.0530017 0.
0.537969 0.0530011 0.
0.53997 0.0530007 0.
0.541971 0.0530005 0.
0.543972 0.0530003 0.
0.545972 0.0529998 0.
0.547973 0.0529992 0.
0.549973 0.0529986 0.
0.551974 0.0529976 0.
0.553976 0.0529967 0.
0.555977 0.0529959 0.
0.557978 0.0529957 0.
0.559978 0.0529956 0.
0.561979 0.052995 0.
0.56398 0.0529938 0.
0.565981 0.0529926 0.
0.567982 0.0529919 0.
0.569983 0.0529915 0.
0.571984 0.0529911 0.
0.573986 0.0529903 0.
0.575987 0.0529895 0.
0.577989 0.0529888 0.
0.57999 0.0529881 0.
0.581991 0.0529875 0.
0.583992 0.0529869 0.
0.585993 0.0529867 0.
0.587994 0.0529864 0.
0.589995 0.0529859 0.
0.591996 0.0529854 0.
0.593997 0.0529848 0.
0.595998 0.0529847 0.
0.598 0.0529847 0.
0.600001 0.0529846 0.
0.602003 0.0529849 0.
0.604005 0.0529851 0.
0.606006 0.0529853 0.
0.608007 0.0529855 0.
0.610008 0.0529857 0.
0.612009 0.0529858 0.
0.61401 0.0529859 0.
0.616011 0.0529861 0.
0.618012 0.0529865 0.
0.620014 0.0529872 0.
0.622015 0.0529878 0.
0.624016 0.0529887 0.
0.626018 0.0529896 0.
0.628019 0.0529905 0.
0.63002 0.0529908 0.
0.632021 0.0529911 0.
0.634022 0.0529915 0.
0.636023 0.0529919 0.
0.638024 0.0529923 0.
0.640025 0.0529931 0.
0.642025 0.0529943 0.
0.644026 0.0529954 0.
0.646027 0.0529961 0.
0.648029 0.0529966 0.
0.65003 0.0529971 0.
0.65203 0.0529978 0.
0.654031 0.0529985 0.
0.656032 0.0529991 0.
0.658032 0.0529995 0.
0.660033 0.053 0.
0.662034 0.0530005 0.
0.664035 0.053001 0.
0.666035 0.0530015 0.
0.668036 0.0530021 0.
0.670036 0.0530027 0.
0.672036 0.0530032 0.
0.674036 0.053004 0.
0.676036 0.0530047 0.
0.678037 0.0530056 0.
0.680037 0.0530072 0.
0.682037 0.0530088 0.
0.684038 0.0530102 0.
0.686038 0.0530114 0.
0.688039 0.0530126 0.
0.69004 0.0530134 0.
0.69204 0.0530141 0.
0.694041 0.0530148 0.
0.696041 0.0530167 0.
0.698041 0.0530189 0.
0.499962 0.0550177 0.
0.501962 0.0550166 0.
0.503963 0.0550158 0.
0.505963 0.0550149 0.
0.507964 0.0550133 0.
0.509964 0.0550117 0.
0.511964 0.0550101 0.
0.513965 0.0550085 0.
0.515965 0.0550069 0.
0.517965 0.055006 0.
0.519965 0.0550055 0.
0.521966 0.055005 0.
0.523966 0.0550046 0.
0.525967 0.0550043 0.
0.527967 0.0550039 0.
0.529968 0.0550033 0.
0.531968 0.0550026 0.
0.533968 0.055002 0.
0.535969 0.0550014 0.
0.537969 0.0550007 0.
0.53997 0.0550004 0.
0.541971 0.0550004 0.
0.543972 0.0550004 0.
0.545972 0.0549998 0.
0.547973 0.0549991 0.
0.549973 0.0549984 0.
0.551975 0.0549973 0.
0.553976 0.0549962 0.
0.555977 0.0549953 0.
0.557978 0.0549952 0.
0.559978 0.0549951 0.
0.561979 0.0549945 0.
0.563981 0.0549933 0.
0.565982 0.054992 0.
0.567983 0.0549912 0.
0.569983 0.0549906 0.
0.571984 0.05499 0.
0.573986 0.0549894 0.
0.575987 0.0549887 0.
0.577988 0.0549881 0.
0.57999 0.0549875 0.
0.581991 0.054987 0.
0.583992 0.0549864 0.
0.585993 0.0549861 0.
0.587994 0.0549857 0.
0.589995 0.0549851 0.
0.591996 0.0549845 0.
0.593997 0.0549838 0.
0.595998 0.0549835 0.
0.598 0.0549834 0.
0.600002 0.0549833 0.
0.602003 0.0549838 0.
0.604004 0.0549843 0.
0.606006 0.0549848 0.
0.608007 0.0549849 0.
0.610008 0.054985 0.
0.612009 0.054985 0.
0.61401 0.0549851 0.
0.616011 0.0549851 0.
0.618013 0.0549857 0.
0.620014 0.0549864 0.
0.622015 0.0549872 0.
0.624016 0.0549879 0.
0.626017 0.0549885 0.
0.628019 0.0549892 0.
0.63002 0.0549896 0.
0.63202 0.0549901 0.
0.634021 0.0549906 0.
0.636023 0.0549912 0.
0.638024 0.0549919 0.
0.640024 0.0549927 0.
0.642025 0.0549937 0.
0.644025 0.0549947 0.
0.646026 0.0549954 0.
0.648028 0.054996 0.
0.650029 0.0549967 0.
0.65203 0.0549975 0.
0.65403 0.0549984 0.
0.656031 0.0549991 0.
0.658032 0.0549993 0.
0.660032 0.0549995 0.
0.662033 0.0549999 0.
0.664034 0.0550005 0.
0.666035 0.0550012 0.
0.668035 0.0550018 0.
0.670035 0.0550024 0.
0.672035 0.0550031 0.
0.674035 0.055004 0.
0.676035 0.0550051 0.
0.678035 0.0550061 0.
0.680035 0.0550076 0.
0.682035 0.0550091 0.
0.684036 0.0550105 0.
0.686036 0.0550118 0.
0.688037 0.055013 0.
0.690038 0.0550138 0.
0.692039 0.0550144 0.
0.694039 0.055015 0.
0.69604 0.0550171 0.
0.698039 0.0550196 0.
0.499964 0.0570175 0.
0.501964 0.0570166 0.
0.503964 0.0570158 0.
0.505965 0.0570148 0.
0.507965 0.0570132 0.
0.509965 0.0570115 0.
0.511966 0.0570099 0.
0.513966 0.0570086 0.
0.515966 0.0570073 0.
0.517966 0.0570064 0.
0.519967 0.0570058 0.
0.521967 0.0570052 0.
0.523967 0.0570048 0.
0.525968 0.0570043 0.
0.527968 0.0570039 0.
0.529968 0.057003 0.
0.531969 0.0570021 0.
0.533969 0.0570014 0.
0.535969 0.057001 0.
0.53797 0.0570005 0.
0.539971 0.0570002 0.
0.541972 0.057 0.
0.543973 0.0569998 0.
0.545974 0.0569993 0.
0.547974 0.0569986 0.
0.549974 0.0569979 0.
0.551975 0.0569968 0.
0.553976 0.0569957 0.
0.555977 0.0569948 0.
0.557978 0.0569946 0.
0.559978 0.0569943 0.
0.561979 0.0569936 0.
0.563981 0.0569923 0.
0.565982 0.056991 0.
0.567983 0.0569902 0.
0.569984 0.0569897 0.
0.571985 0.0569891 0.
0.573986 0.0569884 0.
0.575988 0.0569877 0.
0.577989 0.056987 0.
0.57999 0.0569865 0.
0.581991 0.056986 0.
0.583992 0.0569855 0.
0.585993 0.0569851 0.
0.587994 0.0569846 0.
0.589995 0.056984 0.
0.591996 0.0569833 0.
0.593997 0.0569827 0.
0.595999 0.0569827 0.
0.598 0.0569829 0.
0.600001 0.0569832 0.
0.602003 0.0569833 0.
0.604004 0.0569834 0.
0.606005 0.0569835 0.
0.608007 0.0569836 0.
0.610008 0.0569838 0.
0.612009 0.056984 0.
0.61401 0.0569845 0.
0.616011 0.0569849 0.
0.618012 0.0569853 0.
0.620013 0.0569856 0.
0.622014 0.0569859 0.
0.624016 0.0569868 0.
0.626017 0.0569877 0.
0.628019 0.0569886 0.
0.63002 0.0569891 0.
0.632021 0.0569895 0.
0.634022 0.05699 0.
0.636022 0.0569907 0.
0.638023 0.0569914 0.
0.640024 0.0569921 0.
0.642025 0.056993 0.
0.644025 0.0569939 0.
0.646026 0.0569947 0.
0.648027 0.0569954 0.
0.650028 0.0569961 0.
0.652029 0.0569968 0.
0.65403 0.0569976 0.
0.65603 0.0569983 0.
0.658031 0.0569987 0.
0.660031 0.0569991 0.
0.662032 0.0569997 0.
0.664033 0.0570005 0.
0.666034 0.0570013 0.
0.668034 0.0570021 0.
0.670034 0.0570028 0.
0.672035 0.0570035 0.
0.674035 0.0570043 0.
0.676035 0.0570052 0.
0.678035 0.0570062 0.
0.680035 0.0570076 0.
0.682035 0.057009 0.
0.684035 0.0570104 0.
0.686035 0.0570117 0.
0.688036 0.057013 0.
0.690036 0.057014 0.
0.692037 0.0570148 0.
0.694038 0.0570156 0.
0.696038 0.0570176 0.
0.698038 0.0570198 0.
0.499966 0.0590175 0.
0.501966 0.0590166 0.
0.503966 0.0590158 0.
0.505966 0.0590148 0.
0.507966 0.059013 0.
0.509967 0.0590112 0.
0.511967 0.0590097 0.
0.513967 0.0590086 0.
0.515968 0.0590076 0.
0.517968 0.0590067 0.
0.519968 0.0590061 0.
0.521968 0.0590054 0.
0.523968 0.0590049 0.
0.525968 0.0590044 0.
0.527968 0.0590039 0.
0.529969 0.0590027 0.
0.531969 0.0590016 0.
0.53397 0.0590008 0.
0.53597 0.0590006 0.
0.537971 0.0590004 0.
0.539971 0.059 0.
0.541973 0.0589996 0.
0.543974 0.0589992 0.
0.545975 0.0589987 0.
0.547975 0.0589981 0.
0.549975 0.0589975 0.
0.551976 0.0589964 0.
0.553976 0.0589952 0.
0.555977 0.0589943 0.
0.557977 0.0589939 0.
0.559978 0.0589935 0.
0.561979 0.0589927 0.
0.563981 0.0589914 0.
0.565982 0.05899 0.
0.567984 0.0589892 0.
0.569985 0.0589887 0.
0.571986 0.0589882 0.
0.573987 0.0589875 0.
0.575988 0.0589867 0.
0.577989 0.058986 0.
0.57999 0.0589855 0.
0.581991 0.058985 0.
0.583993 0.0589845 0.
0.585993 0.058984 0.
0.587994 0.0589836 0.
0.589995 0.0589829 0.
0.591997 0.0589822 0.
0.593998 0.0589815 0.
0.595999 0.0589818 0.
0.598 0.0589824 0.
0.600001 0.0589831 0.
0.602002 0.0589827 0.
0.604004 0.0589824 0.
0.606005 0.0589821 0.
0.608006 0.0589823 0.
0.610008 0.0589826 0.
0.612009 0.058983 0.
0.61401 0.0589839 0.
0.616011 0.0589847 0.
0.618012 0.0589849 0.
0.620013 0.0589848 0.
0.622014 0.0589847 0.
0.624016 0.0589857 0.
0.626017 0.0589869 0.
0.628018 0.058988 0.
0.630019 0.0589885 0.
0.632021 0.0589889 0.
0.634022 0.0589895 0.
0.636022 0.0589902 0.
0.638023 0.0589909 0.
0.640024 0.0589916 0.
0.642024 0.0589923 0.
0.644025 0.0589931 0.
0.646026 0.0589939 0.
0.648026 0.0589947 0.
0.650027 0.0589955 0.
0.652028 0.0589962 0.
0.654029 0.0589968 0.
0.65603 0.0589975 0.
0.65803 0.0589981 0.
0.660031 0.0589987 0.
0.662031 0.0589995 0.
0.664032 0.0590005 0.
0.666033 0.0590015 0.
0.668033 0.0590023 0.
0.670034 0.0590031 0.
0.672034 0.0590039 0.
0.674034 0.0590046 0.
0.676034 0.0590054 0.
0.678035 0.0590062 0.
0.680034 0.0590076 0.
0.682034 0.059009 0.
0.684034 0.0590103 0.
0.686034 0.0590117 0.
0.688035 0.059013 0.
0.690035 0.0590142 0.
0.692035 0.0590152 0.
0.694036 0.0590163 0.
0.696036 0.059018 0.
0.698037 0.0590199 0.
0.499967 0.0610178 0.
0.501967 0.0610169 0.
0.503967 0.061016 0.
0.505967 0.061015 0.
0.507968 0.0610132 0.
0.509968 0.0610115 0.
0.511968 0.06101 0.
0.513968 0.061009 0.
0.515969 0.0610079 0.
0.517969 0.0610071 0.
0.519969 0.0610064 0.
0.521969 0.0610057 0.
0.523969 0.0610051 0.
0.525969 0.0610045 0.
0.52797 0.0610038 0.
0.52997 0.0610027 0.
0.53197 0.0610015 0.
0.533971 0.0610007 0.
0.535971 0.0610003 0.
0.537971 0.0609999 0.
0.539972 0.0609995 0.
0.541974 0.0609991 0.
0.543975 0.0609987 0.
0.545975 0.0609982 0.
0.547976 0.0609977 0.
0.549976 0.0609971 0.
0.551977 0.0609961 0.
0.553977 0.060995 0.
0.555977 0.0609941 0.
0.557978 0.0609934 0.
0.559979 0.0609928 0.
0.56198 0.0609918 0.
0.563981 0.0609904 0.
0.565983 0.0609891 0.
0.567984 0.0609883 0.
0.569985 0.0609878 0.
0.571987 0.0609873 0.
0.573988 0.0609865 0.
0.575989 0.0609857 0.
0.577989 0.060985 0.
0.579991 0.0609845 0.
0.581992 0.0609841 0.
0.583993 0.0609836 0.
0.585994 0.0609831 0.
0.587995 0.0609825 0.
0.589996 0.060982 0.
0.591997 0.0609815 0.
0.593998 0.060981 0.
0.595999 0.0609814 0.
0.598 0.060982 0.
0.600001 0.0609827 0.
0.602002 0.0609821 0.
0.604003 0.0609816 0.
0.606005 0.0609812 0.
0.608006 0.0609813 0.
0.610007 0.0609814 0.
0.612008 0.060982 0.
0.614009 0.060983 0.
0.61601 0.0609841 0.
0.618012 0.0609842 0.
0.620013 0.060984 0.
0.622014 0.0609837 0.
0.624015 0.0609848 0.
0.626016 0.060986 0.
0.628018 0.060987 0.
0.630019 0.0609876 0.
0.63202 0.0609881 0.
0.634021 0.0609887 0.
0.636022 0.0609895 0.
0.638023 0.0609902 0.
0.640023 0.060991 0.
0.642024 0.0609917 0.
0.644025 0.0609924 0.
0.646025 0.0609933 0.
0.648026 0.0609942 0.
0.650026 0.0609951 0.
0.652027 0.0609956 0.
0.654028 0.0609962 0.
0.656029 0.0609969 0.
0.658029 0.0609976 0.
0.66003 0.0609984 0.
0.66203 0.0609994 0.
0.664031 0.0610005 0.
0.666032 0.0610016 0.
0.668032 0.0610025 0.
0.670033 0.0610032 0.
0.672033 0.0610039 0.
0.674033 0.0610048 0.
0.676033 0.0610056 0.
0.678033 0.0610066 0.
0.680033 0.0610079 0.
0.682033 0.0610093 0.
0.684033 0.0610107 0.
0.686033 0.0610119 0.
0.688033 0.0610132 0.
0.690034 0.0610144 0.
0.692034 0.0610155 0.
0.694034 0.0610167 0.
0.696035 0.0610183 0.
0.698035 0.0610201 0.
0.499969 0.0630183 0.
0.501969 0.0630173 0.
0.503969 0.0630165 0.
0.505969 0.0630155 0.
0.507969 0.0630139 0.
0.509969 0.0630123 0.
0.511969 0.0630109 0.
0.51397 0.0630096 0.
0.51597 0.0630084 0.
0.51797 0.0630075 0.
0.51997 0.0630069 0.
0.52197 0.0630063 0.
0.52397 0.0630055 0.
0.525971 0.0630046 0.
0.527971 0.0630037 0.
0.529972 0.0630028 0.
0.531972 0.0630019 0.
0.533972 0.063001 0.
0.535972 0.0630001 0.
0.537972 0.0629992 0.
0.539973 0.0629987 0.
0.541974 0.0629985 0.
0.543975 0.0629984 0.
0.545976 0.0629979 0.
0.547976 0.0629974 0.
0.549977 0.0629968 0.
0.551978 0.062996 0.
0.553978 0.0629951 0.
0.555979 0.0629942 0.
0.55798 0.0629932 0.
0.55998 0.0629921 0.
0.561981 0.0629909 0.
0.563982 0.0629895 0.
0.565984 0.0629881 0.
0.567985 0.0629873 0.
0.569986 0.0629868 0.
0.571987 0.0629863 0.
0.573988 0.0629856 0.
0.575989 0.0629848 0.
0.57799 0.0629841 0.
0.579991 0.0629837 0.
0.581992 0.0629832 0.
0.583993 0.0629827 0.
0.585994 0.0629821 0.
0.587995 0.0629814 0.
0.589996 0.0629812 0.
0.591997 0.0629812 0.
0.593998 0.0629812 0.
0.595999 0.0629815 0.
0.598 0.0629817 0.
0.600001 0.062982 0.
0.602002 0.0629815 0.
0.604003 0.0629811 0.
0.606004 0.0629807 0.
0.608005 0.0629806 0.
0.610006 0.0629805 0.
0.612007 0.0629808 0.
0.614009 0.0629818 0.
0.61601 0.0629828 0.
0.618011 0.0629832 0.
0.620012 0.0629832 0.
0.622013 0.0629832 0.
0.624014 0.062984 0.
0.626016 0.0629848 0.
0.628017 0.0629856 0.
0.630018 0.0629863 0.
0.632019 0.062987 0.
0.634021 0.0629878 0.
0.636021 0.0629886 0.
0.638022 0.0629895 0.
0.640023 0.0629903 0.
0.642023 0.0629912 0.
0.644024 0.062992 0.
0.646024 0.0629929 0.
0.648025 0.0629939 0.
0.650025 0.0629948 0.
0.652026 0.0629953 0.
0.654027 0.0629958 0.
0.656027 0.0629964 0.
0.658028 0.0629974 0.
0.660029 0.0629983 0.
0.662029 0.0629994 0.
0.664029 0.0630005 0.
0.66603 0.0630017 0.
0.66803 0.0630025 0.
0.670031 0.0630031 0.
0.672031 0.0630036 0.
0.674031 0.0630048 0.
0.676032 0.063006 0.
0.678031 0.0630073 0.
0.680031 0.0630087 0.
0.682031 0.0630101 0.
0.684031 0.0630114 0.
0.686032 0.0630125 0.
0.688032 0.0630136 0.
0.690032 0.0630147 0.
0.692033 0.0630157 0.
0.694033 0.0630168 0.
0.696033 0.0630185 0.
0.698034 0.0630203 0.
0.49997 0.0650186 0.
0.50197 0.0650177 0.
0.50397 0.0650169 0.
0.50597 0.065016 0.
0.50797 0.0650146 0.
0.50997 0.0650132 0.
0.51197 0.0650117 0.
0.513971 0.0650102 0.
0.515971 0.0650088 0.
0.517971 0.0650079 0.
0.519971 0.0650074 0.
0.521971 0.0650069 0.
0.523972 0.0650058 0.
0.525972 0.0650047 0.
0.527973 0.0650036 0.
0.529973 0.0650029 0.
0.531973 0.0650023 0.
0.533973 0.0650014 0.
0.535973 0.065 0.
0.537973 0.0649985 0.
0.539974 0.0649979 0.
0.541975 0.0649979 0.
0.543976 0.064998 0.
0.545976 0.0649976 0.
0.547977 0.064997 0.
0.549978 0.0649965 0.
0.551979 0.0649959 0.
0.553979 0.0649952 0.
0.55598 0.0649944 0.
0.557981 0.0649929 0.
0.559982 0.0649914 0.
0.561983 0.06499 0.
0.563984 0.0649886 0.
0.565984 0.0649871 0.
0.567985 0.0649863 0.
0.569987 0.0649858 0.
0.571988 0.0649853 0.
0.573989 0.0649846 0.
0.575989 0.0649839 0.
0.57799 0.0649833 0.
0.579991 0.0649828 0.
0.581992 0.0649824 0.
0.583993 0.0649818 0.
0.585994 0.0649811 0.
0.587995 0.0649804 0.
0.589996 0.0649804 0.
0.591997 0.0649809 0.
0.593998 0.0649815 0.
0.595999 0.0649815 0.
0.598 0.0649814 0.
0.600001 0.0649813 0.
0.602002 0.064981 0.
0.604003 0.0649806 0.
0.606003 0.0649802 0.
0.608004 0.0649798 0.
0.610005 0.0649795 0.
0.612006 0.0649797 0.
0.614008 0.0649807 0.
0.616009 0.0649816 0.
0.61801 0.0649821 0.
0.620011 0.0649824 0.
0.622012 0.0649827 0.
0.624013 0.0649831 0.
0.626015 0.0649836 0.
0.628016 0.0649841 0.
0.630017 0.064985 0.
0.632019 0.064986 0.
0.63402 0.0649869 0.
0.63602 0.0649878 0.
0.638021 0.0649887 0.
0.640022 0.0649896 0.
0.642023 0.0649906 0.
0.644023 0.0649916 0.
0.646024 0.0649926 0.
0.648024 0.0649935 0.
0.650024 0.0649945 0.
0.652025 0.0649949 0.
0.654026 0.0649954 0.
0.656026 0.064996 0.
0.658027 0.0649971 0.
0.660027 0.0649982 0.
0.662028 0.0649994 0.
0.664028 0.0650006 0.
0.666028 0.0650018 0.
0.668029 0.0650024 0.
0.670029 0.0650029 0.
0.67203 0.0650034 0.
0.67403 0.0650048 0.
0.67603 0.0650064 0.
0.67803 0.065008 0.
0.68003 0.0650094 0.
0.68203 0.0650109 0.
0.68403 0.0650122 0.
0.68603 0.0650131 0.
0.688031 0.065014 0.
0.690031 0.0650149 0.
0.692032 0.0650159 0.
0.694032 0.0650169 0.
0.696032 0.0650186 0.
0.698032 0.0650204 0.
0.499972 0.0670189 0.
0.501972 0.0670181 0.
0.503971 0.0670173 0.
0.505971 0.0670164 0.
0.507971 0.067015 0.
0.509971 0.0670136 0.
0.511971 0.0670122 0.
0.513971 0.0670107 0.
0.515972 0.0670092 0.
0.517972 0.0670082 0.
0.519972 0.0670075 0.
0.521972 0.0670067 0.
0.523973 0.0670058 0.
0.525973 0.0670049 0.
0.527974 0.067004 0.
0.529974 0.067003 0.
0.531974 0.067002 0.
0.533974 0.0670009 0.
0.535974 0.0669996 0.
0.537974 0.0669983 0.
0.539975 0.0669977 0.
0.541975 0.0669976 0.
0.543976 0.0669975 0.
0.545977 0.066997 0.
0.547977 0.0669965 0.
0.549978 0.066996 0.
0.551979 0.066995 0.
0.553979 0.066994 0.
0.55598 0.0669929 0.
0.557981 0.0669916 0.
0.559982 0.0669902 0.
0.561983 0.0669889 0.
0.563984 0.0669878 0.
0.565985 0.0669867 0.
0.567986 0.0669859 0.
0.569987 0.0669853 0.
0.571988 0.0669846 0.
0.573989 0.0669838 0.
0.57599 0.066983 0.
0.577991 0.0669822 0.
0.579991 0.0669818 0.
0.581992 0.0669813 0.
0.583993 0.0669808 0.
0.585994 0.0669801 0.
0.587995 0.0669794 0.
0.589996 0.0669792 0.
0.591997 0.0669794 0.
0.593998 0.0669796 0.
0.595999 0.0669798 0.
0.598 0.0669799 0.
0.600001 0.06698 0.
0.602002 0.0669799 0.
0.604003 0.0669797 0.
0.606004 0.0669795 0.
0.608005 0.0669793 0.
0.610006 0.0669791 0.
0.612007 0.0669793 0.
0.614008 0.0669801 0.
0.616009 0.066981 0.
0.61801 0.0669814 0.
0.620011 0.0669816 0.
0.622012 0.0669819 0.
0.624013 0.0669823 0.
0.626014 0.0669827 0.
0.628015 0.0669832 0.
0.630017 0.0669842 0.
0.632018 0.0669851 0.
0.634019 0.0669861 0.
0.63602 0.0669869 0.
0.638021 0.0669878 0.
0.640021 0.0669888 0.
0.642022 0.0669899 0.
0.644023 0.0669909 0.
0.646023 0.0669921 0.
0.648023 0.0669933 0.
0.650024 0.0669946 0.
0.652024 0.0669949 0.
0.654025 0.0669952 0.
0.656025 0.0669957 0.
0.658026 0.0669967 0.
0.660026 0.0669978 0.
0.662027 0.066999 0.
0.664027 0.0670003 0.
0.666028 0.0670016 0.
0.668028 0.0670024 0.
0.670029 0.067003 0.
0.672029 0.0670037 0.
0.674029 0.0670049 0.
0.676029 0.0670063 0.
0.678029 0.0670076 0.
0.680029 0.0670091 0.
0.682029 0.0670105 0.
0.684029 0.0670119 0.
0.686029 0.067013 0.
0.688029 0.0670142 0.
0.69003 0.0670152 0.
0.69203 0.0670162 0.
0.69403 0.0670171 0.
0.69603 0.0670188 0.
0.698031 0.0670207 0.
0.499973 0.0690191 0.
0.501973 0.0690184 0.
0.503973 0.0690177 0.
0.505972 0.0690169 0.
0.507972 0.0690155 0.
0.509972 0.0690141 0.
0.511972 0.0690126 0.
0.513972 0.0690112 0.
0.515973 0.0690097 0.
0.517973 0.0690085 0.
0.519973 0.0690075 0.
0.521973 0.0690065 0.
0.523974 0.0690058 0.
0.525974 0.0690052 0.
0.527974 0.0690045 0.
0.529974 0.0690031 0.
0.531975 0.0690017 0.
0.533975 0.0690004 0.
0.535975 0.0689992 0.
0.537976 0.0689981 0.
0.539976 0.0689975 0.
0.541976 0.0689972 0.
0.543977 0.0689969 0.
0.545977 0.0689965 0.
0.547978 0.0689959 0.
0.549978 0.0689954 0.
0.551979 0.0689941 0.
0.553979 0.0689928 0.
0.55598 0.0689915 0.
0.557981 0.0689902 0.
0.559982 0.0689889 0.
0.561983 0.0689879 0.
0.563984 0.0689871 0.
0.565985 0.0689863 0.
0.567986 0.0689855 0.
0.569987 0.0689847 0.
0.571988 0.068984 0.
0.573989 0.068983 0.
0.57599 0.068982 0.
0.577991 0.0689811 0.
0.579992 0.0689807 0.
0.581993 0.0689803 0.
0.583994 0.0689798 0.
0.585994 0.0689791 0.
0.587995 0.0689784 0.
0.589996 0.068978 0.
0.591997 0.0689779 0.
0.593999 0.0689778 0.
0.596 0.068978 0.
0.598001 0.0689783 0.
0.600002 0.0689787 0.
0.602003 0.0689788 0.
0.604004 0.0689788 0.
0.606005 0.0689789 0.
0.608006 0.0689788 0.
0.610006 0.0689787 0.
0.612007 0.0689789 0.
0.614008 0.0689796 0.
0.616009 0.0689803 0.
0.61801 0.0689806 0.
0.620011 0.0689808 0.
0.622012 0.068981 0.
0.624013 0.0689814 0.
0.626014 0.0689819 0.
0.628015 0.0689823 0.
0.630016 0.0689833 0.
0.632017 0.0689843 0.
0.634018 0.0689852 0.
0.636019 0.0689861 0.
0.63802 0.068987 0.
0.640021 0.068988 0.
0.642021 0.0689891 0.
0.644022 0.0689902 0.
0.646022 0.0689916 0.
0.648023 0.0689931 0.
0.650023 0.0689946 0.
0.652023 0.0689948 0.
0.654024 0.068995 0.
0.656024 0.0689954 0.
0.658024 0.0689964 0.
0.660025 0.0689974 0.
0.662025 0.0689986 0.
0.664026 0.069 0.
0.666027 0.0690014 0.
0.668028 0.0690024 0.
0.670028 0.0690032 0.
0.672029 0.069004 0.
0.674028 0.069005 0.
0.676028 0.0690061 0.
0.678028 0.0690073 0.
0.680028 0.0690087 0.
0.682028 0.0690102 0.
0.684028 0.0690116 0.
0.686028 0.069013 0.
0.688028 0.0690144 0.
0.690028 0.0690155 0.
0.692028 0.0690164 0.
0.694029 0.0690173 0.
0.696029 0.069019 0.
0.698029 0.069021 0.
0.499974 0.0710196 0.
0.501974 0.0710189 0.
0.503974 0.0710181 0.
0.505973 0.0710171 0.
0.507973 0.0710158 0.
0.509973 0.0710145 0.
0.511973 0.0710131 0.
0.513973 0.0710116 0.
0.515974 0.0710102 0.
0.517974 0.0710089 0.
0.519974 0.0710078 0.
0.521975 0.0710067 0.
0.523975 0.071006 0.
0.525975 0.0710052 0.
0.527975 0.0710044 0.
0.529975 0.0710031 0.
0.531975 0.0710017 0.
0.533976 0.0710004 0.
0.535976 0.0709992 0.
0.537977 0.0709981 0.
0.539977 0.0709973 0.
0.541977 0.070997 0.
0.543977 0.0709966 0.
0.545977 0.070996 0.
0.547978 0.0709954 0.
0.549979 0.0709948 0.
0.551979 0.0709934 0.
0.55398 0.070992 0.
0.55598 0.0709906 0.
0.557981 0.0709893 0.
0.559982 0.070988 0.
0.561983 0.070987 0.
0.563984 0.0709864 0.
0.565985 0.0709858 0.
0.567986 0.0709851 0.
0.569987 0.0709843 0.
0.571988 0.0709834 0.
0.573989 0.0709824 0.
0.575991 0.0709814 0.
0.577992 0.0709805 0.
0.579992 0.0709801 0.
0.581993 0.0709797 0.
0.583994 0.0709792 0.
0.585995 0.0709784 0.
0.587995 0.0709777 0.
0.589996 0.0709772 0.
0.591998 0.0709769 0.
0.593999 0.0709766 0.
0.596 0.0709768 0.
0.598001 0.0709772 0.
0.600002 0.0709776 0.
0.602003 0.0709778 0.
0.604004 0.0709781 0.
0.606005 0.0709782 0.
0.608006 0.0709782 0.
0.610007 0.0709781 0.
0.612007 0.0709783 0.
0.614008 0.070979 0.
0.616009 0.0709797 0.
0.61801 0.0709801 0.
0.620011 0.0709804 0.
0.622012 0.0709807 0.
0.624012 0.0709811 0.
0.626013 0.0709815 0.
0.628014 0.0709819 0.
0.630015 0.0709828 0.
0.632016 0.0709837 0.
0.634017 0.0709846 0.
0.636018 0.0709855 0.
0.638019 0.0709863 0.
0.64002 0.0709874 0.
0.64202 0.0709886 0.
0.644021 0.0709898 0.
0.646021 0.0709913 0.
0.648022 0.0709929 0.
0.650022 0.0709944 0.
0.652022 0.0709947 0.
0.654023 0.0709949 0.
0.656023 0.0709953 0.
0.658023 0.0709962 0.
0.660024 0.0709971 0.
0.662024 0.0709982 0.
0.664025 0.0709997 0.
0.666026 0.0710011 0.
0.668027 0.0710022 0.
0.670027 0.0710033 0.
0.672027 0.0710043 0.
0.674027 0.0710053 0.
0.676027 0.0710063 0.
0.678027 0.0710073 0.
0.680027 0.0710087 0.
0.682027 0.0710102 0.
0.684027 0.0710116 0.
0.686027 0.0710131 0.
0.688027 0.0710147 0.
0.690027 0.0710158 0.
0.692027 0.0710167 0.
0.694027 0.0710175 0.
0.696027 0.0710192 0.
0.698028 0.071021 0.
0.499975 0.0730208 0.
0.501975 0.0730195 0.
0.503975 0.0730184 0.
0.505975 0.0730172 0.
0.507975 0.073016 0.
0.509975 0.0730148 0.
0.511975 0.0730136 0.
0.513975 0.0730121 0.
0.515975 0.0730107 0.
0.517975 0.0730095 0.
0.519975 0.0730085 0.
0.521975 0.0730074 0.
0.523976 0.0730063 0.
0.525976 0.0730051 0.
0.527976 0.0730039 0.
0.529976 0.073003 0.
0.531977 0.0730021 0.
0.533977 0.073001 0.
0.535977 0.0729996 0.
0.537977 0.0729982 0.
0.539978 0.0729973 0.
0.541978 0.0729969 0.
0.543978 0.0729964 0.
0.545978 0.0729957 0.
0.547979 0.072995 0.
0.54998 0.0729943 0.
0.55198 0.072993 0.
0.553981 0.0729918 0.
0.555982 0.0729904 0.
0.557983 0.0729889 0.
0.559984 0.0729874 0.
0.561985 0.0729863 0.
0.563985 0.0729859 0.
0.565986 0.0729854 0.
0.567986 0.0729847 0.
0.569988 0.0729838 0.
0.571989 0.072983 0.
0.57399 0.0729821 0.
0.575991 0.0729812 0.
0.577992 0.0729804 0.
0.579993 0.07298 0.
0.581993 0.0729796 0.
0.583994 0.072979 0.
0.585995 0.0729782 0.
0.587996 0.0729773 0.
0.589997 0.0729768 0.
0.591998 0.0729765 0.
0.593999 0.0729762 0.
0.596 0.0729763 0.
0.598 0.0729765 0.
0.600001 0.0729768 0.
0.602002 0.0729771 0.
0.604003 0.0729775 0.
0.606004 0.0729777 0.
0.608005 0.0729774 0.
0.610006 0.0729772 0.
0.612007 0.0729774 0.
0.614007 0.0729783 0.
0.616008 0.0729792 0.
0.618009 0.0729798 0.
0.62001 0.0729804 0.
0.622011 0.072981 0.
0.624012 0.0729813 0.
0.626012 0.0729816 0.
0.628013 0.072982 0.
0.630015 0.0729826 0.
0.632016 0.0729833 0.
0.634017 0.0729841 0.
0.636017 0.072985 0.
0.638018 0.072986 0.
0.640018 0.0729871 0.
0.642019 0.0729884 0.
0.644019 0.0729898 0.
0.64602 0.0729911 0.
0.64802 0.0729925 0.
0.650021 0.0729939 0.
0.652021 0.0729944 0.
0.654022 0.0729949 0.
0.656022 0.0729955 0.
0.658022 0.0729962 0.
0.660023 0.072997 0.
0.662023 0.072998 0.
0.664024 0.0729994 0.
0.666025 0.0730007 0.
0.668025 0.073002 0.
0.670025 0.0730034 0.
0.672025 0.0730047 0.
0.674025 0.0730057 0.
0.676025 0.0730067 0.
0.678025 0.0730077 0.
0.680025 0.0730091 0.
0.682025 0.0730104 0.
0.684025 0.0730119 0.
0.686025 0.0730135 0.
0.688026 0.0730151 0.
0.690026 0.0730162 0.
0.692026 0.0730171 0.
0.694026 0.0730179 0.
0.696026 0.0730192 0.
0.698027 0.0730207 0.
0.499975 0.0750218 0.
0.501975 0.0750202 0.
0.503976 0.0750187 0.
0.505976 0.0750172 0.
0.507976 0.0750162 0.
0.509976 0.0750152 0.
0.511976 0.075014 0.
0.513976 0.0750126 0.
0.515976 0.0750112 0.
0.517976 0.07501 0.
0.519976 0.0750091 0.
0.521976 0.0750081 0.
0.523976 0.0750065 0.
0.525977 0.0750049 0.
0.527977 0.0750034 0.
0.529977 0.075003 0.
0.531978 0.0750025 0.
0.533978 0.0750016 0.
0.535978 0.075 0.
0.537978 0.0749983 0.
0.539978 0.0749973 0.
0.541978 0.0749967 0.
0.543978 0.0749962 0.
0.545979 0.0749954 0.
0.54798 0.0749946 0.
0.54998 0.0749937 0.
0.551981 0.0749926 0.
0.553982 0.0749915 0.
0.555983 0.0749902 0.
0.557984 0.0749885 0.
0.559985 0.0749868 0.
0.561986 0.0749857 0.
0.563986 0.0749853 0.
0.565986 0.074985 0.
0.567987 0.0749843 0.
0.569988 0.0749834 0.
0.571989 0.0749825 0.
0.57399 0.0749817 0.
0.575991 0.074981 0.
0.577993 0.0749802 0.
0.579993 0.0749798 0.
0.581994 0.0749794 0.
0.583994 0.0749788 0.
0.585995 0.0749779 0.
0.587996 0.0749769 0.
0.589997 0.0749764 0.
0.591998 0.0749761 0.
0.593999 0.0749758 0.
0.595999 0.0749758 0.
0.598 0.0749758 0.
0.6 0.0749759 0.
0.602001 0.0749764 0.
0.604002 0.0749769 0.
0.606003 0.0749771 0.
0.608004 0.0749767 0.
0.610005 0.0749763 0.
0.612006 0.0749765 0.
0.614007 0.0749776 0.
0.616007 0.0749787 0.
0.618008 0.0749796 0.
0.620009 0.0749804 0.
0.62201 0.0749812 0.
0.624011 0.0749815 0.
0.626012 0.0749817 0.
0.628013 0.074982 0.
0.630014 0.0749825 0.
0.632015 0.0749829 0.
0.634016 0.0749836 0.
0.636016 0.0749846 0.
0.638016 0.0749856 0.
0.640016 0.0749868 0.
0.642017 0.0749883 0.
0.644018 0.0749898 0.
0.646018 0.074991 0.
0.648019 0.0749922 0.
0.65002 0.0749933 0.
0.65202 0.0749941 0.
0.65402 0.0749949 0.
0.656021 0.0749956 0.
0.658022 0.0749963 0.
0.660022 0.0749969 0.
0.662023 0.0749978 0.
0.664023 0.074999 0.
0.666023 0.0750002 0.
0.668023 0.0750018 0.
0.670023 0.0750034 0.
0.672023 0.0750051 0.
0.674023 0.0750061 0.
0.676023 0.0750071 0.
0.678024 0.075008 0.
0.680024 0.0750094 0.
0.682024 0.0750107 0.
0.684024 0.0750122 0.
0.686024 0.0750138 0.
0.688024 0.0750155 0.
0.690024 0.0750166 0.
0.692024 0.0750174 0.
0.694024 0.0750182 0.
0.696025 0.0750193 0.
0.698026 0.0750204 0.
0.499977 0.0770218 0.
0.501977 0.0770205 0.
0.503977 0.0770191 0.
0.505977 0.0770177 0.
0.507977 0.0770164 0.
0.509977 0.0770151 0.
0.511977 0.0770138 0.
0.513977 0.0770127 0.
0.515977 0.0770115 0.
0.517977 0.0770104 0.
0.519977 0.0770094 0.
0.521978 0.0770083 0.
0.523978 0.0770068 0.
0.525978 0.0770053 0.
0.527978 0.0770038 0.
0.529978 0.0770029 0.
0.531979 0.077002 0.
0.533979 0.0770009 0.
0.535979 0.0769995 0.
0.537979 0.0769981 0.
0.539979 0.0769971 0.
0.54198 0.0769965 0.
0.54398 0.0769959 0.
0.545981 0.076995 0.
0.547981 0.076994 0.
0.549982 0.076993 0.
0.551983 0.0769919 0.
0.553983 0.0769909 0.
0.555984 0.0769897 0.
0.557985 0.0769882 0.
0.559986 0.0769867 0.
0.561987 0.0769855 0.
0.563987 0.0769848 0.
0.565987 0.0769841 0.
0.567987 0.0769834 0.
0.569988 0.0769827 0.
0.571989 0.076982 0.
0.57399 0.0769811 0.
0.575991 0.0769801 0.
0.577992 0.0769791 0.
0.579993 0.0769786 0.
0.581993 0.076978 0.
0.583994 0.0769773 0.
0.585995 0.0769765 0.
0.587996 0.0769756 0.
0.589997 0.0769753 0.
0.591998 0.0769754 0.
0.593998 0.0769754 0.
0.595999 0.0769754 0.
0.598 0.0769753 0.
0.6 0.0769753 0.
0.602001 0.0769757 0.
0.604003 0.0769762 0.
0.606004 0.0769765 0.
0.608005 0.0769762 0.
0.610005 0.0769759 0.
0.612006 0.0769762 0.
0.614007 0.0769772 0.
0.616008 0.0769781 0.
0.618008 0.0769788 0.
0.620009 0.0769794 0.
0.622009 0.07698 0.
0.62401 0.0769804 0.
0.626011 0.0769809 0.
0.628012 0.0769813 0.
0.630013 0.0769819 0.
0.632014 0.0769825 0.
0.634015 0.0769832 0.
0.636015 0.0769843 0.
0.638015 0.0769853 0.
0.640016 0.0769865 0.
0.642016 0.0769878 0.
0.644017 0.0769891 0.
0.646017 0.0769903 0.
0.648018 0.0769914 0.
0.650019 0.0769926 0.
0.652019 0.0769934 0.
0.654019 0.0769942 0.
0.65602 0.0769951 0.
0.65802 0.0769961 0.
0.660021 0.0769971 0.
0.662021 0.0769981 0.
0.664022 0.0769993 0.
0.666022 0.0770004 0.
0.668022 0.0770019 0.
0.670022 0.0770036 0.
0.672023 0.0770053 0.
0.674023 0.0770064 0.
0.676023 0.0770075 0.
0.678022 0.0770086 0.
0.680023 0.0770102 0.
0.682023 0.0770118 0.
0.684023 0.0770133 0.
0.686023 0.0770145 0.
0.688023 0.0770158 0.
0.690023 0.0770167 0.
0.692023 0.0770174 0.
0.694023 0.0770181 0.
0.696024 0.0770195 0.
0.698024 0.0770211 0.
0.499979 0.0790218 0.
0.501979 0.0790208 0.
0.503978 0.0790195 0.
0.505978 0.0790181 0.
0.507978 0.0790165 0.
0.509978 0.0790149 0.
0.511978 0.0790136 0.
0.513978 0.0790127 0.
0.515978 0.0790119 0.
0.517978 0.0790108 0.
0.519979 0.0790096 0.
0.521979 0.0790085 0.
0.523979 0.0790071 0.
0.525979 0.0790057 0.
0.52798 0.0790042 0.
0.52998 0.0790028 0.
0.53198 0.0790015 0.
0.53398 0.0790001 0.
0.53598 0.078999 0.
0.53798 0.0789979 0.
0.539981 0.078997 0.
0.541981 0.0789963 0.
0.543982 0.0789956 0.
0.545982 0.0789945 0.
0.547983 0.0789934 0.
0.549983 0.0789922 0.
0.551984 0.0789913 0.
0.553985 0.0789903 0.
0.555985 0.0789893 0.
0.557986 0.0789879 0.
0.559987 0.0789865 0.
0.561987 0.0789853 0.
0.563987 0.0789843 0.
0.565988 0.0789832 0.
0.567988 0.0789825 0.
0.569989 0.078982 0.
0.571989 0.0789815 0.
0.57399 0.0789804 0.
0.575991 0.0789792 0.
0.577991 0.078978 0.
0.579992 0.0789773 0.
0.581993 0.0789766 0.
0.583994 0.0789758 0.
0.585995 0.0789751 0.
0.587996 0.0789743 0.
0.589996 0.0789742 0.
0.591997 0.0789747 0.
0.593998 0.0789751 0.
0.595999 0.078975 0.
0.598 0.0789748 0.
0.6 0.0789746 0.
0.602002 0.0789751 0.
0.604003 0.0789755 0.
0.606004 0.0789758 0.
0.608005 0.0789757 0.
0.610006 0.0789756 0.
0.612006 0.0789759 0.
0.614007 0.0789767 0.
0.616008 0.0789775 0.
0.618008 0.0789781 0.
0.620009 0.0789784 0.
0.622009 0.0789788 0.
0.62401 0.0789794 0.
0.626011 0.07898 0.
0.628012 0.0789806 0.
0.630012 0.0789813 0.
0.632013 0.078982 0.
0.634013 0.0789828 0.
0.636014 0.078984 0.
0.638014 0.0789851 0.
0.640015 0.0789862 0.
0.642015 0.0789873 0.
0.644016 0.0789884 0.
0.646017 0.0789895 0.
0.648017 0.0789906 0.
0.650018 0.0789918 0.
0.652018 0.0789927 0.
0.654019 0.0789936 0.
0.656019 0.0789946 0.
0.658019 0.0789959 0.
0.660019 0.0789972 0.
0.66202 0.0789984 0.
0.66402 0.0789995 0.
0.666021 0.0790006 0.
0.668021 0.0790021 0.
0.670021 0.0790037 0.
0.672022 0.0790054 0.
0.674022 0.0790067 0.
0.676022 0.0790079 0.
0.678021 0.0790091 0.
0.680022 0.079011 0.
0.682022 0.0790128 0.
0.684022 0.0790143 0.
0.686022 0.0790152 0.
0.688022 0.0790161 0.
0.690022 0.0790168 0.
0.692022 0.0790174 0.
0.694022 0.079018 0.
0.696022 0.0790197 0.
0.698023 0.0790218 0.
0.49998 0.0810222 0.
0.50198 0.081021 0.
0.50398 0.0810197 0.
0.50598 0.0810184 0.
0.50798 0.0810167 0.
0.50998 0.0810151 0.
0.51198 0.0810138 0.
0.51398 0.081013 0.
0.51598 0.0810122 0.
0.51798 0.081011 0.
0.51998 0.0810098 0.
0.521981 0.0810085 0.
0.523981 0.0810072 0.
0.525981 0.0810059 0.
0.527981 0.0810045 0.
0.529981 0.0810029 0.
0.531981 0.0810013 0.
0.533981 0.0809999 0.
0.535981 0.0809988 0.
0.537982 0.0809977 0.
0.539982 0.0809968 0.
0.541983 0.080996 0.
0.543983 0.0809952 0.
0.545984 0.0809941 0.
0.547984 0.0809928 0.
0.549984 0.0809916 0.
0.551985 0.0809908 0.
0.553986 0.0809899 0.
0.555986 0.0809889 0.
0.557987 0.0809877 0.
0.559987 0.0809865 0.
0.561988 0.0809853 0.
0.563988 0.0809841 0.
0.565988 0.0809829 0.
0.567989 0.0809822 0.
0.569989 0.0809817 0.
0.57199 0.0809812 0.
0.573991 0.0809799 0.
0.575991 0.0809785 0.
0.577992 0.0809771 0.
0.579992 0.0809763 0.
0.581993 0.0809756 0.
0.583994 0.0809749 0.
0.585995 0.0809743 0.
0.587996 0.0809738 0.
0.589996 0.0809738 0.
0.591997 0.0809742 0.
0.593998 0.0809746 0.
0.595999 0.0809745 0.
0.597999 0.0809743 0.
0.6 0.0809741 0.
0.602001 0.0809744 0.
0.604003 0.0809747 0.
0.606004 0.0809749 0.
0.608005 0.080975 0.
0.610006 0.0809751 0.
0.612006 0.0809754 0.
0.614007 0.0809761 0.
0.616008 0.0809768 0.
0.618008 0.0809773 0.
0.620008 0.0809777 0.
0.622009 0.080978 0.
0.624009 0.0809788 0.
0.62601 0.0809796 0.
0.628011 0.0809804 0.
0.630012 0.0809811 0.
0.632012 0.0809818 0.
0.634012 0.0809826 0.
0.636013 0.0809837 0.
0.638013 0.0809848 0.
0.640014 0.0809858 0.
0.642014 0.0809868 0.
0.644015 0.0809877 0.
0.646015 0.0809889 0.
0.648016 0.0809901 0.
0.650017 0.0809912 0.
0.652017 0.0809923 0.
0.654018 0.0809933 0.
0.656018 0.0809944 0.
0.658018 0.0809958 0.
0.660018 0.0809973 0.
0.662019 0.0809985 0.
0.664019 0.0809995 0.
0.66602 0.0810006 0.
0.66802 0.0810021 0.
0.67002 0.0810038 0.
0.672021 0.0810056 0.
0.67402 0.0810069 0.
0.67602 0.0810082 0.
0.67802 0.0810096 0.
0.68002 0.0810114 0.
0.68202 0.0810133 0.
0.68402 0.0810147 0.
0.68602 0.0810156 0.
0.68802 0.0810164 0.
0.69002 0.0810171 0.
0.69202 0.0810178 0.
0.69402 0.0810185 0.
0.696021 0.0810201 0.
0.698021 0.0810221 0.
0.499981 0.0830225 0.
0.501981 0.0830213 0.
0.503981 0.0830199 0.
0.505981 0.0830185 0.
0.507981 0.0830171 0.
0.509982 0.0830156 0.
0.511982 0.0830144 0.
0.513982 0.0830134 0.
0.515982 0.0830124 0.
0.517982 0.0830111 0.
0.519982 0.0830098 0.
0.521983 0.0830084 0.
0.523983 0.0830072 0.
0.525983 0.083006 0.
0.527983 0.0830047 0.
0.529983 0.0830031 0.
0.531983 0.0830015 0.
0.533983 0.083 0.
0.535983 0.0829988 0.
0.537983 0.0829975 0.
0.539984 0.0829965 0.
0.541984 0.0829957 0.
0.543985 0.0829948 0.
0.545985 0.0829937 0.
0.547985 0.0829924 0.
0.549985 0.0829912 0.
0.551986 0.0829904 0.
0.553987 0.0829896 0.
0.555987 0.0829887 0.
0.557988 0.0829876 0.
0.559988 0.0829865 0.
0.561989 0.0829854 0.
0.563989 0.0829842 0.
0.56599 0.0829831 0.
0.56799 0.0829824 0.
0.56999 0.0829818 0.
0.571991 0.0829811 0.
0.573992 0.0829796 0.
0.575992 0.082978 0.
0.577993 0.0829764 0.
0.579994 0.0829757 0.
0.581995 0.0829751 0.
0.583995 0.0829745 0.
0.585996 0.0829743 0.
0.587996 0.082974 0.
0.589997 0.0829739 0.
0.591998 0.0829739 0.
0.593998 0.0829739 0.
0.595999 0.0829738 0.
0.597999 0.0829738 0.
0.6 0.0829738 0.
0.602001 0.0829738 0.
0.604003 0.0829737 0.
0.606004 0.0829738 0.
0.608004 0.0829741 0.
0.610005 0.0829744 0.
0.612006 0.0829748 0.
0.614006 0.0829753 0.
0.616007 0.0829758 0.
0.618007 0.0829764 0.
0.620008 0.0829771 0.
0.622008 0.0829777 0.
0.624009 0.0829788 0.
0.62601 0.0829798 0.
0.628011 0.0829809 0.
0.630011 0.0829814 0.
0.632011 0.082982 0.
0.634012 0.0829826 0.
0.636012 0.0829835 0.
0.638012 0.0829843 0.
0.640013 0.0829852 0.
0.642013 0.0829862 0.
0.644013 0.0829872 0.
0.646014 0.0829884 0.
0.648014 0.0829897 0.
0.650015 0.0829909 0.
0.652016 0.0829921 0.
0.654017 0.0829933 0.
0.656017 0.0829946 0.
0.658018 0.0829959 0.
0.660018 0.0829973 0.
0.662019 0.0829985 0.
0.664019 0.0829995 0.
0.66602 0.0830005 0.
0.66802 0.083002 0.
0.670019 0.0830039 0.
0.672019 0.0830057 0.
0.674019 0.0830072 0.
0.676018 0.0830085 0.
0.678018 0.0830099 0.
0.680018 0.0830115 0.
0.682018 0.0830131 0.
0.684018 0.0830145 0.
0.686018 0.0830155 0.
0.688018 0.0830166 0.
0.690019 0.0830176 0.
0.692019 0.0830185 0.
0.694019 0.0830194 0.
0.696019 0.0830208 0.
0.698019 0.0830222 0.
0.499982 0.0850229 0.
0.501982 0.0850215 0.
0.503982 0.08502 0.
0.505982 0.0850186 0.
0.507983 0.0850174 0.
0.509983 0.0850161 0.
0.511984 0.0850149 0.
0.513984 0.0850138 0.
0.515984 0.0850126 0.
0.517984 0.0850112 0.
0.519984 0.0850098 0.
0.521985 0.0850083 0.
0.523985 0.0850072 0.
0.525985 0.085006 0.
0.527985 0.0850048 0.
0.529985 0.0850033 0.
0.531985 0.0850017 0.
0.533985 0.0850002 0.
0.535985 0.0849988 0.
0.537985 0.0849974 0.
0.539985 0.0849963 0.
0.541986 0.0849954 0.
0.543986 0.0849944 0.
0.545986 0.0849933 0.
0.547986 0.0849921 0.
0.549986 0.0849908 0.
0.551987 0.0849901 0.
0.553988 0.0849893 0.
0.555989 0.0849885 0.
0.557989 0.0849875 0.
0.559989 0.0849865 0.
0.56199 0.0849854 0.
0.56399 0.0849844 0.
0.565991 0.0849834 0.
0.567991 0.0849825 0.
0.569992 0.0849818 0.
0.571992 0.0849811 0.
0.573993 0.0849794 0.
0.575994 0.0849775 0.
0.577995 0.0849757 0.
0.579995 0.0849751 0.
0.581996 0.0849745 0.
0.583997 0.0849741 0.
0.585997 0.0849742 0.
0.587997 0.0849743 0.
0.589998 0.0849741 0.
0.591998 0.0849736 0.
0.593999 0.0849732 0.
0.595999 0.0849732 0.
0.597999 0.0849733 0.
0.6 0.0849734 0.
0.602001 0.0849731 0.
0.604002 0.0849728 0.
0.606003 0.0849727 0.
0.608004 0.0849732 0.
0.610005 0.0849737 0.
0.612005 0.0849742 0.
0.614005 0.0849745 0.
0.616006 0.0849748 0.
0.618006 0.0849755 0.
0.620007 0.0849765 0.
0.622008 0.0849774 0.
0.624009 0.0849787 0.
0.626009 0.0849801 0.
0.62801 0.0849813 0.
0.63001 0.0849817 0.
0.632011 0.0849822 0.
0.634011 0.0849827 0.
0.636011 0.0849833 0.
0.638011 0.0849839 0.
0.640011 0.0849847 0.
0.642012 0.0849857 0.
0.644012 0.0849866 0.
0.646012 0.0849879 0.
0.648013 0.0849892 0.
0.650013 0.0849906 0.
0.652014 0.084992 0.
0.654016 0.0849933 0.
0.656017 0.0849947 0.
0.658017 0.084996 0.
0.660018 0.0849974 0.
0.662018 0.0849985 0.
0.664019 0.0849994 0.
0.666019 0.0850003 0.
0.668019 0.085002 0.
0.670018 0.085004 0.
0.672017 0.0850059 0.
0.674017 0.0850074 0.
0.676016 0.0850089 0.
0.678016 0.0850103 0.
0.680016 0.0850116 0.
0.682016 0.0850129 0.
0.684016 0.0850142 0.
0.686016 0.0850155 0.
0.688017 0.0850168 0.
0.690017 0.085018 0.
0.692017 0.0850192 0.
0.694017 0.0850204 0.
0.696017 0.0850214 0.
0.698018 0.0850223 0.
0.499984 0.0870232 0.
0.501984 0.0870219 0.
0.503983 0.0870206 0.
0.505983 0.0870192 0.
0.507984 0.0870178 0.
0.509984 0.0870164 0.
0.511984 0.0870151 0.
0.513984 0.0870139 0.
0.515984 0.0870128 0.
0.517984 0.0870113 0.
0.519985 0.0870096 0.
0.521985 0.0870079 0.
0.523985 0.0870067 0.
0.525985 0.0870055 0.
0.527985 0.0870043 0.
0.529985 0.0870028 0.
0.531986 0.0870014 0.
0.533986 0.087 0.
0.535986 0.0869988 0.
0.537986 0.0869976 0.
0.539986 0.0869965 0.
0.541986 0.0869954 0.
0.543987 0.0869944 0.
0.545987 0.0869932 0.
0.547987 0.0869919 0.
0.549987 0.0869907 0.
0.551988 0.0869898 0.
0.553988 0.086989 0.
0.555989 0.0869881 0.
0.55799 0.0869871 0.
0.55999 0.0869861 0.
0.561991 0.0869851 0.
0.563991 0.0869842 0.
0.565992 0.0869833 0.
0.567992 0.0869824 0.
0.569993 0.0869815 0.
0.571994 0.0869806 0.
0.573994 0.0869789 0.
0.575995 0.0869771 0.
0.577996 0.0869754 0.
0.579996 0.0869748 0.
0.581996 0.0869742 0.
0.583997 0.0869737 0.
0.585997 0.0869736 0.
0.587998 0.0869734 0.
0.589998 0.0869732 0.
0.591999 0.0869729 0.
0.593999 0.0869727 0.
0.595999 0.0869727 0.
0.598 0.0869729 0.
0.6 0.086973 0.
0.602001 0.0869727 0.
0.604002 0.0869724 0.
0.606003 0.0869723 0.
0.608004 0.0869727 0.
0.610004 0.0869731 0.
0.612004 0.0869735 0.
0.614005 0.0869738 0.
0.616005 0.0869741 0.
0.618006 0.0869749 0.
0.620007 0.086976 0.
0.622007 0.0869771 0.
0.624008 0.0869785 0.
0.626009 0.0869798 0.
0.628009 0.0869811 0.
0.63001 0.0869817 0.
0.63201 0.0869823 0.
0.63401 0.0869829 0.
0.636011 0.0869835 0.
0.638011 0.0869841 0.
0.640011 0.0869849 0.
0.642011 0.0869857 0.
0.644011 0.0869866 0.
0.646012 0.0869878 0.
0.648013 0.0869891 0.
0.650013 0.0869904 0.
0.652014 0.0869918 0.
0.654015 0.0869932 0.
0.656015 0.0869946 0.
0.658015 0.0869959 0.
0.660016 0.0869972 0.
0.662016 0.0869983 0.
0.664016 0.0869994 0.
0.666017 0.0870004 0.
0.668017 0.0870021 0.
0.670016 0.0870041 0.
0.672016 0.0870061 0.
0.674016 0.0870074 0.
0.676015 0.0870087 0.
0.678015 0.0870099 0.
0.680015 0.0870115 0.
0.682015 0.0870131 0.
0.684016 0.0870145 0.
0.686016 0.0870156 0.
0.688016 0.0870166 0.
0.690016 0.0870178 0.
0.692016 0.0870191 0.
0.694016 0.0870203 0.
0.696016 0.0870214 0.
0.698016 0.0870224 0.
0.499986 0.0890235 0.
0.501985 0.0890223 0.
0.503984 0.0890211 0.
0.505984 0.0890198 0.
0.507984 0.0890182 0.
0.509985 0.0890167 0.
0.511985 0.0890153 0.
0.513985 0.0890141 0.
0.515985 0.0890129 0.
0.517985 0.0890113 0.
0.519985 0.0890094 0.
0.521986 0.0890075 0.
0.523986 0.0890062 0.
0.525986 0.089005 0.
0.527986 0.0890038 0.
0.529986 0.0890024 0.
0.531986 0.089001 0.
0.533987 0.0889998 0.
0.535987 0.0889987 0.
0.537987 0.0889977 0.
0.539987 0.0889966 0.
0.541987 0.0889955 0.
0.543988 0.0889944 0.
0.545988 0.0889931 0.
0.547988 0.0889918 0.
0.549988 0.0889905 0.
0.551988 0.0889896 0.
0.553989 0.0889887 0.
0.55599 0.0889878 0.
0.55799 0.0889868 0.
0.559991 0.0889857 0.
0.561992 0.0889848 0.
0.563992 0.088984 0.
0.565993 0.0889832 0.
0.567994 0.0889822 0.
0.569994 0.0889812 0.
0.571995 0.0889801 0.
0.573996 0.0889784 0.
0.575996 0.0889767 0.
0.577997 0.0889751 0.
0.579997 0.0889745 0.
0.581997 0.0889738 0.
0.583997 0.0889733 0.
0.585998 0.0889729 0.
0.587998 0.0889725 0.
0.589999 0.0889723 0.
0.591999 0.0889722 0.
0.594 0.0889722 0.
0.596 0.0889723 0.
0.598 0.0889724 0.
0.6 0.0889726 0.
0.602001 0.0889723 0.
0.604002 0.0889721 0.
0.606003 0.0889719 0.
0.608003 0.0889722 0.
0.610003 0.0889724 0.
0.612004 0.0889727 0.
0.614004 0.088973 0.
0.616004 0.0889733 0.
0.618005 0.0889743 0.
0.620006 0.0889756 0.
0.622006 0.0889769 0.
0.624007 0.0889783 0.
0.626008 0.0889796 0.
0.628008 0.088981 0.
0.630009 0.0889817 0.
0.632009 0.0889824 0.
0.63401 0.0889831 0.
0.63601 0.0889837 0.
0.63801 0.0889844 0.
0.64001 0.0889851 0.
0.64201 0.0889858 0.
0.644011 0.0889866 0.
0.646011 0.0889877 0.
0.648012 0.0889889 0.
0.650013 0.0889901 0.
0.652013 0.0889916 0.
0.654014 0.0889931 0.
0.656014 0.0889945 0.
0.658014 0.0889958 0.
0.660014 0.088997 0.
0.662014 0.0889982 0.
0.664014 0.0889993 0.
0.666014 0.0890005 0.
0.668015 0.0890022 0.
0.670015 0.0890043 0.
0.672015 0.0890064 0.
0.674015 0.0890075 0.
0.676015 0.0890084 0.
0.678015 0.0890095 0.
0.680015 0.0890114 0.
0.682015 0.0890133 0.
0.684015 0.0890148 0.
0.686015 0.0890156 0.
0.688015 0.0890164 0.
0.690015 0.0890175 0.
0.692015 0.0890189 0.
0.694015 0.0890203 0.
0.696015 0.0890214 0.
0.698015 0.0890224 0.
0.499988 0.0910239 0.
0.501987 0.0910226 0.
0.503986 0.0910215 0.
0.505985 0.0910202 0.
0.507985 0.0910185 0.
0.509986 0.0910169 0.
0.511986 0.0910155 0.
0.513986 0.0910143 0.
0.515986 0.091013 0.
0.517986 0.0910113 0.
0.519987 0.0910094 0.
0.521987 0.0910074 0.
0.523987 0.0910061 0.
0.525987 0.0910048 0.
0.527987 0.0910036 0.
0.529987 0.0910023 0.
0.531987 0.091001 0.
0.533988 0.0909998 0.
0.535988 0.0909987 0.
0.537988 0.0909977 0.
0.539988 0.0909966 0.
0.541988 0.0909955 0.
0.543989 0.0909944 0.
0.545989 0.0909931 0.
0.547989 0.0909917 0.
0.549989 0.0909904 0.
0.551989 0.0909894 0.
0.55399 0.0909885 0.
0.555991 0.0909875 0.
0.557991 0.0909864 0.
0.559992 0.0909853 0.
0.561993 0.0909844 0.
0.563993 0.0909836 0.
0.565994 0.0909828 0.
0.567994 0.0909818 0.
0.569995 0.0909807 0.
0.571996 0.0909796 0.
0.573996 0.090978 0.
0.575997 0.0909764 0.
0.577998 0.0909749 0.
0.579997 0.0909742 0.
0.581997 0.0909736 0.
0.583997 0.090973 0.
0.585998 0.0909724 0.
0.587999 0.0909719 0.
0.589999 0.0909717 0.
0.591999 0.0909718 0.
0.594 0.0909719 0.
0.596 0.090972 0.
0.598 0.0909721 0.
0.6 0.0909722 0.
0.602001 0.0909721 0.
0.604002 0.0909719 0.
0.606003 0.0909719 0.
0.608003 0.0909721 0.
0.610003 0.0909723 0.
0.612003 0.0909725 0.
0.614004 0.0909728 0.
0.616004 0.0909732 0.
0.618005 0.0909741 0.
0.620005 0.0909754 0.
0.622006 0.0909767 0.
0.624006 0.090978 0.
0.626007 0.0909793 0.
0.628007 0.0909805 0.
0.630008 0.0909813 0.
0.632009 0.0909821 0.
0.634009 0.0909829 0.
0.636009 0.0909837 0.
0.638009 0.0909844 0.
0.640009 0.0909851 0.
0.64201 0.0909858 0.
0.64401 0.0909865 0.
0.646011 0.0909876 0.
0.648012 0.0909888 0.
0.650012 0.09099 0.
0.652012 0.0909915 0.
0.654012 0.090993 0.
0.656012 0.0909945 0.
0.658012 0.0909957 0.
0.660012 0.0909969 0.
0.662012 0.0909981 0.
0.664012 0.0909994 0.
0.666013 0.0910007 0.
0.668013 0.0910025 0.
0.670013 0.0910046 0.
0.672014 0.0910066 0.
0.674014 0.0910077 0.
0.676014 0.0910086 0.
0.678014 0.0910096 0.
0.680014 0.0910115 0.
0.682014 0.0910133 0.
0.684014 0.0910148 0.
0.686014 0.0910157 0.
0.688014 0.0910165 0.
0.690014 0.0910176 0.
0.692014 0.0910188 0.
0.694014 0.0910199 0.
0.696014 0.091021 0.
0.698015 0.0910221 0.
0.499989 0.0930241 0.
0.501988 0.0930228 0.
0.503988 0.0930217 0.
0.505987 0.0930204 0.
0.507987 0.0930188 0.
0.509987 0.0930172 0.
0.511988 0.0930157 0.
0.513988 0.0930144 0.
0.515989 0.0930131 0.
0.517989 0.0930114 0.
0.519989 0.0930095 0.
0.521989 0.0930076 0.
0.523989 0.0930063 0.
0.525989 0.093005 0.
0.527988 0.0930037 0.
0.529988 0.0930025 0.
0.531988 0.0930012 0.
0.533989 0.093 0.
0.535989 0.0929988 0.
0.537989 0.0929976 0.
0.539989 0.0929964 0.
0.54199 0.0929954 0.
0.54399 0.0929943 0.
0.54599 0.092993 0.
0.54799 0.0929916 0.
0.549991 0.0929903 0.
0.551991 0.0929893 0.
0.553992 0.0929883 0.
0.555992 0.0929873 0.
0.557993 0.092986 0.
0.559993 0.0929848 0.
0.561994 0.0929838 0.
0.563994 0.092983 0.
0.565995 0.0929822 0.
0.567995 0.0929812 0.
0.569996 0.0929801 0.
0.571996 0.092979 0.
0.573997 0.0929775 0.
0.575997 0.092976 0.
0.577997 0.0929746 0.
0.579998 0.092974 0.
0.581998 0.0929735 0.
0.583998 0.0929729 0.
0.585998 0.0929723 0.
0.587999 0.0929716 0.
0.589999 0.0929714 0.
0.592 0.0929715 0.
0.594 0.0929716 0.
0.596 0.0929717 0.
0.598 0.0929718 0.
0.6 0.0929718 0.
0.602001 0.0929719 0.
0.604002 0.092972 0.
0.606003 0.0929721 0.
0.608003 0.0929724 0.
0.610003 0.0929726 0.
0.612003 0.0929729 0.
0.614004 0.0929733 0.
0.616004 0.0929736 0.
0.618004 0.0929744 0.
0.620005 0.0929755 0.
0.622005 0.0929766 0.
0.624006 0.0929777 0.
0.626007 0.0929788 0.
0.628007 0.0929799 0.
0.630008 0.0929807 0.
0.632008 0.0929815 0.
0.634008 0.0929824 0.
0.636008 0.0929833 0.
0.638008 0.0929842 0.
0.640009 0.092985 0.
0.642009 0.0929858 0.
0.644009 0.0929865 0.
0.64601 0.0929876 0.
0.64801 0.0929888 0.
0.650011 0.09299 0.
0.65201 0.0929915 0.
0.65401 0.092993 0.
0.65601 0.0929945 0.
0.65801 0.0929957 0.
0.660011 0.0929968 0.
0.662011 0.0929981 0.
0.664011 0.0929996 0.
0.666011 0.0930011 0.
0.668011 0.0930029 0.
0.670012 0.093005 0.
0.672012 0.093007 0.
0.674012 0.0930081 0.
0.676012 0.0930091 0.
0.678012 0.0930102 0.
0.680012 0.0930116 0.
0.682012 0.0930131 0.
0.684013 0.0930145 0.
0.686013 0.0930157 0.
0.688013 0.093017 0.
0.690013 0.0930179 0.
0.692014 0.0930187 0.
0.694014 0.0930194 0.
0.696014 0.0930204 0.
0.698014 0.0930215 0.
0.499991 0.0950243 0.
0.50199 0.095023 0.
0.50399 0.0950219 0.
0.505989 0.0950206 0.
0.507989 0.0950191 0.
0.509989 0.0950175 0.
0.511989 0.095016 0.
0.51399 0.0950145 0.
0.515991 0.0950131 0.
0.517991 0.0950114 0.
0.519991 0.0950096 0.
0.521991 0.0950079 0.
0.52399 0.0950065 0.
0.52599 0.0950052 0.
0.52799 0.0950038 0.
0.52999 0.0950027 0.
0.531989 0.0950015 0.
0.533989 0.0950002 0.
0.53599 0.0949988 0.
0.53799 0.0949974 0.
0.53999 0.0949962 0.
0.541991 0.0949952 0.
0.543991 0.0949942 0.
0.545992 0.0949929 0.
0.547992 0.0949916 0.
0.549993 0.0949902 0.
0.551993 0.0949891 0.
0.553993 0.0949881 0.
0.555994 0.094987 0.
0.557994 0.0949857 0.
0.559995 0.0949843 0.
0.561995 0.0949832 0.
0.563995 0.0949823 0.
0.565995 0.0949815 0.
0.567996 0.0949805 0.
0.569996 0.0949795 0.
0.571996 0.0949785 0.
0.573997 0.0949771 0.
0.575997 0.0949757 0.
0.577997 0.0949744 0.
0.579998 0.0949739 0.
0.581998 0.0949733 0.
0.583998 0.0949728 0.
0.585999 0.0949721 0.
0.587999 0.0949714 0.
0.59 0.0949712 0.
0.592 0.0949713 0.
0.594 0.0949714 0.
0.596 0.0949715 0.
0.598 0.0949715 0.
0.6 0.0949715 0.
0.602001 0.0949718 0.
0.604002 0.094972 0.
0.606002 0.0949723 0.
0.608003 0.0949727 0.
0.610003 0.094973 0.
0.612003 0.0949734 0.
0.614003 0.0949737 0.
0.616004 0.0949741 0.
0.618004 0.0949748 0.
0.620005 0.0949756 0.
0.622005 0.0949764 0.
0.624006 0.0949774 0.
0.626006 0.0949783 0.
0.628007 0.0949792 0.
0.630007 0.09498 0.
0.632008 0.0949809 0.
0.634008 0.0949818 0.
0.636008 0.0949829 0.
0.638008 0.094984 0.
0.640008 0.094985 0.
0.642008 0.0949857 0.
0.644009 0.0949865 0.
0.646009 0.0949876 0.
0.648009 0.0949888 0.
0.650009 0.0949901 0.
0.652009 0.0949916 0.
0.654008 0.094993 0.
0.656008 0.0949945 0.
0.658009 0.0949956 0.
0.660009 0.0949968 0.
0.662009 0.0949982 0.
0.664009 0.0949998 0.
0.666009 0.0950015 0.
0.66801 0.0950034 0.
0.67001 0.0950054 0.
0.672011 0.0950074 0.
0.674011 0.0950085 0.
0.676011 0.0950096 0.
0.678011 0.0950107 0.
0.680011 0.0950118 0.
0.682011 0.0950129 0.
0.684011 0.0950142 0.
0.686012 0.0950158 0.
0.688012 0.0950174 0.
0.690013 0.0950183 0.
0.692013 0.0950186 0.
0.694014 0.0950189 0.
0.696014 0.0950198 0.
0.698014 0.0950209 0.
0.499992 0.097025 0.
0.501992 0.0970235 0.
0.503991 0.0970221 0.
0.505991 0.0970207 0.
0.507991 0.0970192 0.
0.509991 0.0970177 0.
0.511991 0.0970162 0.
0.513992 0.0970146 0.
0.515992 0.097013 0.
0.517992 0.0970113 0.
0.519992 0.0970094 0.
0.521992 0.0970075 0.
0.523992 0.0970063 0.
0.525991 0.0970051 0.
0.527991 0.0970039 0.
0.529991 0.0970027 0.
0.531991 0.0970016 0.
0.533991 0.0970003 0.
0.535991 0.0969988 0.
0.537992 0.0969972 0.
0.539992 0.096996 0.
0.541993 0.0969951 0.
0.543993 0.0969941 0.
0.545994 0.0969928 0.
0.547994 0.0969913 0.
0.549994 0.0969899 0.
0.551995 0.0969889 0.
0.553995 0.096988 0.
0.555996 0.0969869 0.
0.557996 0.0969854 0.
0.559996 0.096984 0.
0.561996 0.0969828 0.
0.563996 0.096982 0.
0.565996 0.0969813 0.
0.567996 0.0969802 0.
0.569997 0.096979 0.
0.571997 0.0969778 0.
0.573998 0.0969766 0.
0.575998 0.0969755 0.
0.577998 0.0969744 0.
0.579998 0.0969735 0.
0.581998 0.0969726 0.
0.583998 0.0969719 0.
0.585999 0.0969717 0.
0.587999 0.0969715 0.
0.589999 0.0969712 0.
0.592 0.0969708 0.
0.594 0.0969705 0.
0.596 0.0969707 0.
0.598001 0.096971 0.
0.600001 0.0969713 0.
0.602001 0.0969713 0.
0.604001 0.0969713 0.
0.606002 0.0969714 0.
0.608002 0.0969718 0.
0.610003 0.0969723 0.
0.612003 0.0969728 0.
0.614003 0.0969733 0.
0.616003 0.0969738 0.
0.618003 0.0969745 0.
0.620004 0.0969752 0.
0.622004 0.096976 0.
0.624004 0.0969771 0.
0.626005 0.0969783 0.
0.628006 0.0969795 0.
0.630006 0.0969803 0.
0.632007 0.0969811 0.
0.634007 0.096982 0.
0.636007 0.0969831 0.
0.638007 0.0969842 0.
0.640007 0.0969851 0.
0.642007 0.0969858 0.
0.644007 0.0969864 0.
0.646007 0.0969876 0.
0.648007 0.0969888 0.
0.650007 0.0969901 0.
0.652007 0.0969915 0.
0.654007 0.0969929 0.
0.656007 0.0969942 0.
0.658008 0.0969953 0.
0.660008 0.0969964 0.
0.662008 0.0969979 0.
0.664008 0.0969997 0.
0.666008 0.0970016 0.
0.668008 0.0970034 0.
0.670009 0.097005 0.
0.672009 0.0970067 0.
0.67401 0.0970082 0.
0.67601 0.0970097 0.
0.67801 0.0970112 0.
0.68001 0.0970124 0.
0.68201 0.0970136 0.
0.684011 0.0970148 0.
0.686011 0.0970158 0.
0.688011 0.0970168 0.
0.690012 0.0970175 0.
0.692012 0.0970179 0.
0.694013 0.0970183 0.
0.696013 0.0970195 0.
0.698013 0.0970208 0.
0.499994 0.0990255 0.
0.501994 0.099024 0.
0.503993 0.0990224 0.
0.505993 0.0990208 0.
0.507993 0.0990193 0.
0.509993 0.0990179 0.
0.511993 0.0990163 0.
0.513993 0.0990147 0.
0.515993 0.099013 0.
0.517993 0.0990111 0.
0.519994 0.0990092 0.
0.521994 0.0990072 0.
0.523993 0.099006 0.
0.525992 0.099005 0.
0.527992 0.0990039 0.
0.529992 0.0990028 0.
0.531993 0.0990017 0.
0.533993 0.0990004 0.
0.535993 0.0989987 0.
0.537993 0.0989971 0.
0.539994 0.0989958 0.
0.541995 0.0989949 0.
0.543995 0.098994 0.
0.545996 0.0989926 0.
0.547996 0.0989911 0.
0.549996 0.0989896 0.
0.551997 0.0989887 0.
0.553997 0.0989879 0.
0.555997 0.0989869 0.
0.557997 0.0989852 0.
0.559997 0.0989836 0.
0.561996 0.0989824 0.
0.563997 0.0989817 0.
0.565997 0.0989811 0.
0.567997 0.09898 0.
0.569998 0.0989785 0.
0.571998 0.0989771 0.
0.573998 0.0989762 0.
0.575999 0.0989753 0.
0.577999 0.0989744 0.
0.579999 0.0989732 0.
0.581999 0.0989719 0.
0.583999 0.0989711 0.
0.585999 0.0989713 0.
0.587999 0.0989715 0.
0.589999 0.0989712 0.
0.592 0.0989704 0.
0.594 0.0989696 0.
0.596 0.0989699 0.
0.598001 0.0989706 0.
0.600001 0.0989712 0.
0.602001 0.0989709 0.
0.604001 0.0989706 0.
0.606001 0.0989704 0.
0.608001 0.098971 0.
0.610002 0.0989715 0.
0.612002 0.0989722 0.
0.614002 0.0989728 0.
0.616003 0.0989735 0.
0.618003 0.0989742 0.
0.620003 0.0989748 0.
0.622002 0.0989755 0.
0.624003 0.0989769 0.
0.626004 0.0989783 0.
0.628005 0.0989798 0.
0.630005 0.0989805 0.
0.632005 0.0989813 0.
0.634006 0.0989822 0.
0.636006 0.0989833 0.
0.638006 0.0989844 0.
0.640006 0.0989853 0.
0.642006 0.0989858 0.
0.644006 0.0989864 0.
0.646006 0.0989876 0.
0.648005 0.0989889 0.
0.650005 0.0989902 0.
0.652005 0.0989914 0.
0.654006 0.0989927 0.
0.656006 0.0989939 0.
0.658006 0.098995 0.
0.660006 0.098996 0.
0.662006 0.0989976 0.
0.664006 0.0989997 0.
0.666006 0.0990018 0.
0.668006 0.0990034 0.
0.670007 0.0990047 0.
0.672008 0.099006 0.
0.674008 0.0990079 0.
0.676009 0.0990098 0.
0.67801 0.0990117 0.
0.68001 0.099013 0.
0.68201 0.0990143 0.
0.68401 0.0990154 0.
0.68601 0.0990157 0.
0.68801 0.0990161 0.
0.690011 0.0990166 0.
0.692011 0.0990172 0.
0.694011 0.0990178 0.
0.696012 0.0990191 0.
0.698012 0.0990207 0.
CELLS 5000 10000
1 0
1 1
1 2
1 3
1 4
1 5
1 6
1 7
1 8
1 9
1 10
1 11
1 12
1 13
1 14
1 15
1 16
1 17
1 18
1 19
1 20
1 21
1 22
1 23
1 24
1 25
1 26
1 27
1 28
1 29
1 30
1 31
1 32
1 33
1 34
1 35
1 36
1 37
1 38
1 39
1 40
1 41
1 42
1 43
1 44
1 45
1 46
1 47
1 48
1 49
1 50
1 51
1 52
1 53
1 54
1 55
1 56
1 57
1 58
1 59
1 60
1 61
1 62
1 63
1 64
1 65
1 66
1 67
1 68
1 69
1 70
1 71
1 72
1 73
1 74
1 75
1 76
1 77
1 78
1 79
1 80
1 81
1 82
1 83
1 84
1 85
1 86
1 87
1 88
1 89
1 90
1 91
1 92
1 93
1 94
1 95
1 96
1 97
1 98
1 99
1 100
1 101
1 102
1 103
1 104
1 105
1 106
1 107
1 108
1 109
1 110
1 111
1 112
1 113
1 114
1 115
1 116
1 117
1 118
1 119
1 120
1 121
1 122
1 123
1 124
1 125
1 126
1 127
1 128
1 129
1 130
1 131
1 132
1 133
1 134
1 135
1 136
1 137
1 138
1 139
1 140
1 141
1 142
1 143
1 144
1 145
1 146
1 147
1 148
1 149
1 150
1 151
1 152
1 153
1 154
1 155
1 156
1 157
1 158
1 159
1 160
1 161
1 162
1 163
1 164
1 165
1 166
1 167
1 168
1 169
1 170
1 171
1 172
1 173
1 174
1 175
1 176
1 177
1 178
1 179
1 180
1 181
1 182
1 183
1 184
1 185
1 186
1 187
1 188
1 189
1 190
1 191
1 192
1 193
1 194
1 195
1 196
1 197
1 198
1 199
1 200
1 201
1 202
1 203
1 204
1 205
1 206
1 207
1 208
1 209
1 210
1 211
1 212
1 213
1 214
1 215
1 216
1 217
1 218
1 219
1 220
1 221
1 222
1 223
1 224
1 225
1 226
1 227
1 228
1 229
1 230
1 231
1 232
1 233
1 234
1 235
1 236
1 237
1 238
1 239
1 240
1 241
1 242
1 243
1 244
1 245
1 246
1 247
1 248
1 249
1 250
1 251
1 252
1 253
1 254
1 255
1 256
1 257
1 258
1 259
1 260
1 261
1 262
1 263
1 264
1 265
1 266
1 267
1 268
1 269
1 270
1 271
1 272
1 273
1 274
1 275
1 276
1 277
1 278
1 279
1 280
1 281
1 282
1 283
1 284
1 285
1 286
1 287
1 288
1 289
1 290
1 291
1 292
1 293
1 294
1 295
1 296
1 297
1 298
1 299
1 300
1 301
1 302
1 303
1 304
1 305
1 306
1 307
1 308
1 309
1 310
1 311
1 312
1 313
1 314
1 315
1 316
1 317
1 318
1 319
1 320
1 321
1 322
1 323
1 324
1 325
1 326
1 327
1 328
1 329
1 330
1 331
1 332
1 333
1 334
1 335
1 336
1 337
1 338
1 339
1 340
1 341
1 342
1 343
1 344
1 345
1 346
1 347
1 348
1 349
1 350
1 351
1 352
1 353
1 354
1 355
1 356
1 357
1 358
1 359
1 360
1 361
1 362
1 363
1 364
1 365
1 366
1 367
1 368
1 369
1 370
1 371
1 372
1 373
1 374
1 375
1 376
1 377
1 378
1 379
1 380
1 381
1 382
1 383
1 384
1 385
1 386
1 387
1 388
1 389
1 390
1 391
1 392
1 393
1 394
1 395
1 396
1 397
1 398
1 399
1 400
1 401
1 402
1 403
1 404
1 405
1 406
1 407
1 408
1 409
1 410
1 411
1 412
1 413
1 414
1 415
1 416
1 417
1 418
1 419
1 420
1 421
1 422
1 423
1 424
1 425
1 426
1 427
1 428
1 429
1 430
1 431
1 432
1 433
1 434
1 435
1 436
1 437
1 438
1 439
1 440
1 441
1 442
1 443
1 444
1 445
1 446
1 447
1 448
1 449
1 450
1 451
1 452
1 453
1 454
1 455
1 456
1 457
1 458
1 459
1 460
1 461
1 462
1 463
1 464
1 465
1 466
1 467
1 468
1 469
1 470
1 471
1 472
1 473
1 474
1 475
1 476
1 477
1 478
1 479
1 480
1 481
1 482
1 483
1 484
1 485
1 486
1 487
1 488
1 489
1 490
1 491
1 492
1 493
1 494
1 495
1 496
1 497
1 498
1 499
1 500
1 501
1 502
1 503
1 504
1 505
1 506
1 507
1 508
1 509
1 510
1 511
1 512
1 513
1 514
1 515
1 516
1 517
1 518
1 519
1 520
1 521
1 522
1 523
1 524
1 525
1 526
1 527
1 528
1 529
1 530
1 531
1 532
1 533
1 534
1 535
1 536
1 537
1 538
1 539
1 540
1 541
1 542
1 543
1 544
1 545
1 546
1 547
1 548
1 549
1 550
1 551
1 552
1 553
1 554
1 555
1 556
1 557
1 558
1 559
1 560
1 561
1 562
1 563
1 564
1 565
1 566
1 567
1 568
1 569
1 570
1 571
1 572
1 573
1 574
1 575
1 576
1 577
1 578
1 579
1 580
1 581
1 582
1 583
1 584
1 585
1 586
1 587
1 588
1 589
1 590
1 591
1 592
1 593
1 594
1 595
1 596
1 597
1 598
1 599
1 600
1 601
1 602
1 603
1 604
1 605
1 606
1 607
1 608
1 609
1 610
1 611
1 612
1 613
1 614
1 615
1 616
1 617
1 618
1 619
1 620
1 621
1 622
1 623
1 624
1 625
1 626
1 627
1 628
1 629
1 630
1 631
1 632
1 633
1 634
1 635
1 636
1 637
1 638
1 639
1 640
1 641
1 642
1 643
1 644
1 645
1 646
1 647
1 648
1 649
1 650
1 651
1 652
1 653
1 654
1 655
1 656
1 657
1 658
1 659
1 660
1 661
1 662
1 663
1 664
1 665
1 666
1 667
1 668
1 669
1 670
1 671
1 672
1 673
1 674
1 675
1 676
1 677
1 678
1 679
1 680
1 681
1 682
1 683
1 684
1 685
1 686
1 687
1 688
1 689
1 690
1 691
1 692
1 693
1 694
1 695
1 696
1 697
1 698
1 699
1 700
1 701
1 702
1 703
1 704
1 705
1 706
1 707
1 708
1 709
1 710
1 711
1 712
1 713
1 714
1 715
1 716
1 717
1 718
1 719
1 720
1 721
1 722
1 723
1 724
1 725
1 726
1 727
1 728
1 729
1 730
1 731
1 732
1 733
1 734
1 735
1 736
1 737
1 738
1 739
1 740
1 741
1 742
1 743
1 744
1 745
1 746
1 747
1 748
1 749
1 750
1 751
1 752
1 753
1 754
1 755
1 756
1 757
1 758
1 759
1 760
1 761
1 762
1 763
1 764
1 765
1 766
1 767
1 768
1 769
1 770
1 771
1 772
1 773
1 774
1 775
1 776
1 777
1 778
1 779
1 780
1 781
1 782
1 783
1 784
1 785
1 786
1 787
1 788
1 789
1 790
1 791
1 792
1 793
1 794
1 795
1 796
1 797
1 798
1 799
1 800
1 801
1 802
1 803
1 804
1 805
1 806
1 807
1 808
1 809
1 810
1 811
1 812
1 813
1 814
1 815
1 816
1 817
1 818
1 819
1 820
1 821
1 822
1 823
1 824
1 825
1 826
1 827
1 828
1 829
1 830
1 831
1 832
1 833
1 834
1 835
1 836
1 837
1 838
1 839
1 840
1 841
1 842
1 843
1 844
1 845
1 846
1 847
1 848
1 849
1 850
1 851
1 852
1 853
1 854
1 855
1 856
1 857
1 858
1 859
1 860
1 861
1 862
1 863
1 864
1 865
1 866
1 867
1 868
1 869
1 870
1 871
1 872
1 873
1 874
1 875
1 876
1 877
1 878
1 879
1 880
1 881
1 882
1 883
1 884
1 885
1 886
1 887
1 888
1 889
1 890
1 891
1 892
1 893
1 894
1 895
1 896
1 897
1 898
1 899
1 900
1 901
1 902
1 903
1 904
1 905
1 906
1 907
1 908
1 909
1 910
1 911
1 912
1 913
1 914
1 915
1 916
1 917
1 918
1 919
1 920
1 921
1 922
1 923
1 924
1 925
1 926
1 927
1 928
1 929
1 930
1 931
1 932
1 933
1 934
1 935
1 936
1 937
1 938
1 939
1 940
1 941
1 942
1 943
1 944
1 945
1 946
1 947
1 948
1 949
1 950
1 951
1 952
1 953
1 954
1 955
1 956
1 957
1 958
1 959
1 960
1 961
1 962
1 963
1 964
1 965
1 966
1 967
1 968
1 969
1 970
1 971
1 972
1 973
1 974
1 975
1 976
1 977
1 978
1 979
1 980
1 981
1 982
1 983
1 984
1 985
1 986
1 987
1 988
1 989
1 990
1 991
1 992
1 993
1 994
1 995
1 996
1 997
1 998
1 999
1 1000
1 1001
1 1002
1 1003
1 1004
1 1005
1 1006
1 1007
1 1008
1 1009
1 1010
1 1011
1 1012
1 1013
1 1014
1 1015
1 1016
1 1017
1 1018
1 1019
1 1020
1 1021
1 1022
1 1023
1 1024
1 1025
1 1026
1 1027
1 1028
1 1029
1 1030
1 1031
1 1032
1 1033
1 1034
1 1035
1 1036
1 1037
1 1038
1 1039
1 1040
1 1041
1 1042
1 1043
1 1044
1 1045
1 1046
1 1047
1 1048
1 1049
1 1050
1 1051
1 1052
1 1053
1 1054
1 1055
1 1056
1 1057
1 1058
1 1059
1 1060
1 1061
1 1062
1 1063
1 1064
1 1065
1 1066
1 1067
1 1068
1 1069
1 1070
1 1071
1 1072
1 1073
1 1074
1 1075
1 1076
1 1077
1 1078
1 1079
1 1080
1 1081
1 1082
1 1083
1 1084
1 1085
1 1086
1 1087
1 1088
1 1089
1 1090
1 1091
1 1092
1 1093
1 1094
1 1095
1 1096
1 1097
1 1098
1 1099
1 1100
1 1101
1 1102
1 1103
1 1104
1 1105
1 1106
1 1107
1 1108
1 1109
1 1110
1 1111
1 1112
1 1113
1 1114
1 1115
1 1116
1 1117
1 1118
1 1119
1 1120
1 1121
1 1122
1 1123
1 1124
1 1125
1 1126
1 1127
1 1128
1 1129
1 1130
1 1131
1 1132
1 1133
1 1134
1 1135
1 1136
1 1137
1 1138
1 1139
1 1140
1 1141
1 1142
1 1143
1 1144
1 1145
1 1146
1 1147
1 1148
1 1149
1 1150
1 1151
1 1152
1 1153
1 1154
1 1155
1 1156
1 1157
1 1158
1 1159
1 1160
1 1161
1 1162
1 1163
1 1164
1 1165
1 1166
1 1167
1 1168
1 1169
1 1170
1 1171
1 1172
1 1173
1 1174
1 1175
1 1176
1 1177
1 1178
1 1179
1 1180
1 1181
1 1182
1 1183
1 1184
1 1185
1 1186
1 1187
1 1188
1 1189
1 1190
1 1191
1 1192
1 1193
1 1194
1 1195
1 1196
1 1197
1 1198
1 1199
1 1200
1 1201
1 1202
1 1203
1 1204
1 1205
1 1206
1 1207
1 1208
1 1209
1 1210
1 1211
1 1212
1 1213
1 1214
1 1215
1 1216
1 1217
1 1218
1 1219
1 1220
1 1221
1 1222
1 1223
1 1224
1 1225
1 1226
1 1227
1 1228
1 1229
1 1230
1 1231
1 1232
1 1233
1 1234
1 1235
1 1236
1 1237
1 1238
1 1239
1 1240
1 1241
1 1242
1 1243
1 1244
1 1245
1 1246
1 1247
1 1248
1 1249
1 1250
1 1251
1 1252
1 1253
1 1254
1 1255
1 1256
1 1257
1 1258
1 1259
1 1260
1 1261
1 1262
1 1263
1 1264
1 1265
1 1266
1 1267
1 1268
1 1269
1 1270
1 1271
1 1272
1 1273
1 1274
1 1275
1 1276
1 1277
1 1278
1 1279
1 1280
1 1281
1 1282
1 1283
1 1284
1 1285
1 1286
1 1287
1 1288
1 1289
1 1290
1 1291
1 1292
1 1293
1 1294
1 1295
1 1296
1 1297
1 1298
1 1299
1 1300
1 1301
1 1302
1 1303
1 1304
1 1305
1 1306
1 1307
1 1308
1 1309
1 1310
1 1311
1 1312
1 1313
1 1314
1 1315
1 1316
1 1317
1 1318
1 1319
1 1320
1 1321
1 1322
1 1323
1 1324
1 1325
1 1326
1 1327
1 1328
1 1329
1 1330
1 1331
1 1332
1 1333
1 1334
1 1335
1 1336
1 1337
1 1338
1 1339
1 1340
1 1341
1 1342
1 1343
1 1344
1 1345
1 1346
1 1347
1 1348
1 1349
1 1350
1 1351
1 1352
1 1353
1 1354
1 1355
1 1356
1 1357
1 1358
1 1359
1 1360
1 1361
1 1362
1 1363
1 1364
1 1365
1 1366
1 1367
1 1368
1 1369
1 1370
1 1371
1 1372
1 1373
1 1374
1 1375
1 1376
1 1377
1 1378
1 1379
1 1380
1 1381
1 1382
1 1383
1 1384
1 1385
1 1386
1 1387
1 1388
1 1389
1 1390
1 1391
1 1392
1 1393
1 1394
1 1395
1 1396
1 1397
1 1398
1 1399
1 1400
1 1401
1 1402
1 1403
1 1404
1 1405
1 1406
1 1407
1 1408
1 1409
1 1410
1 1411
1 1412
1 1413
1 1414
1 1415
1 1416
1 1417
1 1418
1 1419
1 1420
1 1421
1 1422
1 1423
1 1424
1 1425
1 1426
1 1427
1 1428
1 1429
1 1430
1 1431
1 1432
1 1433
1 1434
1 1435
1 1436
1 1437
1 1438
1 1439
1 1440
1 1441
1 1442
1 1443
1 1444
1 1445
1 1446
1 1447
1 1448
1 1449
1 1450
1 1451
1 1452
1 1453
1 1454
1 1455
1 1456
1 1457
1 1458
1 1459
1 1460
1 1461
1 1462
1 1463
1 1464
1 1465
1 1466
1 1467
1 1468
1 1469
1 1470
1 1471
1 1472
1 1473
1 1474
1 1475
1 1476
1 1477
1 1478
1 1479
1 1480
1 1481
1 1482
1 1483
1 1484
1 1485
1 1486
1 1487
1 1488
1 1489
1 1490
1 1491
1 1492
1 1493
1 1494
1 1495
1 1496
1 1497
1 1498
1 1499
1 1500
1 1501
1 1502
1 1503
1 1504
1 1505
1 1506
1 1507
1 1508
1 1509
1 1510
1 1511
1 1512
1 1513
1 1514
1 1515
1 1516
1 1517
1 1518
1 1519
1 1520
1 1521
1 1522
1 1523
1 1524
1 1525
1 1526
1 1527
1 1528
1 1529
1 1530
1 1531
1 1532
1 1533
1 1534
1 1535
1 1536
1 1537
1 1538
1 1539
1 1540
1 1541
1 1542
1 1543
1 1544
1 1545
1 1546
1 1547
1 1548
1 1549
1 1550
1 1551
1 1552
1 1553
1 1554
1 1555
1 1556
1 1557
1 1558
1 1559
1 1560
1 1561
1 1562
1 1563
1 1564
1 1565
1 1566
1 1567
1 1568
1 1569
1 1570
1 1571
1 1572
1 1573
1 1574
1 1575
1 1576
1 1577
1 1578
1 1579
1 1580
1 1581
1 1582
1 1583
1 1584
1 1585
1 1586
1 1587
1 1588
1 1589
1 1590
1 1591
1 1592
1 1593
1 1594
1 1595
1 1596
1 1597
1 1598
1 1599
1 1600
1 1601
1 1602
1 1603
1 1604
1 1605
1 1606
1 1607
1 1608
1 1609
1 1610
1 1611
1 1612
1 1613
1 1614
1 1615
1 1616
1 1617
1 1618
1 1619
1 1620
1 1621
1 1622
1 1623
1 1624
1 1625
1 1626
1 1627
1 1628
1 1629
1 1630
1 1631
1 1632
1 1633
1 1634
1 1635
1 1636
1 1637
1 1638
1 1639
1 1640
1 1641
1 1642
1 1643
1 1644
1 1645
1 1646
1 1647
1 1648
1 1649
1 1650
1 1651
1 1652
1 1653
1 1654
1 1655
1 1656
1 1657
1 1658
1 1659
1 1660
1 1661
1 1662
1 1663
1 1664
1 1665
1 1666
1 1667
1 1668
1 1669
1 1670
1 1671
1 1672
1 1673
1 1674
1 1675
1 1676
1 1677
1 1678
1 1679
1 1680
1 1681
1 1682
1 1683
1 1684
1 1685
1 1686
1 1687
1 1688
1 1689
1 1690
1 1691
1 1692
1 1693
1 1694
1 1695
1 1696
1 1697
1 1698
1 1699
1 1700
1 1701
1 1702
1 1703
1 1704
1 1705
1 1706
1 1707
1 1708
1 1709
1 1710
1 1711
1 1712
1 1713
1 1714
1 1715
1 1716
1 1717
1 1718
1 1719
1 1720
1 1721
1 1722
1 1723
1 1724
1 1725
1 1726
1 1727
1 1728
1 1729
1 1730
1 1731
1 1732
1 1733
1 1734
1 1735
1 1736
1 1737
1 1738
1 1739
1 1740
1 1741
1 1742
1 1743
1 1744
1 1745
1 1746
1 1747
1 1748
1 1749
1 1750
1 1751
1 1752
1 1753
1 1754
1 1755
1 1756
1 1757
1 1758
1 1759
1 1760
1 1761
1 1762
1 1763
1 1764
1 1765
1 1766
1 1767
1 1768
1 1769
1 1770
1 1771
1 1772
1 1773
1 1774
1 1775
1 1776
1 1777
1 1778
1 1779
1 1780
1 1781
1 1782
1 1783
1 1784
1 1785
1 1786
1 1787
1 1788
1 1789
1 1790
1 1791
1 1792
1 1793
1 1794
1 1795
1 1796
1 1797
1 1798
1 1799
1 1800
1 1801
1 1802
1 1803
1 1804
1 1805
1 1806
1 1807
1 1808
1 1809
1 1810
1 1811
1 1812
1 1813
1 1814
1 1815
1 1816
1 1817
1 1818
1 1819
1 1820
1 1821
1 1822
1 1823
1 1824
1 1825
1 1826
1 1827
1 1828
1 1829
1 1830
1 1831
1 1832
1 1833
1 1834
1 1835
1 1836
1 1837
1 1838
1 1839
1 1840
1 1841
1 1842
1 1843
1 1844
1 1845
1 1846
1 1847
1 1848
1 1849
1 1850
1 1851
1 1852
1 1853
1 1854
1 1855
1 1856
1 1857
1 1858
1 1859
1 1860
1 1861
1 1862
1 1863
1 1864
1 1865
1 1866
1 1867
1 1868
1 1869
1 1870
1 1871
1 1872
1 1873
1 1874
1 1875
1 1876
1 1877
1 1878
1 1879
1 1880
1 1881
1 1882
1 1883
1 1884
1 1885
1 1886
1 1887
1 1888
1 1889
1 1890
1 1891
1 1892
1 1893
1 1894
1 1895
1 1896
1 1897
1 1898
1 1899
1 1900
1 1901
1 1902
1 1903
1 1904
1 1905
1 1906
1 1907
1 1908
1 1909
1 1910
1 1911
1 1912
1 1913
1 1914
1 1915
1 1916
1 1917
1 1918
1 1919
1 1920
1 1921
1 1922
1 1923
1 1924
1 1925
1 1926
1 1927
1 1928
1 1929
1 1930
1 1931
1 1932
1 1933
1 1934
1 1935
1 1936
1 1937
1 1938
1 1939
1 1940
1 1941
1 1942
1 1943
1 1944
1 1945
1 1946
1 1947
1 1948
1 1949
1 1950
1 1951
1 1952
1 1953
1 1954
1 1955
1 1956
1 1957
1 1958
1 1959
1 1960
1 1961
1 1962
1 1963
1 1964
1 1965
1 1966
1 1967
1 1968
1 1969
1 1970
1 1971
1 1972
1 1973
1 1974
1 1975
1 1976
1 1977
1 1978
1 1979
1 1980
1 1981
1 1982
1 1983
1 1984
1 1985
1 1986
1 1987
1 1988
1 1989
1 1990
1 1991
1 1992
1 1993
1 1994
1 1995
1 1996
1 1997
1 1998
1 1999
1 2000
1 2001
1 2002
1 2003
1 2004
1 2005
1 2006
1 2007
1 2008
1 2009
1 2010
1 2011
1 2012
1 2013
1 2014
1 2015
1 2016
1 2017
1 2018
1 2019
1 2020
1 2021
1 2022
1 2023
1 2024
1 2025
1 2026
1 2027
1 2028
1 2029
1 2030
1 2031
1 2032
1 2033
1 2034
1 2035
1 2036
1 2037
1 2038
1 2039
1 2040
1 2041
1 2042
1 2043
1 2044
1 2045
1 2046
1 2047
1 2048
1 2049
1 2050
1 2051
1 2052
1 2053
1 2054
1 2055
1 2056
1 2057
1 2058
1 2059
1 2060
1 2061
1 2062
1 2063
1 2064
1 2065
1 2066
1 2067
1 2068
1 2069
1 2070
1 2071
1 2072
1 2073
1 2074
1 2075
1 2076
1 2077
1 2078
1 2079
1 2080
1 2081
1 2082
1 2083
1 2084
1 2085
1 2086
1 2087
1 2088
1 2089
1 2090
1 2091
1 2092
1 2093
1 2094
1 2095
1 2096
1 2097
1 2098
1 2099
1 2100
1 2101
1 2102
1 2103
1 2104
1 2105
1 2106
1 2107
1 2108
1 2109
1 2110
1 2111
1 2112
1 2113
1 2114
1 2115
1 2116
1 2117
1 2118
1 2119
1 2120
1 2121
1 2122
1 2123
1 2124
1 2125
1 2126
1 2127
1 2128
1 2129
1 2130
1 2131
1 2132
1 2133
1 2134
1 2135
1 2136
1 2137
1 2138
1 2139
1 2140
1 2141
1 2142
1 2143
1 2144
1 2145
1 2146
1 2147
1 2148
1 2149
1 2150
1 2151
1 2152
1 2153
1 2154
1 2155
1 2156
1 2157
1 2158
1 2159
1 2160
1 2161
1 2162
1 2163
1 2164
1 2165
1 2166
1 2167
1 2168
1 2169
1 2170
1 2171
1 2172
1 2173
1 2174
1 2175
1 2176
1 2177
1 2178
1 2179
1 2180
1 2181
1 2182
1 2183
1 2184
1 2185
1 2186
1 2187
1 2188
1 2189
1 2190
1 2191
1 2192
1 2193
1 2194
1 2195
1 2196
1 2197
1 2198
1 2199
1 2200
1 2201
1 2202
1 2203
1 2204
1 2205
1 2206
1 2207
1 2208
1 2209
1 2210
1 2211
1 2212
1 2213
1 2214
1 2215
1 2216
1 2217
1 2218
1 2219
1 2220
1 2221
1 2222
1 2223
1 2224
1 2225
1 2226
1 2227
1 2228
1 2229
1 2230
1 2231
1 2232
1 2233
1 2234
1 2235
1 2236
1 2237
1 2238
1 2239
1 2240
1 2241
1 2242
1 2243
1 2244
1 2245
1 2246
1 2247
1 2248
1 2249
1 2250
1 2251
1 2252
1 2253
1 2254
1 2255
1 2256
1 2257
1 2258
1 2259
1 2260
1 2261
1 2262
1 2263
1 2264
1 2265
1 2266
1 2267
1 2268
1 2269
1 2270
1 2271
1 2272
1 2273
1 2274
1 2275
1 2276
1 2277
1 2278
1 2279
1 2280
1 2281
1 2282
1 2283
1 2284
1 2285
1 2286
1 2287
1 2288
1 2289
1 2290
1 2291
1 2292
1 2293
1 2294
1 2295
1 2296
1 2297
1 2298
1 2299
1 2300
1 2301
1 2302
1 2303
1 2304
1 2305
1 2306
1 2307
1 2308
1 2309
1 2310
1 2311
1 2312
1 2313
1 2314
1 2315
1 2316
1 2317
1 2318
1 2319
1 2320
1 2321
1 2322
1 2323
1 2324
1 2325
1 2326
1 2327
1 2328
1 2329
1 2330
1 2331
1 2332
1 2333
1 2334
1 2335
1 2336
1 2337
1 2338
1 2339
1 2340
1 2341
1 2342
1 2343
1 2344
1 2345
1 2346
1 2347
1 2348
1 2349
1 2350
1 2351
1 2352
1 2353
1 2354
1 2355
1 2356
1 2357
1 2358
1 2359
1 2360
1 2361
1 2362
1 2363
1 2364
1 2365
1 2366
1 2367
1 2368
1 2369
1 2370
1 2371
1 2372
1 2373
1 2374
1 2375
1 2376
1 2377
1 2378
1 2379
1 2380
1 2381
1 2382
1 2383
1 2384
1 2385
1 2386
1 2387
1 2388
1 2389
1 2390
1 2391
1 2392
1 2393
1 2394
1 2395
1 2396
1 2397
1 2398
1 2399
1 2400
1 2401
1 2402
1 2403
1 2404
1 2405
1 2406
1 2407
1 2408
1 2409
1 2410
1 2411
1 2412
1 2413
1 2414
1 2415
1 2416
1 2417
1 2418
1 2419
1 2420
1 2421
1 2422
1 2423
1 2424
1 2425
1 2426
1 2427
1 2428
1 2429
1 2430
1 2431
1 2432
1 2433
1 2434
1 2435
1 2436
1 2437
1 2438
1 2439
1 2440
1 2441
1 2442
1 2443
1 2444
1 2445
1 2446
1 2447
1 2448
1 2449
1 2450
1 2451
1 2452
1 2453
1 2454
1 2455
1 2456
1 2457
1 2458
1 2459
1 2460
1 2461
1 2462
1 2463
1 2464
1 2465
1 2466
1 2467
1 2468
1 2469
1 2470
1 2471
1 2472
1 2473
1 2474
1 2475
1 2476
1 2477
1 2478
1 2479
1 2480
1 2481
1 2482
1 2483
1 2484
1 2485
1 2486
1 2487
1 2488
1 2489
1 2490
1 2491
1 2492
1 2493
1 2494
1 2495
1 2496
1 2497
1 2498
1 2499
1 2500
1 2501
1 2502
1 2503
1 2504
1 2505
1 2506
1 2507
1 2508
1 2509
1 2510
1 2511
1 2512
1 2513
1 2514
1 2515
1 2516
1 2517
1 2518
1 2519
1 2520
1 2521
1 2522
1 2523
1 2524
1 2525
1 2526
1 2527
1 2528
1 2529
1 2530
1 2531
1 2532
1 2533
1 2534
1 2535
1 2536
1 2537
1 2538
1 2539
1 2540
1 2541
1 2542
1 2543
1 2544
1 2545
1 2546
1 2547
1 2548
1 2549
1 2550
1 2551
1 2552
1 2553
1 2554
1 2555
1 2556
1 2557
1 2558
1 2559
1 2560
1 2561
1 2562
1 2563
1 2564
1 2565
1 2566
1 2567
1 2568
1 2569
1 2570
1 2571
1 2572
1 2573
1 2574
1 2575
1 2576
1 2577
1 2578
1 2579
1 2580
1 2581
1 2582
1 2583
1 2584
1 2585
1 2586
1 2587
1 2588
1 2589
1 2590
1 2591
1 2592
1 2593
1 2594
1 2595
1 2596
1 2597
1 2598
1 2599
1 2600
1 2601
1 2602
1 2603
1 2604
1 2605
1 2606
1 2607
1 2608
1 2609
1 2610
1 2611
1 2612
1 2613
1 2614
1 2615
1 2616
1 2617
1 2618
1 2619
1 2620
1 2621
1 2622
1 2623
1 2624
1 2625
1 2626
1 2627
1 2628
1 2629
1 2630
1 2631
1 2632
1 2633
1 2634
1 2635
1 2636
1 2637
1 2638
1 2639
1 2640
1 2641
1 2642
1 2643
1 2644
1 2645
1 2646
1 2647
1 2648
1 2649
1 2650
1 2651
1 2652
1 2653
1 2654
1 2655
1 2656
1 2657
1 2658
1 2659
1 2660
1 2661
1 2662
1 2663
1 2664
1 2665
1 2666
1 2667
1 2668
1 2669
1 2670
1 2671
1 2672
1 2673
1 2674
1 2675
1 2676
1 2677
1 2678
1 2679
1 2680
1 2681
1 2682
1 2683
1 2684
1 2685
1 2686
1 2687
1 2688
1 2689
1 2690
1 2691
1 2692
1 2693
1 2694
1 2695
1 2696
1 2697
1 2698
1 2699
1 2700
1 2701
1 2702
1 2703
1 2704
1 2705
1 2706
1 2707
1 2708
1 2709
1 2710
1 2711
1 2712
1 2713
1 2714
1 2715
1 2716
1 2717
1 2718
1 2719
1 2720
1 2721
1 2722
1 2723
1 2724
1 2725
1 2726
1 2727
1 2728
1 2729
1 2730
1 2731
1 2732
1 2733
1 2734
1 2735
1 2736
1 2737
1 2738
1 2739
1 2740
1 2741
1 2742
1 2743
1 2744
1 2745
1 2746
1 2747
1 2748
1 2749
1 2750
1 2751
1 2752
1 2753
1 2754
1 2755
1 2756
1 2757
1 2758
1 2759
1 2760
1 2761
1 2762
1 2763
1 2764
1 2765
1 2766
1 2767
1 2768
1 2769
1 2770
1 2771
1 2772
1 2773
1 2774
1 2775
1 2776
1 2777
1 2778
1 2779
1 2780
1 2781
1 2782
1 2783
1 2784
1 2785
1 2786
1 2787
1 2788
1 2789
1 2790
1 2791
1 2792
1 2793
1 2794
1 2795
1 2796
1 2797
1 2798
1 2799
1 2800
1 2801
1 2802
1 2803
1 2804
1 2805
1 2806
1 2807
1 2808
1 2809
1 2810
1 2811
1 2812
1 2813
1 2814
1 2815
1 2816
1 2817
1 2818
1 2819
1 2820
1 2821
1 2822
1 2823
1 2824
1 2825
1 2826
1 2827
1 2828
1 2829
1 2830
1 2831
1 2832
1 2833
1 2834
1 2835
1 2836
1 2837
1 2838
1 2839
1 2840
1 2841
1 2842
1 2843
1 2844
1 2845
1 2846
1 2847
1 2848
1 2849
1 2850
1 2851
1 2852
1 2853
1 2854
1 2855
1 2856
1 2857
1 2858
1 2859
1 2860
1 2861
1 2862
1 2863
1 2864
1 2865
1 2866
1 2867
1 2868
1 2869
1 2870
1 2871
1 2872
1 2873
1 2874
1 2875
1 2876
1 2877
1 2878
1 2879
1 2880
1 2881
1 2882
1 2883
1 2884
1 2885
1 2886
1 2887
1 2888
1 2889
1 2890
1 2891
1 2892
1 2893
1 2894
1 2895
1 2896
1 2897
1 2898
1 2899
1 2900
1 2901
1 2902
1 2903
1 2904
1 2905
1 2906
1 2907
1 2908
1 2909
1 2910
1 2911
1 2912
1 2913
1 2914
1 2915
1 2916
1 2917
1 2918
1 2919
1 2920
1 2921
1 2922
1 2923
1 2924
1 2925
1 2926
1 2927
1 2928
1 2929
1 2930
1 2931
1 2932
1 2933
1 2934
1 2935
1 2936
1 2937
1 2938
1 2939
1 2940
1 2941
1 2942
1 2943
1 2944
1 2945
1 2946
1 2947
1 2948
1 2949
1 2950
1 2951
1 2952
1 2953
1 2954
1 2955
1 2956
1 2957
1 2958
1 2959
1 2960
1 2961
1 2962
1 2963
1 2964
1 2965
1 2966
1 2967
1 2968
1 2969
1 2970
1 2971
1 2972
1 2973
1 2974
1 2975
1 2976
1 2977
1 2978
1 2979
1 2980
1 2981
1 2982
1 2983
1 2984
1 2985
1 2986
1 2987
1 2988
1 2989
1 2990
1 2991
1 2992
1 2993
1 2994
1 2995
1 2996
1 2997
1 2998
1 2999
1 3000
1 3001
1 3002
1 3003
1 3004
1 3005
1 3006
1 3007
1 3008
1 3009
1 3010
1 3011
1 3012
1 3013
1 3014
1 3015
1 3016
1 3017
1 3018
1 3019
1 3020
1 3021
1 3022
1 3023
1 3024
1 3025
1 3026
1 3027
1 3028
1 3029
1 3030
1 3031
1 3032
1 3033
1 3034
1 3035
1 3036
1 3037
1 3038
1 3039
1 3040
1 3041
1 3042
1 3043
1 3044
1 3045
1 3046
1 3047
1 3048
1 3049
1 3050
1 3051
1 3052
1 3053
1 3054
1 3055
1 3056
1 3057
1 3058
1 3059
1 3060
1 3061
1 3062
1 3063
1 3064
1 3065
1 3066
1 3067
1 3068
1 3069
1 3070
1 3071
1 3072
1 3073
1 3074
1 3075
1 3076
1 3077
1 3078
1 3079
1 3080
1 3081
1 3082
1 3083
1 3084
1 3085
1 3086
1 3087
1 3088
1 3089
1 3090
1 3091
1 3092
1 3093
1 3094
1 3095
1 3096
1 3097
1 3098
1 3099
1 3100
1 3101
1 3102
1 3103
1 3104
1 3105
1 3106
1 3107
1 3108
1 3109
1 3110
1 3111
1 3112
1 3113
1 3114
1 3115
1 3116
1 3117
1 3118
1 3119
1 3120
1 3121
1 3122
1 3123
1 3124
1 3125
1 3126
1 3127
1 3128
1 3129
1 3130
1 3131
1 3132
1 3133
1 3134
1 3135
1 3136
1 3137
1 3138
1 3139
1 3140
1 3141
1 3142
1 3143
1 3144
1 3145
1 3146
1 3147
1 3148
1 3149
1 3150
1 3151
1 3152
1 3153
1 3154
1 3155
1 3156
1 3157
1 3158
1 3159
1 3160
1 3161
1 3162
1 3163
1 3164
1 3165
1 3166
1 3167
1 3168
1 3169
1 3170
1 3171
1 3172
1 3173
1 3174
1 3175
1 3176
1 3177
1 3178
1 3179
1 3180
1 3181
1 3182
1 3183
1 3184
1 3185
1 3186
1 3187
1 3188
1 3189
1 3190
1 3191
1 3192
1 3193
1 3194
1 3195
1 3196
1 3197
1 3198
1 3199
1 3200
1 3201
1 3202
1 3203
1 3204
1 3205
1 3206
1 3207
1 3208
1 3209
1 3210
1 3211
1 3212
1 3213
1 3214
1 3215
1 3216
1 3217
1 3218
1 3219
1 3220
1 3221
1 3222
1 3223
1 3224
1 3225
1 3226
1 3227
1 3228
1 3229
1 3230
1 3231
1 3232
1 3233
1 3234
1 3235
1 3236
1 3237
1 3238
1 3239
1 3240
1 3241
1 3242
1 3243
1 3244
1 3245
1 3246
1 3247
1 3248
1 3249
1 3250
1 3251
1 3252
1 3253
1 3254
1 3255
1 3256
1 3257
1 3258
1 3259
1 3260
1 3261
1 3262
1 3263
1 3264
1 3265
1 3266
1 3267
1 3268
1 3269
1 3270
1 3271
1 3272
1 3273
1 3274
1 3275
1 3276
1 3277
1 3278
1 3279
1 3280
1 3281
1 3282
1 3283
1 3284
1 3285
1 3286
1 3287
1 3288
1 3289
1 3290
1 3291
1 3292
1 3293
1 3294
1 3295
1 3296
1 3297
1 3298
1 3299
1 3300
1 3301
1 3302
1 3303
1 3304
1 3305
1 3306
1 3307
1 3308
1 3309
1 3310
1 3311
1 3312
1 3313
1 3314
1 3315
1 3316
1 3317
1 3318
1 3319
1 3320
1 3321
1 3322
1 3323
1 3324
1 3325
1 3326
1 3327
1 3328
1 3329
1 3330
1 3331
1 3332
1 3333
1 3334
1 3335
1 3336
1 3337
1 3338
1 3339
1 3340
1 3341
1 3342
1 3343
1 3344
1 3345
1 3346
1 3347
1 3348
1 3349
1 3350
1 3351
1 3352
1 3353
1 3354
1 3355
1 3356
1 3357
1 3358
1 3359
1 3360
1 3361
1 3362
1 3363
1 3364
1 3365
1 3366
1 3367
1 3368
1 3369
1 3370
1 3371
1 3372
1 3373
1 3374
1 3375
1 3376
1 3377
1 3378
1 3379
1 3380
1 3381
1 3382
1 3383
1 3384
1 3385
1 3386
1 3387
1 3388
1 3389
1 3390
1 3391
1 3392
1 3393
1 3394
1 3395
1 3396
1 3397
1 3398
1 3399
1 3400
1 3401
1 3402
1 3403
1 3404
1 3405
1 3406
1 3407
1 3408
1 3409
1 3410
1 3411
1 3412
1 3413
1 3414
1 3415
1 3416
1 3417
1 3418
1 3419
1 3420
1 3421
1 3422
1 3423
1 3424
1 3425
1 3426
1 3427
1 3428
1 3429
1 3430
1 3431
1 3432
1 3433
1 3434
1 3435
1 3436
1 3437
1 3438
1 3439
1 3440
1 3441
1 3442
1 3443
1 3444
1 3445
1 3446
1 3447
1 3448
1 3449
1 3450
1 3451
1 3452
1 3453
1 3454
1 3455
1 3456
1 3457
1 3458
1 3459
1 3460
1 3461
1 3462
1 3463
1 3464
1 3465
1 3466
1 3467
1 3468
1 3469
1 3470
1 3471
1 3472
1 3473
1 3474
1 3475
1 3476
1 3477
1 3478
1 3479
1 3480
1 3481
1 3482
1 3483
1 3484
1 3485
1 3486
1 3487
1 3488
1 3489
1 3490
1 3491
1 3492
1 3493
1 3494
1 3495
1 3496
1 3497
1 3498
1 3499
1 3500
1 3501
1 3502
1 3503
1 3504
1 3505
1 3506
1 3507
1 3508
1 3509
1 3510
1 3511
1 3512
1 3513
1 3514
1 3515
1 3516
1 3517
1 3518
1 3519
1 3520
1 3521
1 3522
1 3523
1 3524
1 3525
1 3526
1 3527
1 3528
1 3529
1 3530
1 3531
1 3532
1 3533
1 3534
1 3535
1 3536
1 3537
1 3538
1 3539
1 3540
1 3541
1 3542
1 3543
1 3544
1 3545
1 3546
1 3547
1 3548
1 3549
1 3550
1 3551
1 3552
1 3553
1 3554
1 3555
1 3556
1 3557
1 3558
1 3559
1 3560
1 3561
1 3562
1 3563
1 3564
1 3565
1 3566
1 3567
1 3568
1 3569
1 3570
1 3571
1 3572
1 3573
1 3574
1 3575
1 3576
1 3577
1 3578
1 3579
1 3580
1 3581
1 3582
1 3583
1 3584
1 3585
1 3586
1 3587
1 3588
1 3589
1 3590
1 3591
1 3592
1 3593
1 3594
1 3595
1 3596
1 3597
1 3598
1 3599
1 3600
1 3601
1 3602
1 3603
1 3604
1 3605
1 3606
1 3607
1 3608
1 3609
1 3610
1 3611
1 3612
1 3613
1 3614
1 3615
1 3616
1 3617
1 3618
1 3619
1 3620
1 3621
1 3622
1 3623
1 3624
1 3625
1 3626
1 3627
1 3628
1 3629
1 3630
1 3631
1 3632
1 3633
1 3634
1 3635
1 3636
1 3637
1 3638
1 3639
1 3640
1 3641
1 3642
1 3643
1 3644
1 3645
1 3646
1 3647
1 3648
1 3649
1 3650
1 3651
1 3652
1 3653
1 3654
1 3655
1 3656
1 3657
1 3658
1 3659
1 3660
1 3661
1 3662
1 3663
1 3664
1 3665
1 3666
1 3667
1 3668
1 3669
1 3670
1 3671
1 3672
1 3673
1 3674
1 3675
1 3676
1 3677
1 3678
1 3679
1 3680
1 3681
1 3682
1 3683
1 3684
1 3685
1 3686
1 3687
1 3688
1 3689
1 3690
1 3691
1 3692
1 3693
1 3694
1 3695
1 3696
1 3697
1 3698
1 3699
1 3700
1 3701
1 3702
1 3703
1 3704
1 3705
1 3706
1 3707
1 3708
1 3709
1 3710
1 3711
1 3712
1 3713
1 3714
1 3715
1 3716
1 3717
1 3718
1 3719
1 3720
1 3721
1 3722
1 3723
1 3724
1 3725
1 3726
1 3727
1 3728
1 3729
1 3730
1 3731
1 3732
1 3733
1 3734
1 3735
1 3736
1 3737
1 3738
1 3739
1 3740
1 3741
1 3742
1 3743
1 3744
1 3745
1 3746
1 3747
1 3748
1 3749
1 3750
1 3751
1 3752
1 3753
1 3754
1 3755
1 3756
1 3757
1 3758
1 3759
1 3760
1 3761
1 3762
1 3763
1 3764
1 3765
1 3766
1 3767
1 3768
1 3769
1 3770
1 3771
1 3772
1 3773
1 3774
1 3775
1 3776
1 3777
1 3778
1 3779
1 3780
1 3781
1 3782
1 3783
1 3784
1 3785
1 3786
1 3787
1 3788
1 3789
1 3790
1 3791
1 3792
1 3793
1 3794
1 3795
1 3796
1 3797
1 3798
1 3799
1 3800
1 3801
1 3802
1 3803
1 3804
1 3805
1 3806
1 3807
1 3808
1 3809
1 3810
1 3811
1 3812
1 3813
1 3814
1 3815
1 3816
1 3817
1 3818
1 3819
1 3820
1 3821
1 3822
1 3823
1 3824
1 3825
1 3826
1 3827
1 3828
1 3829
1 3830
1 3831
1 3832
1 3833
1 3834
1 3835
1 3836
1 3837
1 3838
1 3839
1 3840
1 3841
1 3842
1 3843
1 3844
1 3845
1 3846
1 3847
1 3848
1 3849
1 3850
1 3851
1 3852
1 3853
1 3854
1 3855
1 3856
1 3857
1 3858
1 3859
1 3860
1 3861
1 3862
1 3863
1 3864
1 3865
1 3866
1 3867
1 3868
1 3869
1 3870
1 3871
1 3872
1 3873
1 3874
1 3875
1 3876
1 3877
1 3878
1 3879
1 3880
1 3881
1 3882
1 3883
1 3884
1 3885
1 3886
1 3887
1 3888
1 3889
1 3890
1 3891
1 3892
1 3893
1 3894
1 3895
1 3896
1 3897
1 3898
1 3899
1 3900
1 3901
1 3902
1 3903
1 3904
1 3905
1 3906
1 3907
1 3908
1 3909
1 3910
1 3911
1 3912
1 3913
1 3914
1 3915
1 3916
1 3917
1 3918
1 3919
1 3920
1 3921
1 3922
1 3923
1 3924
1 3925
1 3926
1 3927
1 3928
1 3929
1 3930
1 3931
1 3932
1 3933
1 3934
1 3935
1 3936
1 3937
1 3938
1 3939
1 3940
1 3941
1 3942
1 3943
1 3944
1 3945
1 3946
1 3947
1 3948
1 3949
1 3950
1 3951
1 3952
1 3953
1 3954
1 3955
1 3956
1 3957
1 3958
1 3959
1 3960
1 3961
1 3962
1 3963
1 3964
1 3965
1 3966
1 3967
1 3968
1 3969
1 3970
1 3971
1 3972
1 3973
1 3974
1 3975
1 3976
1 3977
1 3978
1 3979
1 3980
1 3981
1 3982
1 3983
1 3984
1 3985
1 3986
1 3987
1 3988
1 3989
1 3990
1 3991
1 3992
1 3993
1 3994
1 3995
1 3996
1 3997
1 3998
1 3999
1 4000
1 4001
1 4002
1 4003
1 4004
1 4005
1 4006
1 4007
1 4008
1 4009
1 4010
1 4011
1 4012
1 4013
1 4014
1 4015
1 4016
1 4017
1 4018
1 4019
1 4020
1 4021
1 4022
1 4023
1 4024
1 4025
1 4026
1 4027
1 4028
1 4029
1 4030
1 4031
1 4032
1 4033
1 4034
1 4035
1 4036
1 4037
1 4038
1 4039
1 4040
1 4041
1 4042
1 4043
1 4044
1 4045
1 4046
1 4047
1 4048
1 4049
1 4050
1 4051
1 4052
1 4053
1 4054
1 4055
1 4056
1 4057
1 4058
1 4059
1 4060
1 4061
1 4062
1 4063
1 4064
1 4065
1 4066
1 4067
1 4068
1 4069
1 4070
1 4071
1 4072
1 4073
1 4074
1 4075
1 4076
1 4077
1 4078
1 4079
1 4080
1 4081
1 4082
1 4083
1 4084
1 4085
1 4086
1 4087
1 4088
1 4089
1 4090
1 4091
1 4092
1 4093
1 4094
1 4095
1 4096
1 4097
1 4098
1 4099
1 4100
1 4101
1 4102
1 4103
1 4104
1 4105
1 4106
1 4107
1 4108
1 4109
1 4110
1 4111
1 4112
1 4113
1 4114
1 4115
1 4116
1 4117
1 4118
1 4119
1 4120
1 4121
1 4122
1 4123
1 4124
1 4125
1 4126
1 4127
1 4128
1 4129
1 4130
1 4131
1 4132
1 4133
1 4134
1 4135
1 4136
1 4137
1 4138
1 4139
1 4140
1 4141
1 4142
1 4143
1 4144
1 4145
1 4146
1 4147
1 4148
1 4149
1 4150
1 4151
1 4152
1 4153
1 4154
1 4155
1 4156
1 4157
1 4158
1 4159
1 4160
1 4161
1 4162
1 4163
1 4164
1 4165
1 4166
1 4167
1 4168
1 4169
1 4170
1 4171
1 4172
1 4173
1 4174
1 4175
1 4176
1 4177
1 4178
1 4179
1 4180
1 4181
1 4182
1 4183
1 4184
1 4185
1 4186
1 4187
1 4188
1 4189
1 4190
1 4191
1 4192
1 4193
1 4194
1 4195
1 4196
1 4197
1 4198
1 4199
1 4200
1 4201
1 4202
1 4203
1 4204
1 4205
1 4206
1 4207
1 4208
1 4209
1 4210
1 4211
1 4212
1 4213
1 4214
1 4215
1 4216
1 4217
1 4218
1 4219
1 4220
1 4221
1 4222
1 4223
1 4224
1 4225
1 4226
1 4227
1 4228
1 4229
1 4230
1 4231
1 4232
1 4233
1 4234
1 4235
1 4236
1 4237
1 4238
1 4239
1 4240
1 4241
1 4242
1 4243
1 4244
1 4245
1 4246
1 4247
1 4248
1 4249
1 4250
1 4251
1 4252
1 4253
1 4254
1 4255
1 4256
1 4257
1 4258
1 4259
1 4260
1 4261
1 4262
1 4263
1 4264
1 4265
1 4266
1 4267
1 4268
1 4269
1 4270
1 4271
1 4272
1 4273
1 4274
1 4275
1 4276
1 4277
1 4278
1 4279
1 4280
1 4281
1 4282
1 4283
1 4284
1 4285
1 4286
1 4287
1 4288
1 4289
1 4290
1 4291
1 4292
1 4293
1 4294
1 4295
1 4296
1 4297
1 4298
1 4299
1 4300
1 4301
1 4302
1 4303
1 4304
1 4305
1 4306
1 4307
1 4308
1 4309
1 4310
1 4311
1 4312
1 4313
1 4314
1 4315
1 4316
1 4317
1 4318
1 4319
1 4320
1 4321
1 4322
1 4323
1 4324
1 4325
1 4326
1 4327
1 4328
1 4329
1 4330
1 4331
1 4332
1 4333
1 4334
1 4335
1 4336
1 4337
1 4338
1 4339
1 4340
1 4341
1 4342
1 4343
1 4344
1 4345
1 4346
1 4347
1 4348
1 4349
1 4350
1 4351
1 4352
1 4353
1 4354
1 4355
1 4356
1 4357
1 4358
1 4359
1 4360
1 4361
1 4362
1 4363
1 4364
1 4365
1 4366
1 4367
1 4368
1 4369
1 4370
1 4371
1 4372
1 4373
1 4374
1 4375
1 4376
1 4377
1 4378
1 4379
1 4380
1 4381
1 4382
1 4383
1 4384
1 4385
1 4386
1 4387
1 4388
1 4389
1 4390
1 4391
1 4392
1 4393
1 4394
1 4395
1 4396
1 4397
1 4398
1 4399
1 4400
1 4401
1 4402
1 4403
1 4404
1 4405
1 4406
1 4407
1 4408
1 4409
1 4410
1 4411
1 4412
1 4413
1 4414
1 4415
1 4416
1 4417
1 4418
1 4419
1 4420
1 4421
1 4422
1 4423
1 4424
1 4425
1 4426
1 4427
1 4428
1 4429
1 4430
1 4431
1 4432
1 4433
1 4434
1 4435
1 4436
1 4437
1 4438
1 4439
1 4440
1 4441
1 4442
1 4443
1 4444
1 4445
1 4446
1 4447
1 4448
1 4449
1 4450
1 4451
1 4452
1 4453
1 4454
1 4455
1 4456
1 4457
1 4458
1 4459
1 4460
1 4461
1 4462
1 4463
1 4464
1 4465
1 4466
1 4467
1 4468
1 4469
1 4470
1 4471
1 4472
1 4473
1 4474
1 4475
1 4476
1 4477
1 4478
1 4479
1 4480
1 4481
1 4482
1 4483
1 4484
1 4485
1 4486
1 4487
1 4488
1 4489
1 4490
1 4491
1 4492
1 4493
1 4494
1 4495
1 4496
1 4497
1 4498
1 4499
1 4500
1 4501
1 4502
1 4503
1 4504
1 4505
1 4506
1 4507
1 4508
1 4509
1 4510
1 4511
1 4512
1 4513
1 4514
1 4515
1 4516
1 4517
1 4518
1 4519
1 4520
1 4521
1 4522
1 4523
1 4524
1 4525
1 4526
1 4527
1 4528
1 4529
1 4530
1 4531
1 4532
1 4533
1 4534
1 4535
1 4536
1 4537
1 4538
1 4539
1 4540
1 4541
1 4542
1 4543
1 4544
1 4545
1 4546
1 4547
1 4548
1 4549
1 4550
1 4551
1 4552
1 4553
1 4554
1 4555
1 4556
1 4557
1 4558
1 4559
1 4560
1 4561
1 4562
1 4563
1 4564
1 4565
1 4566
1 4567
1 4568
1 4569
1 4570
1 4571
1 4572
1 4573
1 4574
1 4575
1 4576
1 4577
1 4578
1 4579
1 4580
1 4581
1 4582
1 4583
1 4584
1 4585
1 4586
1 4587
1 4588
1 4589
1 4590
1 4591
1 4592
1 4593
1 4594
1 4595
1 4596
1 4597
1 4598
1 4599
1 4600
1 4601
1 4602
1 4603
1 4604
1 4605
1 4606
1 4607
1 4608
1 4609
1 4610
1 4611
1 4612
1 4613
1 4614
1 4615
1 4616
1 4617
1 4618
1 4619
1 4620
1 4621
1 4622
1 4623
1 4624
1 4625
1 4626
1 4627
1 4628
1 4629
1 4630
1 4631
1 4632
1 4633
1 4634
1 4635
1 4636
1 4637
1 4638
1 4639
1 4640
1 4641
1 4642
1 4643
1 4644
1 4645
1 4646
1 4647
1 4648
1 4649
1 4650
1 4651
1 4652
1 4653
1 4654
1 4655
1 4656
1 4657
1 4658
1 4659
1 4660
1 4661
1 4662
1 4663
1 4664
1 4665
1 4666
1 4667
1 4668
1 4669
1 4670
1 4671
1 4672
1 4673
1 4674
1 4675
1 4676
1 4677
1 4678
1 4679
1 4680
1 4681
1 4682
1 4683
1 4684
1 4685
1 4686
1 4687
1 4688
1 4689
1 4690
1 4691
1 4692
1 4693
1 4694
1 4695
1 4696
1 4697
1 4698
1 4699
1 4700
1 4701
1 4702
1 4703
1 4704
1 4705
1 4706
1 4707
1 4708
1 4709
1 4710
1 4711
1 4712
1 4713
1 4714
1 4715
1 4716
1 4717
1 4718
1 4719
1 4720
1 4721
1 4722
1 4723
1 4724
1 4725
1 4726
1 4727
1 4728
1 4729
1 4730
1 4731
1 4732
1 4733
1 4734
1 4735
1 4736
1 4737
1 4738
1 4739
1 4740
1 4741
1 4742
1 4743
1 4744
1 4745
1 4746
1 4747
1 4748
1 4749
1 4750
1 4751
1 4752
1 4753
1 4754
1 4755
1 4756
1 4757
1 4758
1 4759
1 4760
1 4761
1 4762
1 4763
1 4764
1 4765
1 4766
1 4767
1 4768
1 4769
1 4770
1 4771
1 4772
1 4773
1 4774
1 4775
1 4776
1 4777
1 4778
1 4779
1 4780
1 4781
1 4782
1 4783
1 4784
1 4785
1 4786
1 4787
1 4788
1 4789
1 4790
1 4791
1 4792
1 4793
1 4794
1 4795
1 4796
1 4797
1 4798
1 4799
1 4800
1 4801
1 4802
1 4803
1 4804
1 4805
1 4806
1 4807
1 4808
1 4809
1 4810
1 4811
1 4812
1 4813
1 4814
1 4815
1 4816
1 4817
1 4818
1 4819
1 4820
1 4821
1 4822
1 4823
1 4824
1 4825
1 4826
1 4827
1 4828
1 4829
1 4830
1 4831
1 4832
1 4833
1 4834
1 4835
1 4836
1 4837
1 4838
1 4839
1 4840
1 4841
1 4842
1 4843
1 4844
1 4845
1 4846
1 4847
1 4848
1 4849
1 4850
1 4851
1 4852
1 4853
1 4854
1 4855
1 4856
1 4857
1 4858
1 4859
1 4860
1 4861
1 4862
1 4863
1 4864
1 4865
1 4866
1 4867
1 4868
1 4869
1 4870
1 4871
1 4872
1 4873
1 4874
1 4875
1 4876
1 4877
1 4878
1 4879
1 4880
1 4881
1 4882
1 4883
1 4884
1 4885
1 4886
1 4887
1 4888
1 4889
1 4890
1 4891
1 4892
1 4893
1 4894
1 4895
1 4896
1 4897
1 4898
1 4899
1 4900
1 4901
1 4902
1 4903
1 4904
1 4905
1 4906
1 4907
1 4908
1 4909
1 4910
1 4911
1 4912
1 4913
1 4914
1 4915
1 4916
1 4917
1 4918
1 4919
1 4920
1 4921
1 4922
1 4923
1 4924
1 4925
1 4926
1 4927
1 4928
1 4929
1 4930
1 4931
1 4932
1 4933
1 4934
1 4935
1 4936
1 4937
1 4938
1 4939
1 4940
1 4941
1 4942
1 4943
1 4944
1 4945
1 4946
1 4947
1 4948
1 4949
1 4950
1 4951
1 4952
1 4953
1 4954
1 4955
1 4956
1 4957
1 4958
1 4959
1 4960
1 4961
1 4962
1 4963
1 4964
1 4965
1 4966
1 4967
1 4968
1 4969
1 4970
1 4971
1 4972
1 4973
1 4974
1 4975
1 4976
1 4977
1 4978
1 4979
1 4980
1 4981
1 4982
1 4983
1 4984
1 4985
1 4986
1 4987
1 4988
1 4989
1 4990
1 4991
1 4992
1 4993
1 4994
1 4995
1 4996
1 4997
1 4998
1 4999
CELL_TYPES 5000
1 
1 
1 
1 
1 
1 
1 
1 
1 
1 
1 
1 
1 
1 
1 
1 
1 
1 
1 
1 
1 
1 
1 
1 
1 
1 
1 
1 
1 
1 
1 
1 
1 
1 
1 
1 
1 
1 
1 
1 
1 
1 
1 
1 
1 
1 
1 
1 
1 
1 
1 
1 
1 
1 
1 
1 
1 
1 
1 
1 
1 
1 
1 
1 
1 
1 
1 
1 
1 
1 
1 
1 
1 
1 
1 
1 
1 
1 
1 
1 
1 
1 
1 
1 
1 
1 
1 
1 
1 
1 
1 
1 
1 
1 
1 
1 
1 
1 
1 
1 
1 
1 
1 
1 
1 
1 
1 
1 
1 
1 
1 
1 
1 
1 
1 
1 
1 
1 
1 
1 
1 
1 
1 
1 
1 
1 
1 
1 
1 
1 
1 
1 
1 
1 
1 
1 
1 
1 
1 
1 
1 
1 
1 
1 
1 
1 
1 
1 
1 
1 
1 
1 
1 
1 
1 
1 
1 
1 
1 
1 
1 
1 
1 
1 
1 
1 
1 
1 
1 
1 
1 
1 
1 
1 
1 
1 
1 
1 
1 
1 
1 
1 
1 
1 
1 
1 
1 
1 
1 
1 
1 
1 
1 
1 
1 
1 
1 
1 
1 
1 
1 
1 
1 
1 
1 
1 
1 
1 
1 
1 
1 
1 
1 
1 
1 
1 
1 
1 
1 
1 
1 
1 
1 
1 
1 
1 
1 
1 
1 
1 
1 
1 
1 
1 
1 
1 
1 
1 
1 
1 
1 
1 
1 
1 
1 
1 
1 
1 
1 
1 
1 
1 
1 
1 
1 
1 
1 
1 
1 
1 
1 
1 
1 
1 
1 
1 
1 
1 
1 
1 
1 
1 
1 
1 
1 
1 
1 
1 
1 
1 
1 
1 
1 
1 
1 
1 
1 
1 
1 
1 
1 
1 
1 
1 
1 
1 
1 
1 
1 
1 
1 
1 
1 
1 
1 
1 
1 
1 
1 
1 
1 
1 
1 
1 
1 
1 
1 
1 
1 
1 
1 
1 
1 
1 
1 
1 
1 
1 
1 
1 
1 
1 
1 
1 
1 
1 
1 
1 
1 
1 
1 
1 
1 
1 
1 
1 
1 
1 
1 
1 
1 
1 
1 
1 
1 
1 
1 
1 
1 
1 
1 
1 
1 
1 
1 
1 
1 
1 
1 
1 
1 
1 
1 
1 
1 
1 
1 
1 
1 
1 
1 
1 
1 
1 
1 
1 
1 
1 
1 
1 
1 
1 
1 
1 
1 
1 
1 
1 
1 
1 
1 
1 
1 
1 
1 
1 
1 
1 
1 
1 
1 
1 
1 
1 
1 
1 
1 
1 
1 
1 
1 
1 
1 
1 
1 
1 
1 
1 
1 
1 
1 
1 
1 
1 
1 
1 
1 
1 
1 
1 
1 
1 
1 
1 
1 
1 
1 
1 
1 
1 
1 
1 
1 
1 
1 
1 
1 
1 
1 
1 
1 
1 
1 
1 
1 
1 
1 
1 
1 
1 
1 
1 
1 
1 
1 
1 
1 
1 
1 
1 
1 
1 
1 
1 
1 
1 
1 
1 
1 
1 
1 
1 
1 
1 
1 
1 
1 
1 
1 
1 
1 
1 
1 
1 
1 
1 
1 
1 
1 
1 
1 
1 
1 
1 
1 
1 
1 
1 
1 
1 
1 
1 
1 
1 
1 
1 
1 
1 
1 
1 
1 
1 
1 
1 
1 
1 
1 
1 
1 
1 
1 
1 
1 
1 
1 
1 
1 
1 
1 
1 
1 
1 
1 
1 
1 
1 
1 
1 
1 
1 
1 
1 
1 
1 
1 
1 
1 
1 
1 
1 
1 
1 
1 
1 
1 
1 
1 
1 
1 
1 
1 
1 
1 
1 
1 
1 
1 
1 
1 
1 
1 
1 
1 
1 
1 
1 
1 
1 
1 
1 
1 
1 
1 
1 
1 
1 
1 
1 
1 
1 
1 
1 
1 
1 
1 
1 
1 
1 
1 
1 
1 
1 
1 
1 
1 
1 
1 
1 
1 
1 
1 
1 
1 
1 
1 
1 
1 
1 
1 
1 
1 
1 
1 
1 
1 
1 
1 
1 
1 
1 
1 
1 
1 
1 
1 
1 
1 
1 
1 
1 
1 
1 
1 
1 
1 
1 
1 
1 
1 
1 
1 
1 
1 
1 
1 
1 
1 
1 
1 
1 
1 
1 
1 
1 
1 
1 
1 
1 
1 
1 
1 
1 
1 
1 
1 
1 
1 
1 
1 
1 
1 
1 
1 
1 
1 
1 
1 
1 
1 
1 
1 
1 
1 
1 
1 
1 
1 
1 
1 
1 
1 
1 
1 
1 
1 
1 
1 
1 
1 
1 
1 
1 
1 
1 
1 
1 
1 
1 
1 
1 
1 
1 
1 
1 
1 
1 
1 
1 
1 
1 
1 
1 
1 
1 
1 
1 
1 
1 
1 
1 
1 
1 
1 
1 
1 
1 
1 
1 
1 
1 
1 
1 
1 
1 
1 
1 
1 
1 
1 
1 
1 
1 
1 
1 
1 
1 
1 
1 
1 
1 
1 
1 
1 
1 
1 
1 
1 
1 
1 
1 
1 
1 
1 
1 
1 
1 
1 
1 
1 
1 
1 
1 
1 
1 
1 
1 
1 
1 
1 
1 
1 
1 
1 
1 
1 
1 
1 
1 
1 
1 
1 
1 
1 
1 
1 
1 
1 
1 
1 
1 
1 
1 
1 
1 
1 
1 
1 
1 
1 
1 
1 
1 
1 
1 
1 
1 
1 
1 
1 
1 
1 
1 
1 
1 
1 
1 
1 
1 
1 
1 
1 
1 
1 
1 
1 
1 
1 
1 
1 
1 
1 
1 
1 
1 
1 
1 
1 
1 
1 
1 
1 
1 
1 
1 
1 
1 
1 
1 
1 
1 
1 
1 
1 
1 
1 
1 
1 
1 
1 
1 
1 
1 
1 
1 
1 
1 
1 
1 
1 
1 
1 
1 
1 
1 
1 
1 
1 
1 
1 
1 
1 
1 
1 
1 
1 
1 
1 
1 
1 
1 
1 
1 
1 
1 
1 
1 
1 
1 
1 
1 
1 
1 
1 
1 
1 
1 
1 
1 
1 
1 
1 
1 
1 
1 
1 
1 
1 
1 
1 
1 
1 
1 
1 
1 
1 
1 
1 
1 
1 
1 
1 
1 
1 
1 
1 
1 
1 
1 
1 
1 
1 
1 
1 
1 
1 
1 
1 
1 
1 
1 
1 
1 
1 
1 
1 
1 
1 
1 
1 
1 
1 
1 
1 
1 
1 
1 
1 
1 
1 
1 
1 
1 
1 
1 
1 
1 
1 
1 
1 
1 
1 
1 
1 
1 
1 
1 
1 
1 
1 
1 
1 
1 
1 
1 
1 
1 
1 
1 
1 
1 
1 
1 
1 
1 
1 
1 
1 
1 
1 
1 
1 
1 
1 
1 
1 
1 
1 
1 
1 
1 
1 
1 
1 
1 
1 
1 
1 
1 
1 
1 
1 
1 
1 
1 
1 
1 
1 
1 
1 
1 
1 
1 
1 
1 
1 
1 
1 
1 
1 
1 
1 
1 
1 
1 
1 
1 
1 
1 
1 
1 
1 
1 
1 
1 
1 
1 
1 
1 
1 
1 
1 
1 
1 
1 
1 
1 
1 
1 
1 
1 
1 
1 
1 
1 
1 
1 
1 
1 
1 
1 
1 
1 
1 
1 
1 
1 
1 
1 
1 
1 
1 
1 
1 
1 
1 
1 
1 
1 
1 
1 
1 
1 
1 
1 
1 
1 
1 
1 
1 
1 
1 
1 
1 
1 
1 
1 
1 
1 
1 
1 
1 
1 
1 
1 
1 
1 
1 
1 
1 
1 
1 
1 
1 
1 
1 
1 
1 
1 
1 
1 
1 
1 
1 
1 
1 
1 
1 
1 
1 
1 
1 
1 
1 
1 
1 
1 
1 
1 
1 
1 
1 
1 
1 
1 
1 
1 
1 
1 
1 
1 
1 
1 
1 
1 
1 
1 
1 
1 
1 
1 
1 
1 
1 
1 
1 
1 
1 
1 
1 
1 
1 
1 
1 
1 
1 
1 
1 
1 
1 
1 
1 
1 
1 
1 
1 
1 
1 
1 
1 
1 
1 
1 
1 
1 
1 
1 
1 
1 
1 
1 
1 
1 
1 
1 
1 
1 
1 
1 
1 
1 
1 
1 
1 
1 
1 
1 
1 
1 
1 
1 
1 
1 
1 
1 
1 
1 
1 
1 
1 
1 
1 
1 
1 
1 
1 
1 
1 
1 
1 
1 
1 
1 
1 
1 
1 
1 
1 
1 
1 
1 
1 
1 
1 
1 
1 
1 
1 
1 
1 
1 
1 
1 
1 
1 
1 
1 
1 
1 
1 
1 
1 
1 
1 
1 
1 
1 
1 
1 
1 
1 
1 
1 
1 
1 
1 
1 
1 
1 
1 
1 
1 
1 
1 
1 
1 
1 
1 
1 
1 
1 
1 
1 
1 
1 
1 
1 
1 
1 
1 
1 
1 
1 
1 
1 
1 
1 
1 
1 
1 
1 
1 
1 
1 
1 
1 
1 
1 
1 
1 
1 
1 
1 
1 
1 
1 
1 
1 
1 
1 
1 
1 
1 
1 
1 
1 
1 
1 
1 
1 
1 
1 
1 
1 
1 
1 
1 
1 
1 
1 
1 
1 
1 
1 
1 
1 
1 
1 
1 
1 
1 
1 
1 
1 
1 
1 
1 
1 
1 
1 
1 
1 
1 
1 
1 
1 
1 
1 
1 
1 
1 
1 
1 
1 
1 
1 
1 
1 
1 
1 
1 
1 
1 
1 
1 
1 
1 
1 
1 
1 
1 
1 
1 
1 
1 
1 
1 
1 
1 
1 
1 
1 
1 
1 
1 
1 
1 
1 
1 
1 
1 
1 
1 
1 
1 
1 
1 
1 
1 
1 
1 
1 
1 
1 
1 
1 
1 
1 
1 
1 
1 
1 
1 
1 
1 
1 
1 
1 
1 
1 
1 
1 
1 
1 
1 
1 
1 
1 
1 
1 
1 
1 
1 
1 
1 
1 
1 
1 
1 
1 
1 
1 
1 
1 
1 
1 
1 
1 
1 
1 
1 
1 
1 
1 
1 
1 
1 
1 
1 
1 
1 
1 
1 
1 
1 
1 
1 
1 
1 
1 
1 
1 
1 
1 
1 
1 
1 
1 
1 
1 
1 
1 
1 
1 
1 
1 
1 
1 
1 
1 
1 
1 
1 
1 
1 
1 
1 
1 
1 
1 
1 
1 
1 
1 
1 
1 
1 
1 
1 
1 
1 
1 
1 
1 
1 
1 
1 
1 
1 
1 
1 
1 
1 
1 
1 
1 
1 
1 
1 
1 
1 
1 
1 
1 
1 
1 
1 
1 
1 
1 
1 
1 
1 
1 
1 
1 
1 
1 
1 
1 
1 
1 
1 
1 
1 
1 
1 
1 
1 
1 
1 
1 
1 
1 
1 
1 
1 
1 
1 
1 
1 
1 
1 
1 
1 
1 
1 
1 
1 
1 
1 
1 
1 
1 
1 
1 
1 
1 
1 
1 
1 
1 
1 
1 
1 
1 
1 
1 
1 
1 
1 
1 
1 
1 
1 
1 
1 
1 
1 
1 
1 
1 
1 
1 
1 
1 
1 
1 
1 
1 
1 
1 
1 
1 
1 
1 
1 
1 
1 
1 
1 
1 
1 
1 
1 
1 
1 
1 
1 
1 
1 
1 
1 
1 
1 
1 
1 
1 
1 
1 
1 
1 
1 
1 
1 
1 
1 
1 
1 
1 
1 
1 
1 
1 
1 
1 
1 
1 
1 
1 
1 
1 
1 
1 
1 
1 
1 
1 
1 
1 
1 
1 
1 
1 
1 
1 
1 
1 
1 
1 
1 
1 
1 
1 
1 
1 
1 
1 
1 
1 
1 
1 
1 
1 
1 
1 
1 
1 
1 
1 
1 
1 
1 
1 
1 
1 
1 
1 
1 
1 
1 
1 
1 
1 
1 
1 
1 
1 
1 
1 
1 
1 
1 
1 
1 
1 
1 
1 
1 
1 
1 
1 
1 
1 
1 
1 
1 
1 
1 
1 
1 
1 
1 
1 
1 
1 
1 
1 
1 
1 
1 
1 
1 
1 
1 
1 
1 
1 
1 
1 
1 
1 
1 
1 
1 
1 
1 
1 
1 
1 
1 
1 
1 
1 
1 
1 
1 
1 
1 
1 
1 
1 
1 
1 
1 
1 
1 
1 
1 
1 
1 
1 
1 
1 
1 
1 
1 
1 
1 
1 
1 
1 
1 
1 
1 
1 
1 
1 
1 
1 
1 
1 
1 
1 
1 
1 
1 
1 
1 
1 
1 
1 
1 
1 
1 
1 
1 
1 
1 
1 
1 
1 
1 
1 
1 
1 
1 
1 
1 
1 
1 
1 
1 
1 
1 
1 
1 
1 
1 
1 
1 
1 
1 
1 
1 
1 
1 
1 
1 
1 
1 
1 
1 
1 
1 
1 
1 
1 
1 
1 
1 
1 
1 
1 
1 
1 
1 
1 
1 
1 
1 
1 
1 
1 
1 
1 
1 
1 
1 
1 
1 
1 
1 
1 
1 
1 
1 
1 
1 
1 
1 
1 
1 
1 
1 
1 
1 
1 
1 
1 
1 
1 
1 
1 
1 
1 
1 
1 
1 
1 
1 
1 
1 
1 
1 
1 
1 
1 
1 
1 
1 
1 
1 
1 
1 
1 
1 
1 
1 
1 
1 
1 
1 
1 
1 
1 
1 
1 
1 
1 
1 
1 
1 
1 
1 
1 
1 
1 
1 
1 
1 
1 
1 
1 
1 
1 
1 
1 
1 
1 
1 
1 
1 
1 
1 
1 
1 
1 
1 
1 
1 
1 
1 
1 
1 
1 
1 
1 
1 
1 
1 
1 
1 
1 
1 
1 
1 
1 
1 
1 
1 
1 
1 
1 
1 
1 
1 
1 
1 
1 
1 
1 
1 
1 
1 
1 
1 
1 
1 
1 
1 
1 
1 
1 
1 
1 
1 
1 
1 
1 
1 
1 
1 
1 
1 
1 
1 
1 
1 
1 
1 
1 
1 
1 
1 
1 
1 
1 
1 
1 
1 
1 
1 
1 
1 
1 
1 
1 
1 
1 
1 
1 
1 
1 
1 
1 
1 
1 
1 
1 
1 
1 
1 
1 
1 
1 
1 
1 
1 
1 
1 
1 
1 
1 
1 
1 
1 
1 
1 
1 
1 
1 
1 
1 
1 
1 
1 
1 
1 
1 
1 
1 
1 
1 
1 
1 
1 
1 
1 
1 
1 
1 
1 
1 
1 
1 
1 
1 
1 
1 
1 
1 
1 
1 
1 
1 
1 
1 
1 
1 
1 
1 
1 
1 
1 
1 
1 
1 
1 
1 
1 
1 
1 
1 
1 
1 
1 
1 
1 
1 
1 
1 
1 
1 
1 
1 
1 
1 
1 
1 
1 
1 
1 
1 
1 
1 
1 
1 
1 
1 
1 
1 
1 
1 
1 
1 
1 
1 
1 
1 
1 
1 
1 
1 
1 
1 
1 
1 
1 
1 
1 
1 
1 
1 
1 
1 
1 
1 
1 
1 
1 
1 
1 
1 
1 
1 
1 
1 
1 
1 
1 
1 
1 
1 
1 
1 
1 
1 
1 
1 
1 
1 
1 
1 
1 
1 
1 
1 
1 
1 
1 
1 
1 
1 
1 
1 
1 
1 
1 
1 
1 
1 
1 
1 
1 
1 
1 
1 
1 
1 
1 
1 
1 
1 
1 
1 
1 
1 
1 
1 
1 
1 
1 
1 
1 
1 
1 
1 
1 
1 
1 
1 
1 
1 
1 
1 
1 
1 
1 
1 
1 
1 
1 
1 
1 
1 
1 
1 
1 
1 
1 
1 
1 
1 
1 
1 
1 
1 
1 
1 
1 
1 
1 
1 
1 
1 
1 
1 
1 
1 
1 
1 
1 
1 
1 
1 
1 
1 
1 
1 
1 
1 
1 
1 
1 
1 
1 
1 
1 
1 
1 
1 
1 
1 
1 
1 
1 
1 
1 
1 
1 
1 
1 
1 
1 
1 
1 
1 
1 
1 
1 
1 
1 
1 
1 
1 
1 
1 
1 
1 
1 
1 
1 
1 
1 
1 
1 
1 
1 
1 
1 
1 
1 
1 
1 
1 
1 
1 
1 
1 
1 
1 
1 
1 
1 
1 
1 
1 
1 
1 
1 
1 
1 
1 
1 
1 
1 
1 
1 
1 
1 
1 
1 
1 
1 
1 
1 
1 
1 
1 
1 
1 
1 
1 
1 
1 
1 
1 
1 
1 
1 
1 
1 
1 
1 
1 
1 
1 
1 
1 
1 
1 
1 
1 
1 
1 
1 
1 
1 
1 
1 
1 
1 
1 
1 
1 
1 
1 
1 
1 
1 
1 
1 
1 
1 
1 
1 
1 
1 
1 
1 
1 
1 
1 
1 
1 
1 
1 
1 
1 
1 
1 
1 
1 
1 
1 
1 
1 
1 
1 
1 
1 
1 
1 
1 
1 
1 
1 
1 
1 
1 
1 
1 
1 
1 
1 
1 
1 
1 
1 
1 
1 
1 
1 
1 
1 
1 
1 
1 
1 
1 
1 
1 
1 
1 
1 
1 
1 
1 
1 
1 
1 
1 
1 
1 
1 
1 
1 
1 
1 
1 
1 
1 
1 
1 
1 
1 
1 
1 
1 
1 
1 
1 
1 
1 
1 
1 
1 
1 
1 
1 
1 
1 
1 
1 
1 
1 
1 
1 
1 
1 
1 
1 
1 
1 
1 
1 
1 
1 
1 
1 
1 
1 
1 
1 
1 
1 
1 
1 
1 
1 
1 
1 
1 
1 
1 
1 
1 
1 
1 
1 
1 
1 
1 
1 
1 
1 
1 
1 
1 
1 
1 
1 
1 
1 
1 
1 
1 
1 
1 
1 
1 
1 
1 
1 
1 
1 
1 
1 
1 
1 
1 
1 
1 
1 
1 
1 
1 
1 
1 
1 
1 
1 
1 
1 
1 
1 
1 
1 
1 
1 
1 
1 
1 
1 
1 
1 
1 
1 
1 
1 
1 
1 
1 
1 
1 
1 
1 
1 
1 
1 
1 
1 
1 
1 
1 
1 
1 
1 
1 
1 
1 
1 
1 
1 
1 
1 
1 
1 
1 
1 
1 
1 
1 
1 
1 
1 
1 
1 
1 
1 
1 
1 
1 
1 
1 
1 
1 
1 
1 
1 
1 
1 
1 
1 
1 
1 
1 
1 
1 
1 
1 
1 
1 
1 
1 
1 
1 
1 
1 
1 
1 
1 
1 
1 
1 
1 
1 
1 
1 
1 
1 
1 
1 
1 
1 
1 
1 
1 
1 
1 
1 
1 
1 
1 
1 
1 
1 
1 
1 
1 
1 
1 
1 
1 
1 
1 
1 
1 
1 
1 
1 
1 
1 
1 
1 
1 
1 
1 
1 
1 
1 
1 
1 
1 
1 
1 
1 
1 
1 
1 
1 
1 
1 
1 
1 
1 
1 
1 
1 
1 
1 
1 
1 
1 
1 
1 
1 
1 
1 
1 
1 
1 
1 
1 
1 
1 
1 
1 
1 
1 
1 
1 
1 
1 
1 
1 
1 
1 
1 
1 
1 
1 
1 
1 
1 
1 
1 
1 
1 
1 
1 
1 
1 
1 
1 
1 
1 
1 
1 
1 
1 
1 
1 
1 
1 
1 
1 
1 
1 
1 
1 
1 
1 
1 
1 
1 
1 
1 
1 
1 
1 
1 
1 
1 
1 
1 
1 
1 
1 
1 
1 
1 
1 
1 
1 
1 
1 
1 
1 
1 
1 
1 
1 
1 
1 
1 
1 
1 
1 
1 
1 
1 
1 
1 
1 
1 
1 
1 
1 
1 
1 
1 
1 
1 
1 
1 
1 
1 
1 
1 
1 
1 
1 
1 
1 
1 
1 
1 
1 
1 
1 
1 
1 
1 
1 
1 
1 
1 
1 
1 
1 
1 
1 
1 
1 
1 
1 
1 
1 
1 
1 
1 
1 
1 
1 
1 
1 
1 
1 
1 
1 
1 
1 
1 
1 
1 
1 
1 
1 
1 
1 
1 
1 
1 
1 
1 
1 
1 
1 
1 
1 
1 
1 
1 
1 
1 
1 
1 
1 
1 
1 
1 
1 
1 
1 
1 
1 
1 
1 
1 
1 
1 
1 
1 
1 
1 
1 
1 
1 
1 
1 
1 
1 
1 
1 
1 
1 
1 
1 
1 
1 
1 
1 
1 
1 
1 
1 
1 
1 
1 
1 
1 
1 
1 
1 
1 
1 
1 
1 
1 
1 
1 
1 
1 
1 
1 
1 
1 
1 
1 
1 
1 
1 
1 
1 
1 
1 
1 
1 
1 
1 
1 
1 
1 
1 
1 
1 
1 
1 
1 
1 
1 
1 
1 
1 
1 
1 
1 
1 
1 
1 
1 
1 
1 
1 
1 
1 
1 
1 
1 
1 
1 
1 
1 
1 
1 
1 
1 
1 
1 
1 
1 
1 
1 
1 
1 
1 
1 
1 
1 
1 
1 
1 
1 
1 
1 
1 
1 
1 
1 
1 
1 
1 
1 
1 
1 
1 
1 
1 
1 
1 
1 
1 
1 
1 
1 
1 
1 
1 
1 
1 
1 
1 
1 
1 
1 
1 
1 
1 
1 
1 
1 
1 
1 
1 
1 
1 
1 
1 
1 
1 
1 
1 
1 
1 
1 
1 
1 
1 
1 
1 
1 
1 
1 
1 
1 
1 
1 
1 
1 
1 
1 
1 
1 
1 
1 
1 
1 
1 
1 
1 
1 
1 
1 
1 
1 
1 
1 
1 
1 
1 
1 
1 
1 
1 
1 
1 
1 
1 
1 
1 
1 
1 
1 
1 
1 
1 
1 
1 
1 
1 
1 
1 
1 
1 
1 
1 
1 
1 
1 
1 
1 
1 
1 
1 
1 
1 
1 
1 
1 
1 
1 
1 
1 
1 
1 
1 
1 
1 
1 
1 
1 
1 
1 
1 
1 
1 
1 
1 
1 
1 
1 
1 
1 
1 
1 
1 
1 
1 
1 
1 
1 
1 
1 
1 
1 
1 
1 
1 
1 
1 
1 
1 
1 
1 
1 
1 
1 
1 
1 
1 
1 
1 
1 
1 
1 
1 
1 
1 
1 
1 
1 
1 
1 
1 
1 
1 
1 
1 
1 
1 
1 
1 
1 
1 
1 
1 
1 
1 
1 
1 
1 
1 
1 
1 
1 
1 
1 
1 
1 
1 
1 
1 
1 
1 
1 
1 
1 
1 
1 
1 
1 
1 
1 
1 
1 
1 
1 
1 
1 
1 
1 
1 
1 
1 
1 
1 
1 
1 
1 
1 
1 
1 
1 
1 
1 
1 
1 
1 
1 
1 
1 
1 
1 
1 
1 
1 
1 
1 
1 
1 
1 
1 
1 
1 
1 
1 
1 
1 
1 
1 
1 
1 
1 
1 
1 
1 
1 
1 
1 
1 
1 
1 
1 
1 
1 
1 
1 
1 
1 
1 
1 
1 
1 
1 
1 
1 
1 
1 
1 
1 
1 
1 
1 
1 
1 
1 
1 
1 
1 
1 
1 
1 
1 
1 
1 
1 
1 
1 
1 
1 
1 
1 
1 
1 
1 
1 
1 
1 
1 
1 
1 
1 
1 
1 
1 
1 
1 
1 
1 
1 
1 
1 
1 
1 
1 
1 
1 
1 
1 
1 
1 
1 
1 
1 
1 
1 
1 
1 
1 
1 
1 
1 
1 
1 
1 
1 
1 
1 
1 
1 
1 
1 
1 
1 
1 
1 
1 
1 
1 
1 
1 
1 
1 
1 
1 
1 
1 
1 
1 
1 
1 
1 
1 
1 
1 
1 
1 
1 
1 
1 
1 
1 
1 
1 
1 
1 
1 
1 
1 
1 
1 
1 
1 
1 
1 
1 
1 
1 
1 
1 
1 
1 
1 
1 
1 
1 
1 
1 
1 
1 
1 
1 
1 
1 
1 
1 
1 
1 
1 
1 
1 
1 
1 
1 
1 
1 
1 
1 
1 
1 
1 
1 
1 
1 
1 
1 
1 
1 
1 
1 
1 
1 
1 
1 
1 
1 
1 
1 
1 
1 
1 
1 
1 
1 
1 
1 
1 
1 
1 
1 
1 
1 
1 
1 
1 
1 
1 
1 
1 
1 
1 
1 
1 
1 
1 
1 
1 
1 
1 
1 
1 
1 
1 
1 
1 
1 
1 
1 
1 
1 
1 
1 
1 
1 
1 
1 
1 
1 
1 
1 
1 
1 
1 
1 
1 
1 
1 
1 
1 
1 
1 
1 
1 
1 
1 
1 
1 
1 
1 
1 
1 
1 
1 
1 
1 
1 
1 
1 
1 
1 
1 
1 
1 
1 
1 
1 
1 
1 
1 
1 
1 
1 
1 
1 
1 
1 
1 
1 
1 
1 
1 
1 
1 
1 
1 
1 
1 
1 
1 
1 
1 
1 
1 
1 
1 
1 
1 
1 
1 
1 
1 
1 
1 
1 
1 
1 
1 
1 
1 
1 
1 
1 
1 
1 
1 
1 
1 
1 
1 
1 
1 
1 
1 
1 
1 
1 
1 
1 
1 
1 
1 
1 
1 
1 
1 
1 
1 
1 
1 
1 
1 
1 
1 
1 
1 
1 
1 
1 
1 
1 
1 
1 
1 
1 
1 
1 
1 
1 
1 
1 
1 
1 
1 
1 
1 
1 
1 
1 
1 
1 
1 
1 
1 
1 
1 
1 
1 
1 
1 
1 
1 
1 
1 
1 
1 
1 
1 
1 
1 
1 
1 
1 
1 
1 
1 
1 
1 
1 
1 
1 
1 
1 
1 
1 
1 
1 
1 
1 
1 
1 
1 
1 
1 
1 
1 
1 
1 
1 
1 
1 
1 
1 
1 
1 
1 
1 
1 
1 
1 
1 
1 
1 
1 
1 
1 
1 
1 
1 
1 
1 
1 
1 
1 
1 
1 
1 
1 
1 
1 
1 
1 
1 
1 
1 
1 
1 
1 
1 
1 
1 
1 
1 
1 
1 
1 
1 
1 
1 
1 
1 
1 
1 
1 
1 
1 
1 
1 
1 
1 
1 
1 
1 
1 
1 
1 
1 
1 
1 
1 
1 
1 
1 
1 
1 
1 
1 
1 
1 
1 
1 
1 
1 
1 
1 
1 
1 
1 
1 
1 
1 
1 
1 
1 
1 
1 
1 
1 
1 
1 
1 
1 
1 
1 
1 
1 
1 
1 
1 
1 
1 
1 
1 
1 
1 
1 
1 
1 
1 
1 
1 
1 
1 
1 
1 
1 
1 
1 
1 
1 
1 
1 
1 
1 
1 
1 
1 
1 
1 
1 
1 
1 
1 
1 
1 
1 
1 
1 
1 
1 
1 
1 
1 
1 
1 
1 
1 
1 
1 
1 
1 
1 
1 
1 
1 
1 
1 
1 
1 
1 
1 
1 
1 
1 
1 
1 
1 
1 
1 
1 
1 
1 
1 
1 
1 
1 
1 
1 
1 
1 
1 
1 
1 
1 
1 
1 
1 
1 
1 
1 
1 
1 
1 
1 
1 
1 
1 
1 
1 
1 
1 
1 
1 
1 
1 
1 
1 
1 
1 
1 
1 
1 
1 
1 
1 
1 
1 
1 
1 
1 
1 
1 
1 
1 
1 
1 
1 
1 
1 
1 
1 
1 
1 
1 
1 
1 
1 
1 
1 
1 
1 
1 
1 
1 
1 
1 
1 
1 
1 
1 
1 
1 
1 
1 
1 
1 
1 
1 
1 
1 
1 
1 
1 
1 
1 
1 
1 
1 
1 
1 
1 
1 
1 
1 
1 
1 
1 
1 
1 
1 
1 
1 
1 
1 
1 
1 
1 
1 
1 
1 
1 
1 
1 
1 
1 
1 
1 
1 
1 
1 
1 
1 
1 
1 
1 
1 
1 
1 
1 
1 
1 
1 
1 
1 
1 
1 
1 
1 
1 
1 
1 
1 
1 
1 
1 
1 
1 
1 
1 
1 
1 
1 
1 
1 
1 
1 
1 
1 
1 
1 
1 
1 
1 
1 
1 
1 
1 
1 
1 
1 
1 
1 
1 
1 
1 
1 
1 
1 
1 
1 
1 
1 
1 
1 
1 
1 
1 
1 
1 
1 
1 
1 
1 
1 
1 
1 
1 
1 
1 
1 
1 
1 
1 
1 
1 
1 
1 
1 
1 
1 
1 
1 
1 
1 
1 
1 
1 
1 
1 
1 
1 
1 
1 
1 
1 
1 
1 
1 
1 
1 
1 
1 
1 
1 
1 
1 
1 
1 
1 
1 
1 
1 
1 
1 
1 
1 
1 
1 
1 
1 
1 
1 
1 
1 
1 
1 
1 
1 
1 
1 
1 
1 
1 
1 
1 
1 
1 
1 
1 
1 
1 
1 
1 
1 
1 
1 
1 
1 
1 
1 
1 
1 
1 
1 
1 
1 
1 
1 
1 
1 
1 
1 
1 
1 
1 
1 
1 
1 
1 
1 
1 
1 
1 
1 
1 
1 
1 
1 
1 
1 
1 
1 
1 
1 
1 
1 
1 
1 
1 
1 
1 
1 
1 
1 
1 
1 
1 
1 
1 
1 
1 
1 
1 
1 
1 
1 
1 
1 
1 
1 
1 
1 
1 
1 
1 
1 
1 
1 
1 
1 
1 
1 
1 
1 
1 
1 
1 
1 
1 
1 
1 
1 
1 
1 
1 
1 
1 
1 
1 
1 
1 
1 
1 
1 
1 
1 
1 
1 
1 
1 
1 
1 
1 
1 
1 
1 
1 
1 
1 
1 
1 
1 
1 
1 
1 
1 
1 
1 
1 
1 
1 
1 
1 
1 
1 
1 
1 
1 
1 
1 
1 
1 
1 
1 
1 
1 
1 
1 
1 
1 
1 
1 
1 
1 
1 
1 
1 
1 
1 
1 
1 
1 
1 
1 
1 
1 
1 
1 
1 
1 
1 
1 
1 
1 
1 
1 
1 
1 
1 
1 
1 
1 
1 
1 
1 
1 
1 
1 
1 
1 
1 
1 
1 
1 
1 
1 
1 
1 
1 
1 
1 
1 
1 
1 
1 
1 
1 
1 
1 
1 
1 
1 
1 
1 
1 
1 
1 
1 
1 
1 
1 
1 
1 
1 
1 
1 
1 
1 
1 
1 
1 
1 
1 
1 
1 
1 
1 
1 
1 
1 
1 
1 
1 
1 
1 
1 
1 
1 
1 
1 
1 
1 
1 
1 
1 
1 
1 
1 
1 
1 
1 
1 
1 
1 
1 
1 
1 
1 
1 
1 
1 
1 
1 
1 
1 
1 
1 
1 
1 
1 
1 
1 
1 
1 
1 
1 
1 
1 
1 
1 
1 
1 
1 
1 
1 
1 
1 
1 
1 
1 
1 
1 
1 
1 
1 
1 
1 
1 
1 
1 
1 
1 
1 
1 
1 
1 
1 
1 
1 
1 
1 
1 
1 
1 
1 
1 
1 
1 
1 
1 
1 
1 
1 
1 
1 
1 
1 
1 
1 
1 
1 
1 
1 
1 
1 
1 
1 
1 
1 
1 
1 
1 
1 
1 
1 
1 
1 
1 
1 
1 
1 
1 
1 
1 
1 
1 
1 
1 
1 
1 
1 
1 
1 
1 
1 
1 
1 
1 
1 
1 
1 
1 
1 
1 
1 
1 
1 
1 
1 
1 
1 
1 
1 
1 
1 
1 
1 
1 
1 
1 
1 
1 
1 
1 
1 
1 
1 
1 
1 
1 
1 
1 
1 
1 
1 
1 
1 
1 
1 
1 
1 
1 
1 
1 
1 
1 
1 
1 
1 
1 
1 
1 
1 
1 
1 
1 
1 
1 
1 
1 
1 
1 
1 
1 
1 
1 
1 
1 
1 
1 
1 
1 
1 
1 
1 
1 
1 
1 
1 
1 
1 
1 
1 
1 
1 
1 
1 
1 
1 
1 
1 
1 
1 
1 
1 
1 
1 
1 
1 
1 
1 
1 
1 
1 
1 
1 
1 
1 
1 
1 
1 
1 
1 
1 
1 
1 
1 
1 
1 
1 
1 
1 
1 
1 
1 
1 
1 
1 
1 
1 
1 
1 
1 
1 
1 
1 
1 
1 
1 
1 
1 
1 
1 
1 
1 
1 
1 
1 
1 
1 
1 
1 
1 
1 
1 
1 
1 
1 
1 
1 
1 
1 
1 
1 
1 
1 
1 
1 
1 
1 
1 
1 
1 
1 
1 
1 
1 
1 
1 
1 
1 
1 
1 
1 
1 
1 
1 
1 
1 
1 
1 
1 
1 
1 
1 
1 
1 
1 
1 
1 
1 
1 
1 
1 
1 
1 
1 
1 
1 
1 
POINT_DATA 5000
VECTORS Stress float
-308.2 -1316.71 0.
-623.683 -1466.44 0.
-634.694 -1492.11 0.
-336.507 -1379.25 0.
-332.669 -1370.27 0.
-328.83 -1361.29 0.
243.97 -1159.45 0.
183.289 -1301.09 0.
122.608 -1442.73 0.
-282.923 -1651.61 0.
-277.38 -1638.69 0.
-271.837 -1625.76 0.
-469.181 -1717.44 0.
-474.462 -1729.72 0.
36.6055 -1519.47 0.
37.0557 -1518.49 0.
37.506 -1517.5 0.
-71.7254 -1564.72 0.
-73.3204 -1568.49 0.
-74.9154 -1572.25 0.
-359.603 -1695.81 0.
-358.912 -1694.18 0.
-358.221 -1692.54 0.
-65.8849 -1565.3 0.
-65.0977 -1563.41 0.
64.1583 -1506.47 0.
-299.846 -1665.02 0.
-300.518 -1666.71 0.
273.535 -1421.05 0.
274.086 -1419.89 0.
274.637 -1418.72 0.
-174.603 -1611.94 0.
-175.378 -1613.79 0.
-176.154 -1615.64 0.
-242.643 -1643.75 0.
-242.561 -1643.46 0.
-242.479 -1643.17 0.
103.026 -1493.66 0.
104.043 -1491.22 0.
-56.3995 -1558.04 0.
-56.5005 -1558.2 0.
-56.6015 -1558.37 0.
-238.298 -1636.5 0.
-239.22 -1638.65 0.
-240.143 -1640.8 0.
-94.0792 -1580.82 0.
-95.2705 -1583.53 0.
-96.4619 -1586.24 0.
-48.4422 -1562.74 0.
-46.5153 -1558.21 0.
-1664.87 -2248.25 0.
539.166 -1307.04 0.
537.512 -1310.98 0.
-486.153 -1752.4 0.
-485.823 -1751.6 0.
-485.493 -1750.81 0.
261.983 -1430.11 0.
260.618 -1433.25 0.
259.253 -1436.39 0.
-190.569 -1627.41 0.
-188.337 -1622.12 0.
-186.105 -1616.83 0.
-152.195 -1602.85 0.
-152.189 -1602.84 0.
-100.918 -1580.68 0.
-100.841 -1580.43 0.
-100.764 -1580.18 0.
-263.935 -1650.03 0.
-264.498 -1651.42 0.
-265.061 -1652.8 0.
-197.361 -1624.75 0.
-197.579 -1625.27 0.
-197.798 -1625.79 0.
-406.654 -1714.79 0.
-406.311 -1713.99 0.
-162.155 -1609.39 0.
-21.3521 -1551.27 0.
-22.5031 -1554 0.
23.1316 -1534.36 0.
24.3072 -1531.53 0.
25.4828 -1528.7 0.
8.43219 -1535.77 0.
7.52812 -1537.83 0.
6.62405 -1539.89 0.
-496.498 -1752.72 0.
-494.77 -1748.65 0.
-493.041 -1744.58 0.
-121.457 -1592.06 0.
-124.783 -1599.91 0.
-233.171 -1649.74 0.
-225.617 -1632.13 0.
-218.063 -1614.52 0.
-204.753 -1588.38 0.
-189.144 -1551.81 0.
-173.535 -1515.23 0.
-228.529 -1509.1 0.
-212.984 -1472.65 0.
-197.439 -1436.21 0.
452.454 -1132.02 0.
465.523 -1101.06 0.
-68.8489 -1182.71 0.
-489.188 -1377.47 0.
-500.234 -1403.16 0.
-305.695 -1334.58 0.
-301.882 -1325.61 0.
-298.07 -1316.64 0.
124.335 -1179.27 0.
63.6971 -1320.9 0.
3.05955 -1462.54 0.
-180.182 -1576.15 0.
-174.624 -1563.22 0.
-169.067 -1550.29 0.
-505.371 -1701.44 0.
-510.676 -1713.68 0.
-53.3783 -1526.54 0.
-52.8804 -1525.57 0.
-52.3826 -1524.61 0.
-7.30743 -1505.62 0.
-8.87419 -1509.42 0.
-10.4409 -1513.22 0.
-22.4765 -1519.84 0.
-21.7948 -1518.18 0.
-21.1132 -1516.52 0.
-122.8 -1558.41 0.
-122.045 -1556.5 0.
-451.988 -1696.31 0.
-383.912 -1669.7 0.
-384.512 -1671.47 0.
244.045 -1402.14 0.
244.665 -1401.06 0.
245.285 -1399.98 0.
-56.9308 -1529.87 0.
-57.6736 -1531.72 0.
-58.4164 -1533.58 0.
2.82642 -1507.27 0.
2.8467 -1506.93 0.
2.86697 -1506.58 0.
-28.8834 -1518.85 0.
-27.9089 -1516.38 0.
-76.1146 -1535.39 0.
-76.2585 -1535.51 0.
-76.4023 -1535.62 0.
-364.526 -1659.3 0.
-365.447 -1661.44 0.
-366.368 -1663.59 0.
-23.6387 -1519.16 0.
-24.8672 -1521.81 0.
-26.0957 -1524.46 0.
-13.0529 -1516.24 0.
-11.1551 -1511.72 0.
-536.051 -1733.01 0.
511.992 -1287.24 0.
510.377 -1291.25 0.
-208.723 -1601.96 0.
-208.426 -1601.19 0.
-208.129 -1600.42 0.
-0.793774 -1511.46 0.
-2.19134 -1514.58 0.
-3.58889 -1517.7 0.
-108.852 -1561.18 0.
-106.659 -1555.81 0.
-104.466 -1550.45 0.
-264.82 -1619.58 0.
-264.816 -1619.58 0.
-35.7835 -1521.45 0.
-35.7589 -1521.19 0.
-35.7343 -1520.92 0.
-229.06 -1603.67 0.
-229.578 -1605.1 0.
-230.095 -1606.52 0.
-25.2205 -1519.59 0.
-25.4347 -1520.11 0.
-25.6489 -1520.63 0.
-397.023 -1679.28 0.
-396.681 -1678.48 0.
-279.329 -1627.88 0.
-169.583 -1583.11 0.
-170.716 -1585.86 0.
41.0533 -1495.29 0.
42.1802 -1492.41 0.
43.3071 -1489.52 0.
-15.7339 -1514.77 0.
-16.6668 -1516.81 0.
-17.5998 -1518.85 0.
-220.253 -1603.03 0.
-218.547 -1598.93 0.
-216.841 -1594.84 0.
-324.061 -1647.46 0.
-327.348 -1655.38 0.
-64.4477 -1545.98 0.
-56.8946 -1528.4 0.
-49.3414 -1510.81 0.
-254.066 -1578.22 0.
-238.562 -1541.57 0.
-223.058 -1504.93 0.
-153.329 -1445.51 0.
-137.877 -1408.94 0.
-122.425 -1372.37 0.
238.093 -1192.82 0.
250.874 -1161.58 0.
254.279 -853.249 0.
-222.097 -980.613 0.
-276.977 -1108.36 0.
-346.469 -1455.63 0.
-372.032 -1515.46 0.
-697.415 -2274.89 0.
-425.053 -2203.26 0.
-384.652 -2109.17 0.
-551.443 -2498.52 0.
-610.662 -2743.13 0.
-668.716 -2878.64 0.
-759.745 -3091.09 0.
-1163.53 -3135.54 0.
-902.435 -2526.23 0.
-770.174 -2997.09 0.
-641.921 -2697.41 0.
-662.162 -2744.22 0.
-553.57 -2872.03 0.
-580.825 -2935.62 0.
-826.481 -3508.81 0.
-772.856 -3881 0.
-449.526 -3126.82 0.
-403.425 -3019.5 0.
-718.948 -2809.8 0.
-715.45 -2802.01 0.
-1075.88 -3699.63 0.
-1169.24 -3311.03 0.
-1136.46 -3234.33 0.
-503.188 -3060.57 0.
-571.157 -3218.97 0.
-897.499 -3980.26 0.
-999.459 -3921.54 0.
-846.085 -3563.64 0.
-782.753 -3415.81 0.
-534.183 -3195.86 0.
-728.177 -3649.08 0.
-1003.61 -4292.32 0.
-1211.58 -3996.34 0.
-1094.27 -3722.81 0.
-1315.36 -4358.26 0.
-1051.81 -3743.49 0.
-920.948 -3438.31 0.
-1357.15 -3704.26 0.
-1106.58 -3119.56 0.
-1059.73 -3010.24 0.
-741.506 -3296.86 0.
-840.841 -3528.59 0.
-930.623 -3738.03 0.
-734.214 -3234.41 0.
-633.974 -3000.32 0.
-2493.86 -5022.19 0.
-400.987 -3335.6 0.
-376.107 -3276.95 0.
-874.377 -3652.57 0.
-661.608 -3155.95 0.
-854.038 -3604.82 0.
-708.125 -2630.13 0.
-941.377 -3174.54 0.
-1237.26 -3865.05 0.
-972.307 -3701.05 0.
-648.587 -2945.88 0.
-668.866 -2993.38 0.
-843.329 -2723.15 0.
-948.241 -2968.01 0.
-960.437 -3771.75 0.
-952.171 -3752.47 0.
-1075.03 -4039.14 0.
-1159.49 -3810.26 0.
-762.079 -2882.8 0.
-1099.46 -3669.85 0.
-731.222 -3463.02 0.
-581.982 -3114.88 0.
-1008.54 -4110.28 0.
-949.528 -2956.47 0.
-665.668 -2293.89 0.
-805.712 -2535.55 0.
-560.113 -2180.35 0.
-1108.39 -3459.92 0.
-929.762 -3762.38 0.
-546.073 -2867.19 0.
-626.368 -3054.63 0.
-918.414 -3542.78 0.
-809.884 -3289.84 0.
-800.594 -3268.47 0.
-432.852 -2594.42 0.
-282.857 -2244.31 0.
-395.301 -2506.58 0.
-986.947 -2776.49 0.
-1205.84 -3287.23 0.
-809.54 -3576.65 0.
-200.805 -2155.66 0.
-83.8255 -1882.07 0.
-655.236 -2387.86 0.
-507.042 -2041.83 0.
-745.389 -2597.71 0.
-338.525 -1990.56 0.
88.6677 -994.01 0.
160.437 -826.768 0.
-13.0497 -1340.54 0.
-10.1607 -1334.74 0.
481.489 -238.759 0.
162.345 -386.1 0.
146.672 -422.634 0.
119.147 -477.517 0.
73.1386 -585.232 0.
27.1301 -692.947 0.
217.364 -583.012 0.
316.865 -351.086 0.
416.366 -119.161 0.
483.896 -139.012 0.
388.912 -361.029 0.
293.928 -583.047 0.
-100.927 -768.056 0.
-95.6513 -755.777 0.
310.83 -568.946 0.
337.755 -505.982 0.
364.68 -443.018 0.
467.306 -340.226 0.
507.03 -247.407 0.
546.754 -154.588 0.
775.137 -97.5424 0.
699.315 -274.766 0.
623.493 -451.99 0.
166.342 -647.394 0.
190.853 -590.731 0.
765.281 -298.446 0.
45.0858 -749.923 0.
-32.3852 -930.43 0.
434.049 -837.717 0.
462.889 -770.173 0.
491.73 -702.629 0.
331.301 -729.067 0.
343.991 -699.371 0.
356.68 -669.675 0.
426.231 -613.227 0.
442.18 -576.532 0.
458.129 -539.838 0.
433.465 -601.42 0.
400.12 -679.668 0.
32.7619 -892.947 0.
40.5464 -874.967 0.
48.3308 -856.986 0.
47.8412 -866.114 0.
16.5387 -939.235 0.
-14.7637 -1012.36 0.
246.069 -869.854 0.
300.062 -743.757 0.
354.054 -617.659 0.
339.654 -593.215 0.
344.953 -580.706 0.
-68.6633 -747.442 0.
925.917 -380.882 0.
894.193 -454.275 0.
305.902 -728.064 0.
363.578 -593.203 0.
421.254 -458.343 0.
333.533 -475.139 0.
287.098 -583.773 0.
240.664 -692.407 0.
390.384 -608.402 0.
428.682 -519.446 0.
466.981 -430.489 0.
54.5537 -584.153 0.
63.6149 -562.998 0.
564.197 -321.335 0.
611.607 -210.598 0.
659.017 -99.8606 0.
366.745 -195.34 0.
323.498 -296.379 0.
280.252 -397.418 0.
549.085 -346.73 0.
521.926 -410.338 0.
494.768 -473.946 0.
207.959 -503.385 0.
277.273 -341.318 0.
222.011 -235.37 0.
71.3755 -427.213 0.
4.34591 -583.226 0.
453.736 -469.585 0.
497.092 -368.695 0.
540.447 -267.805 0.
453.791 -275.891 0.
434.955 -320.199 0.
416.119 -364.506 0.
499.168 -351.281 0.
492.268 -367.195 0.
485.368 -383.109 0.
185.075 -526.306 0.
175.492 -548.293 0.
327.924 -511.919 0.
287.887 -604.679 0.
247.851 -697.44 0.
89.4752 -821.874 0.
76.0293 -852.863 0.
62.5833 -883.852 0.
198.583 -734.486 0.
289.972 -521.398 0.
381.361 -308.31 0.
381.696 -343.147 0.
336.093 -450.789 0.
453.882 -218.841 0.
337.677 -279.49 0.
322.063 -316.165 0.
192.681 -414.265 0.
146.721 -522.045 0.
100.762 -629.824 0.
170.365 -571.404 0.
269.903 -339.448 0.
369.441 -107.492 0.
474.122 -111.666 0.
379.262 -333.736 0.
284.402 -555.807 0.
-25.6075 -704.247 0.
-20.2877 -691.987 0.
376.849 -509.102 0.
403.851 -446.239 0.
430.853 -383.375 0.
405.281 -335.174 0.
444.959 -242.345 0.
484.638 -149.516 0.
701.545 -97.7792 0.
625.743 -275.012 0.
549.94 -452.245 0.
132.239 -630.24 0.
156.797 -573.627 0.
877.302 -218.838 0.
204.588 -650.066 0.
127.086 -830.599 0.
431.612 -807.44 0.
460.424 -739.901 0.
489.237 -672.362 0.
301.95 -710.185 0.
314.613 -680.499 0.
327.277 -650.812 0.
263.382 -651.543 0.
279.301 -614.871 0.
295.221 -578.199 0.
682.82 -463.121 0.
649.551 -541.44 0.
-118.471 -926.124 0.
-110.646 -908.062 0.
-102.822 -890.001 0.
295.478 -728.474 0.
264.205 -801.628 0.
232.931 -874.781 0.
198.168 -858.961 0.
252.12 -732.9 0.
306.072 -606.84 0.
284.963 -585.314 0.
290.249 -572.875 0.
71.4488 -655.738 0.
1016.68 -310.505 0.
984.925 -383.924 0.
232.923 -727.838 0.
290.537 -592.984 0.
348.151 -458.13 0.
494.549 -374.976 0.
448.171 -483.613 0.
401.794 -592.251 0.
452.647 -550.101 0.
491.017 -461.209 0.
529.388 -372.317 0.
48.2743 -554.871 0.
57.2991 -533.72 0.
636.761 -259.092 0.
684.126 -148.33 0.
731.492 -37.5677 0.
355.142 -168.704 0.
311.988 -269.827 0.
268.835 -370.951 0.
497.792 -337.502 0.
470.666 -401.186 0.
443.541 -464.87 0.
354.815 -408.442 0.
424.088 -246.377 0.
64.4792 -271.564 0.
-58.8529 -451.419 0.
-126.066 -607.223 0.
436.258 -445.731 0.
479.696 -344.837 0.
523.134 -243.943 0.
436.072 -252.13 0.
417.264 -296.43 0.
398.456 -340.73 0.
479.85 -327.934 0.
472.931 -343.818 0.
466.012 -359.703 0.
455.876 -378.989 0.
446.159 -400.909 0.
128.807 -565.864 0.
88.7397 -658.662 0.
48.6729 -751.46 0.
196.365 -744.124 0.
182.911 -775.003 0.
169.458 -805.883 0.
213.507 -696.829 0.
304.856 -483.731 0.
396.206 -270.634 0.
357.914 -322.112 0.
312.354 -429.935 0.
75.4471 -1100.06 0.
-31.0079 -1172.14 0.
-42.4645 -1199.34 0.
-138.769 -1238.21 0.
-80.5226 -1102.55 0.
-22.2762 -966.894 0.
-0.684947 -975.945 0.
-106.55 -1223.85 0.
-212.415 -1471.76 0.
-143.536 -1519.23 0.
-146.018 -1525.66 0.
-148.5 -1532.09 0.
-362.441 -1601.79 0.
-348.87 -1570.08 0.
-16.5298 -1405.94 0.
-32.0304 -1442.71 0.
-47.5309 -1479.48 0.
-139.578 -1586.1 0.
-215.608 -1763.01 0.
-291.639 -1939.92 0.
-142.605 -1873.88 0.
-74.4556 -1714.9 0.
-6.30618 -1555.93 0.
-328.314 -1703.55 0.
-355.943 -1768.15 0.
132.304 -1611.57 0.
-154.428 -1584.77 0.
-73.987 -1396.95 0.
209.145 -1170.08 0.
167.069 -1267.98 0.
124.993 -1365.88 0.
-40.7223 -1495.55 0.
-57.7759 -1535.66 0.
-74.8295 -1575.77 0.
-255.819 -1763.43 0.
-334.752 -1947.93 0.
-413.685 -2132.43 0.
133.493 -1814.33 0.
193.942 -1672.5 0.
-456.388 -1857.28 0.
-499.794 -1958.43 0.
-543.201 -2059.58 0.
-141.465 -1902.49 0.
-78.0644 -1754.26 0.
-14.664 -1606.02 0.
-147.851 -1651.27 0.
-186.448 -1742.32 0.
-225.045 -1833.37 0.
-309.267 -1956.99 0.
-356.857 -2068.08 0.
-1707.8 -2738.35 0.
291.809 -1797.47 0.
335.738 -1694.78 0.
-226.349 -1898.08 0.
-296.774 -2062.36 0.
-367.2 -2226.64 0.
-324.703 -2211.83 0.
-243.012 -2020.61 0.
-161.321 -1829.38 0.
16.0212 -1649.28 0.
57.0897 -1552.22 0.
98.1581 -1455.16 0.
-425.527 -1853.98 0.
-532.319 -2103.18 0.
-154.906 -2111.76 0.
-113.48 -2016.07 0.
-72.0546 -1920.38 0.
-417.655 -2027.79 0.
-435.316 -2068.02 0.
-452.978 -2108.26 0.
-277.631 -1957.64 0.
-193.78 -1761.32 0.
-109.93 -1565 0.
-156.394 -1665.55 0.
-231.285 -1841.56 0.
-756.839 -2204.56 0.
-646.295 -1873.66 0.
-497.488 -1526.36 0.
108.019 -1097.02 0.
6.97636 -1332.23 0.
-94.0659 -1567.44 0.
-175.151 -1684.56 0.
-153.266 -1633.07 0.
-131.38 -1581.58 0.
-98.7406 -1616.75 0.
-146.041 -1727.93 0.
-193.34 -1839.12 0.
-126.883 -1721.37 0.
-69.0516 -1586.88 0.
-340.672 -1591.39 0.
-285.768 -1463.33 0.
-230.864 -1335.27 0.
45.9125 -1126.38 0.
81.316 -1043.56 0.
116.719 -960.736 0.
28.5759 -1113.13 0.
-101.213 -1415.46 0.
-231.002 -1717.79 0.
-318.269 -1751.96 0.
-284.534 -1672.25 0.
134.942 -1043.05 0.
-136.352 -1185.6 0.
-147.732 -1213 0.
-124.412 -1200.06 0.
-66.1257 -1064.52 0.
-7.83967 -928.99 0.
87.4479 -906.523 0.
-18.342 -1154.47 0.
-124.132 -1402.41 0.
-135.371 -1484.22 0.
-137.829 -1490.6 0.
-140.286 -1496.99 0.
-290.82 -1539.52 0.
-277.337 -1507.73 0.
-68.5598 -1396.64 0.
-84.0891 -1433.4 0.
-99.6185 -1470.16 0.
-66.553 -1523.48 0.
-142.641 -1700.45 0.
-218.729 -1877.42 0.
-239.147 -1883.83 0.
-171.173 -1724.81 0.
-103.199 -1565.79 0.
-262.243 -1643.63 0.
-289.847 -1708.24 0.
-842.427 -1997.88 0.
-178.364 -1563.48 0.
-98.0507 -1375.64 0.
81.3997 -1193.39 0.
39.3044 -1291.4 0.
-2.79094 -1389.41 0.
5.61411 -1444.21 0.
-11.5011 -1484.32 0.
-28.6164 -1524.42 0.
-165.631 -1693.38 0.
-244.635 -1877.83 0.
-323.64 -2062.28 0.
-9.48756 -1844.5 0.
50.9293 -1702.57 0.
-124.551 -1683.73 0.
-167.857 -1784.88 0.
-211.162 -1886.02 0.
-194.852 -1893.75 0.
-131.337 -1745.59 0.
-67.8221 -1597.43 0.
-81.0126 -1591.53 0.
-119.532 -1682.6 0.
-158.052 -1773.67 0.
-241.837 -1896.67 0.
-289.429 -2007.77 0.
-285.877 -2097.42 0.
22.4909 -1881.65 0.
66.4988 -1779.13 0.
-18.6661 -1777.45 0.
-89.1255 -1941.74 0.
-159.585 -2106.03 0.
-532.238 -2269.42 0.
-450.446 -2078.32 0.
-368.653 -1887.23 0.
71.4852 -1594.17 0.
112.509 -1497.13 0.
153.533 -1400.09 0.
-185.634 -1719.33 0.
-292.283 -1968.75 0.
-182.364 -2091.96 0.
-141.048 -1996.21 0.
-99.7328 -1900.46 0.
-316.336 -1953.09 0.
-333.881 -1993.38 0.
-351.426 -2033.67 0.
-393.772 -1975.41 0.
-309.884 -1779.09 0.
-225.997 -1582.77 0.
-202.432 -1654.42 0.
-277.388 -1830.45 0.
-526.903 -2074.04 0.
-428.413 -1748.49 0.
-279.441 -1401.3 0.
37.6441 -1095.49 0.
-63.2857 -1330.84 0.
-164.215 -1566.18 0.
-120.012 -1629.44 0.
-98.0042 -1578 0.
-75.9961 -1526.55 0.
-109.003 -1589.6 0.
-156.352 -1700.8 0.
-203.702 -1812 0.
-381.087 -1798.93 0.
-323.362 -1664.39 0.
-182.361 -1492.09 0.
-127.469 -1363.96 0.
-72.5782 -1235.83 0.
8.58581 -1110.68 0.
44.0315 -1027.82 0.
79.4771 -944.962 0.
35.6428 -1078.57 0.
-94.2427 -1380.87 0.
-224.128 -1683.17 0.
-417.908 -1762.82 0.
-383.992 -1683.54 0.
400.845 -502.295 0.
69.2625 -472.871 0.
14.1355 -599.916 0.
-108.709 -1162.52 0.
63.5984 -759.693 0.
144.544 -570.024 0.
-329.854 -2017.51 0.
620.213 199.857 0.
1018.29 1129.21 0.
644.394 349.015 0.
-32.0072 -1228.99 0.
486.341 -19.0939 0.
278.997 -310.098 0.
8.80527 -941.374 0.
-127.696 -1402.94 0.
192.11 -657.102 0.
58.7366 -968.666 0.
15.7111 -1437.49 0.
-7.56221 -1492.48 0.
173.536 -1070.6 0.
52.219 -987.485 0.
271.756 -476.024 0.
112.34 -848.812 0.
133.644 -813.627 0.
50.4658 -1008.23 0.
245.306 -503.513 0.
6.26567 -1054.42 0.
295.675 -379.223 0.
265.403 -489.357 0.
480.107 11.5768 0.
199.355 -643.549 0.
-706.917 -3164.31 0.
193.274 -1062.46 0.
378.248 -629.443 0.
491.483 -301.752 0.
50.0166 -1330.84 0.
-595.314 -2835.64 0.
-498.754 -2683.73 0.
84.3535 -1324.13 0.
636.269 -505.459 0.
422.804 -1004.07 0.
148.211 -1645.35 0.
-177.387 -1720.88 0.
59.4778 -1168.1 0.
451.995 -252.139 0.
339.991 -707.37 0.
15.4385 -1464.18 0.
316.654 -760.852 0.
211.644 -936.877 0.
446.568 -388.581 0.
-785.416 -2322.82 0.
-58.9579 -1528.97 0.
-182.818 -1817.13 0.
0.945695 -2095.46 0.
2.85782 -2090.27 0.
-180.023 -2516.2 0.
-174.451 -1007.99 0.
193.628 -148.986 0.
-66.389 -755.549 0.
233.763 -1289.6 0.
237.533 -1280.98 0.
857.41 165.244 0.
820.163 204.662 0.
237.047 -1155.04 0.
-635.143 -3066.19 0.
457.742 -515.486 0.
399.596 -650.51 0.
383.261 -480.634 0.
133.62 -1063.53 0.
246.03 -801.605 0.
-291.649 -1483.42 0.
116.25 -533.107 0.
285.017 -140.743 0.
-61.4425 -1204.39 0.
-330.78 -1833.59 0.
-356.005 -2047.96 0.
-148.158 -1478.26 0.
-358.223 -1968.31 0.
-515.892 -2224.24 0.
22.9443 -965.519 0.
138.728 -693.918 0.
524.575 -197.729 0.
330.504 -650.946 0.
8.34107 -1403.03 0.
-263.196 -1900.02 0.
-121.054 -1568.3 0.
-636.774 -2771.59 0.
-295.242 -1084.31 0.
-14.83 -430.567 0.
653.93 190.452 0.
637.782 152.376 0.
593.981 49.7202 0.
437.846 -5.63066 0.
301.46 -323.781 0.
783.727 801.591 0.
432.286 -133.741 0.
281.385 -486.242 0.
167.534 -752.262 0.
284.583 100.736 0.
-63.0865 -708.99 0.
219.274 -755.233 0.
-150.616 -878.495 0.
-118.392 -802.385 0.
185.047 -634.463 0.
147.53 -721.371 0.
110.013 -808.28 0.
178.676 -855.261 0.
137.61 -950.149 0.
96.5438 -1045.04 0.
30.4859 -1122.68 0.
9.64388 -1171.2 0.
-11.1982 -1219.73 0.
-308.888 -1308 0.
-280.813 -1243.37 0.
97.9823 -1032.64 0.
103.042 -1021.02 0.
108.102 -1009.4 0.
106.85 -1015 0.
84.4591 -1067.54 0.
62.0682 -1120.07 0.
97.1396 -1117.63 0.
103.405 -1103.43 0.
109.669 -1089.22 0.
-131.449 -1151.16 0.
-104.201 -1087.92 0.
-59.2825 -1016.98 0.
9.60783 -1090.19 0.
-45.3311 -1218.63 0.
-19.5011 -1285.32 0.
-5.36813 -1252.75 0.
8.76486 -1220.19 0.
60.2741 -1209.93 0.
29.7582 -1280.36 0.
-0.757703 -1350.79 0.
160.471 -1207.12 0.
234.656 -1033.58 0.
308.842 -860.036 0.
300.711 -940.173 0.
244.785 -1070.61 0.
200.29 -1177.68 0.
226.032 -1117.9 0.
251.773 -1058.11 0.
24.9726 -1156.41 0.
-26.9081 -1277.14 0.
-78.7888 -1397.86 0.
178.801 -1290.31 0.
216.358 -1202.33 0.
253.915 -1114.36 0.
89.9916 -1202 0.
68.1692 -1252.74 0.
-531.392 -1550.9 0.
81.1169 -1392.43 0.
26.0326 -1520.09 0.
67.4478 -1535.34 0.
185.123 -1260.3 0.
302.797 -985.261 0.
-51.8355 -1081.63 0.
-133.766 -1272.24 0.
-215.696 -1462.85 0.
114.644 -1477.62 0.
31.9871 -1670.51 0.
-50.6693 -1863.4 0.
128.61 -1502.6 0.
303.679 -1093.04 0.
294.376 -823.421 0.
215.056 -1007.75 0.
135.735 -1192.07 0.
9.75419 -1300.54 0.
77.2333 -1143 0.
144.712 -985.458 0.
-4.5959 -962.679 0.
22.8862 -899.221 0.
50.3683 -835.763 0.
56.5597 -787.805 0.
80.0864 -733.115 0.
207.141 -639.065 0.
49.4353 -946.105 0.
-76.4499 -1239.51 0.
-79.1777 -1423.5 0.
-79.6481 -1423.97 0.
-80.1186 -1424.44 0.
-39.0209 -1386.68 0.
-13.6626 -1327.47 0.
11.6957 -1268.27 0.
66.5223 -1056.92 0.
199.703 -746.134 0.
332.885 -435.352 0.
-125.873 -812.957 0.
-244.843 -1090.94 0.
-10.8758 -1184.1 0.
11.6252 -1131.93 0.
34.1262 -1079.76 0.
-29.2996 -1077.6 0.
-26.835 -1071.71 0.
-24.3703 -1065.83 0.
95.4148 -944.807 0.
156.913 -801.745 0.
218.411 -658.682 0.
29.5961 -726.329 0.
23.6019 -739.79 0.
146.033 -755.377 0.
-190.3 -863.764 0.
-157.92 -787.906 0.
284.174 -560.509 0.
246.69 -647.529 0.
209.207 -734.549 0.
208.176 -810.749 0.
167.027 -905.554 0.
125.878 -1000.36 0.
67.9778 -1075.22 0.
47.1429 -1123.78 0.
26.3081 -1172.34 0.
-488.402 -1353.39 0.
-460.354 -1288.73 0.
196.835 -958.529 0.
201.947 -946.927 0.
207.06 -935.325 0.
13.2549 -1023.81 0.
-9.23288 -1076.32 0.
-31.7206 -1128.83 0.
236.889 -1026.61 0.
242.945 -1012.29 0.
249.001 -997.96 0.
-262.679 -1176.1 0.
-235.455 -1112.92 0.
-185.732 -1039.95 0.
49.3575 -1041.69 0.
-5.5278 -1170.17 0.
65.7496 -1217.36 0.
79.8974 -1184.84 0.
94.0452 -1152.33 0.
-8.96191 -1207.9 0.
-39.4391 -1278.33 0.
-69.9163 -1348.75 0.
246.975 -1138.62 0.
321.259 -965.08 0.
395.544 -791.545 0.
381.351 -874.397 0.
325.193 -1004.66 0.
35.1576 -1216.97 0.
60.8966 -1157.29 0.
86.6357 -1097.6 0.
-6.7023 -1138.66 0.
-58.7253 -1259.25 0.
-110.748 -1379.83 0.
304.069 -1205.07 0.
341.687 -1117.16 0.
379.305 -1029.24 0.
97.3856 -1167.23 0.
75.6037 -1217.97 0.
-46.0781 -1311.29 0.
196.498 -1311.52 0.
141.47 -1439.22 0.
-128.281 -1587.36 0.
-10.6335 -1312.44 0.
107.014 -1037.51 0.
153.54 -962.302 0.
71.4829 -1152.92 0.
-10.5744 -1343.54 0.
84.267 -1459.07 0.
1.40868 -1651.83 0.
-81.4496 -1844.59 0.
194.29 -1443.45 0.
369.409 -1034.05 0.
272.228 -800.697 0.
193.001 -985.043 0.
113.774 -1169.39 0.
-0.837522 -1273.78 0.
66.53 -1116.11 0.
133.898 -958.445 0.
90.2392 -890.711 0.
117.489 -827.022 0.
144.74 -763.333 0.
-1.31311 -781.531 0.
22.145 -726.719 0.
268.965 -581.529 0.
27.7883 -924.441 0.
-98.0388 -1217.9 0.
52.3257 -1335.51 0.
52.0319 -1336.19 0.
51.738 -1336.88 0.
-88.8363 -1376.43 0.
-63.5093 -1317.21 0.
-38.1824 -1257.99 0.
44.5216 -1034.48 0.
177.733 -723.804 0.
310.945 -413.128 0.
-44.4627 -746.826 0.
-163.611 -1024.75 0.
-87.5058 -1185.16 0.
-64.9321 -1133.05 0.
-42.3584 -1080.93 0.
-22.614 -1043.58 0.
-20.1303 -1037.71 0.
-17.6465 -1031.84 0.
125.078 -900.773 0.
186.543 -757.759 0.
248.009 -614.744 0.
168.013 -635.462 0.
162.28 -649.316 0.
26.0008 -859.314 0.
-338.859 -1065.01 0.
-374.16 -1147.74 0.
91.3206 -1024.54 0.
31.717 -1163.8 0.
-27.8866 -1303.06 0.
-23.3848 -1366.54 0.
-25.9505 -1372.51 0.
-28.5161 -1378.49 0.
-52.1997 -1311.93 0.
12.7231 -1159.87 0.
77.6459 -1007.8 0.
-431.427 -1241.01 0.
-452.142 -1288.59 0.
89.2386 -1107.91 0.
10.3114 -1291.25 0.
-68.6157 -1474.6 0.
-262.522 -1615.35 0.
-186.467 -1438.15 0.
-110.412 -1260.95 0.
141.912 -1156.71 0.
73.0386 -1318.06 0.
4.16514 -1479.4 0.
-494.838 -1750.54 0.
-513.934 -1794.07 0.
-377.039 -1770.66 0.
-126.91 -1599.28 0.
-94.1088 -1521.38 0.
-72.1455 -1463.53 0.
-78.4459 -1477.28 0.
-84.7463 -1491.03 0.
-161.895 -1501.6 0.
-126.192 -1419.31 0.
-90.488 -1337.02 0.
178.889 -1246.71 0.
140.589 -1336.07 0.
102.289 -1425.43 0.
88.8835 -1485.07 0.
61.2459 -1549.87 0.
-180.563 -1700.39 0.
-180.245 -1698.75 0.
-179.927 -1697.1 0.
-298.317 -1754.67 0.
-311.568 -1785.94 0.
-324.819 -1817.21 0.
80.5749 -1642.6 0.
92.0328 -1615.72 0.
103.491 -1588.84 0.
-63.5398 -1682.76 0.
-81.8701 -1725.93 0.
190.884 -1644.82 0.
187.822 -1456.49 0.
287.397 -1224.25 0.
-85.2879 -1245.17 0.
-110.031 -1302.8 0.
-134.775 -1360.43 0.
90.1091 -1325.2 0.
48.3839 -1422.87 0.
6.65867 -1520.55 0.
73.2092 -1488.19 0.
96.1583 -1435.02 0.
119.107 -1381.85 0.
179.024 -1410.48 0.
144.463 -1492.03 0.
-72.2628 -1638.09 0.
-45.5169 -1576.42 0.
-18.7711 -1514.74 0.
-124.985 -1522.55 0.
-121.38 -1514.6 0.
-117.776 -1506.66 0.
-124.905 -1535.95 0.
-152.145 -1600.08 0.
-179.385 -1664.2 0.
-379.352 -1712.9 0.
-346.935 -1638.12 0.
53.2963 -1410.79 0.
-214.816 -1547.45 0.
-225.845 -1573.96 0.
5.2896 -1458.85 0.
69.613 -1308.5 0.
133.936 -1158.15 0.
-34.5568 -1187.39 0.
-61.1021 -1250.16 0.
-87.6475 -1312.93 0.
-146.847 -1328.37 0.
-127.16 -1282.39 0.
-107.472 -1236.42 0.
-269.318 -1293.28 0.
-264.113 -1280.91 0.
-110.988 -1208.11 0.
-108.495 -1201.8 0.
-106.001 -1195.5 0.
-87.9143 -1165.18 0.
-60.8088 -1102.24 0.
-33.7032 -1039.31 0.
7.6202 -1082.8 0.
-68.4067 -1260.01 0.
-144.434 -1437.22 0.
-73.5684 -1162.62 0.
106.064 -743.361 0.
-56.9786 -862.704 0.
-420.999 -1067.86 0.
-456.335 -1150.49 0.
42.8695 -1014.72 0.
-16.9724 -1153.68 0.
-76.8142 -1292.64 0.
-2.24538 -1326.28 0.
-4.95369 -1332.08 0.
-7.66192 -1337.89 0.
-101.342 -1301.62 0.
-36.4123 -1149.61 0.
28.5178 -997.593 0.
-198.003 -1109.59 0.
-218.671 -1157.29 0.
-86.4903 -1151.61 0.
-165.274 -1335.02 0.
-244.058 -1518.42 0.
-190.711 -1552.96 0.
-114.633 -1375.76 0.
-38.5562 -1198.56 0.
-59.1116 -1210.93 0.
-128.163 -1372.08 0.
-197.215 -1533.24 0.
-298.66 -1636.12 0.
-317.9 -1679.6 0.
-199.724 -1664.1 0.
15.5031 -1506.89 0.
48.3383 -1428.94 0.
-206.01 -1489.31 0.
-212.275 -1503.02 0.
-218.54 -1516.74 0.
-126.481 -1455.58 0.
-91.0265 -1373.03 0.
-55.5722 -1290.47 0.
73.9815 -1260.49 0.
35.5405 -1349.65 0.
-2.90064 -1438.81 0.
-32.5515 -1505.77 0.
-60.3724 -1570.42 0.
-6.4339 -1594.82 0.
-6.29435 -1593.16 0.
-6.15476 -1591.5 0.
-299.338 -1723.91 0.
-312.761 -1755.07 0.
-326.185 -1786.24 0.
-99.2607 -1688.47 0.
-87.8528 -1661.53 0.
-76.4448 -1634.58 0.
112.656 -1575.76 0.
94.2872 -1618.95 0.
-2076.39 -2584.87 0.
236.983 -1403.76 0.
336.521 -1171.45 0.
-111.147 -1225.33 0.
-136.05 -1282.81 0.
-160.953 -1340.29 0.
145.707 -1269.78 0.
103.799 -1367.46 0.
61.8918 -1465.14 0.
139.13 -1428.83 0.
161.825 -1375.48 0.
184.52 -1322.12 0.
72.8944 -1424.9 0.
38.4388 -1506.64 0.
18.3225 -1567.93 0.
44.9331 -1506.12 0.
71.5436 -1444.31 0.
-123.453 -1490.5 0.
-119.849 -1482.6 0.
-116.244 -1474.69 0.
-37.3145 -1467.61 0.
-64.6586 -1531.7 0.
-92.0026 -1595.79 0.
-237.99 -1620.58 0.
-205.536 -1545.87 0.
-368.261 -1559.81 0.
-100.193 -1466.53 0.
-111.344 -1492.92 0.
-79.1717 -1464.08 0.
-14.8743 -1313.73 0.
49.4232 -1163.38 0.
-16.5001 -1148.12 0.
-43.0408 -1210.96 0.
-69.5815 -1273.8 0.
-252.44 -1341.81 0.
-232.746 -1295.86 0.
-213.052 -1249.91 0.
-291.531 -1271.85 0.
-286.406 -1259.36 0.
-38.1781 -1145.51 0.
-35.632 -1139.36 0.
-33.0859 -1133.21 0.
-93.4353 -1135.87 0.
-66.3757 -1072.9 0.
-39.3162 -1009.93 0.
-87.2551 -1092.17 0.
-163.244 -1269.47 0.
-239.234 -1446.76 0.
-215.878 -1192.35 0.
-36.3771 -773.241 0.
29.7737 -468.596 0.
-428.78 -899.851 0.
93.7841 318.218 0.
386.777 -86.979 0.
189.963 -546.464 0.
330.364 -218.978 0.
781.941 495.889 0.
603.513 78.6359 0.
735.177 384.804 0.
607.541 479.984 0.
383.761 -43.0659 0.
630.088 530.901 0.
494.205 92.0205 0.
45.4459 -955.693 0.
62.8697 -434.202 0.
216.925 -76.4845 0.
187.259 -147.509 0.
517.537 -5.57309 0.
233.687 -668.409 0.
132.143 -905.809 0.
69.6773 -498.401 0.
218.001 -151.625 0.
265.062 -41.0502 0.
521.501 -64.1144 0.
598.656 114.736 0.
63.0928 -331.582 0.
862.687 231.029 0.
624.669 -325.571 0.
331.363 52.1949 0.
295.932 -31.6709 0.
302.25 -18.1237 0.
655.33 333.08 0.
343.932 -393.52 0.
247.72 -618.05 0.
626.495 259.146 0.
740.284 525.034 0.
197.175 -741.774 0.
697.33 458.509 0.
238.517 -614.063 0.
511.164 -684.316 0.
438.834 -854.723 0.
850.801 104.823 0.
590.834 386.366 0.
118.776 -714.928 0.
327.953 -226.841 0.
87.3179 -877.956 0.
218.331 -573.155 0.
381.194 -194.238 0.
915.718 -6.10839 0.
845.776 -170.248 0.
-792.807 -900.236 0.
633.166 -539.215 0.
583.8 -654.734 0.
527.512 345.98 0.
511.332 308.192 0.
120.189 -604.033 0.
599.742 -283.366 0.
529.884 -446.761 0.
986.803 618.975 0.
346.559 -1037.96 0.
664.097 -296.842 0.
984.621 451.277 0.
464.279 -279.897 0.
391.032 -448.694 0.
605.667 -338.958 0.
644.033 -249.713 0.
895.911 337.831 0.
266.747 -553.356 0.
607.577 241.677 0.
727.93 522.296 0.
989.809 792.699 0.
864.904 501.853 0.
641.143 -19.7498 0.
545.221 -33.9173 0.
795.867 551.309 0.
-88.7051 -173.392 0.
613.439 10.8788 0.
904.455 690.376 0.
466.514 2.0994 0.
402.384 -148.049 0.
510.244 103.248 0.
583.847 247.033 0.
486.743 21.782 0.
338.588 -322.586 0.
-71.1871 -684.963 0.
-237.798 -1073.62 0.
434.937 496.026 0.
227.959 13.9198 0.
154.831 -156.728 0.
505.116 16.3163 0.
838.605 794.21 0.
959.214 1075.39 0.
565.972 443.638 0.
407.81 75.51 0.
404.616 68.9745 0.
-238.597 -1233.6 0.
387.993 229.148 0.
124.347 -385.127 0.
121.328 -110.626 0.
-163.186 -773.982 0.
39.7584 -718.626 0.
-282.441 -996.705 0.
-350.838 -1157.3 0.
12.6011 -1094.72 0.
35.7763 -1040.45 0.
58.9517 -986.175 0.
114.044 -924.601 0.
131.504 -884.422 0.
148.963 -844.243 0.
-122.31 -1014.63 0.
-175.744 -1139.42 0.
-229.179 -1264.21 0.
-85.9995 -1199.83 0.
-76.8721 -1178.22 0.
-130.232 -1181.29 0.
-115.64 -1147.38 0.
-101.047 -1113.47 0.
-15.5425 -1098.04 0.
-78.9083 -1246.6 0.
-142.274 -1395.16 0.
-217.437 -1410.78 0.
-146.007 -1243.86 0.
-74.5765 -1076.94 0.
-92.0236 -1192.74 0.
-189.563 -1421.9 0.
-14.9077 -1534.55 0.
53.082 -1399.39 0.
112.371 -1261.57 0.
-24.6242 -1240.04 0.
-50.2655 -1299.86 0.
-75.9068 -1359.67 0.
-226.851 -1406.37 0.
-170.86 -1275.59 0.
-114.869 -1144.81 0.
72.1092 -1092.99 0.
19.2042 -1216.82 0.
-33.7008 -1340.64 0.
-121.929 -1507.16 0.
-189.7 -1666.25 0.
-105.156 -1756.02 0.
-151.651 -1865.34 0.
-198.146 -1974.65 0.
-373.264 -2066.87 0.
-304.255 -1905.37 0.
-235.246 -1743.87 0.
-299.551 -1804.84 0.
-387.89 -2012.44 0.
-476.23 -2220.05 0.
222.769 -1846.51 0.
299.541 -1667.91 0.
-171.002 -1723.28 0.
21.5223 -1714.64 0.
-17.1049 -1805.17 0.
-418.514 -2063.77 0.
-487.355 -2224.45 0.
-556.196 -2385.13 0.
-266.006 -2262.32 0.
-179.357 -2061.11 0.
-92.7091 -1859.89 0.
87.6326 -1636.09 0.
159.415 -1469.27 0.
231.197 -1302.45 0.
-67.9873 -1451.29 0.
-89.062 -1499.36 0.
84.1082 -1449.72 0.
121.825 -1361.56 0.
159.541 -1273.41 0.
-163.647 -1374.56 0.
-176.321 -1404.08 0.
-188.995 -1433.6 0.
71.2967 -1340.62 0.
62.3432 -1360.4 0.
53.3896 -1380.17 0.
92.7649 -1320.09 0.
124.297 -1246.39 0.
109.678 -1192.76 0.
-38.3907 -1359.32 0.
-92.277 -1485.49 0.
-128.299 -1543.93 0.
-46.1507 -1352.46 0.
35.9978 -1161 0.
39.4969 -1091.2 0.
21.992 -1131.28 0.
4.48701 -1171.36 0.
-337.864 -1361.16 0.
-364.15 -1421.99 0.
-390.436 -1482.81 0.
-408.071 -1339.12 0.
-318.52 -1130.55 0.
112.64 -807.485 0.
70.3358 -906.392 0.
28.0319 -1005.3 0.
19.7003 -1063.05 0.
22.6092 -1056.21 0.
25.5184 -1049.37 0.
-192.724 -918.635 0.
7.3403 -451.297 0.
207.404 16.0418 0.
48.9634 -211.69 0.
-105.073 -570.875 0.
199.623 -618.964 0.
-35.5723 -859.214 0.
-103.857 -1019.93 0.
99.8728 -1025.9 0.
122.884 -971.415 0.
145.896 -916.927 0.
58.0507 -917.236 0.
75.5142 -876.999 0.
92.9778 -836.762 0.
-215.779 -1023.68 0.
-269.296 -1148.38 0.
-322.813 -1273.08 0.
-102.493 -1175.01 0.
-93.3918 -1153.46 0.
40.9558 -1077 0.
55.3846 -1042.97 0.
69.8135 -1008.94 0.
-77.8051 -1093.18 0.
-141.157 -1241.64 0.
-204.509 -1390.11 0.
-72.8525 -1317.12 0.
-1.19948 -1150.3 0.
70.4536 -983.481 0.
-233.686 -1222.43 0.
-331.197 -1451.49 0.
-25.4052 -1507.92 0.
-65.9839 -1418.89 0.
-6.60622 -1281.03 0.
233.906 -1098.05 0.
208.087 -1157.65 0.
182.267 -1217.26 0.
-377.689 -1439.97 0.
-321.755 -1309.17 0.
-265.821 -1178.37 0.
119.164 -1041.33 0.
66.3033 -1165.26 0.
13.4428 -1289.18 0.
-76.5477 -1456.49 0.
-144.302 -1615.59 0.
-282.072 -1800.28 0.
-328.456 -1909.63 0.
-374.84 -2018.98 0.
-249.396 -1982.58 0.
-180.49 -1821.01 0.
-111.585 -1659.44 0.
-270.668 -1760.76 0.
-358.963 -1968.43 0.
-447.258 -2176.1 0.
356.806 -1757.47 0.
433.585 -1578.96 0.
-1453.55 -2241.47 0.
-94.5647 -1732.92 0.
-133.12 -1823.52 0.
-295.558 -1979.78 0.
-364.397 -2140.49 0.
-433.237 -2301.21 0.
-270.593 -2232.11 0.
-183.812 -2030.95 0.
-97.0297 -1829.79 0.
101.158 -1599.16 0.
172.897 -1432.33 0.
244.635 -1265.51 0.
-87.3868 -1427.98 0.
-108.439 -1476.1 0.
44.2876 -1435.15 0.
82.0158 -1347.05 0.
119.744 -1258.94 0.
-243.839 -1377.16 0.
-256.379 -1406.87 0.
-268.92 -1436.58 0.
82.187 -1304.81 0.
73.3478 -1324.73 0.
64.5086 -1344.66 0.
230.207 -1229.52 0.
261.699 -1155.75 0.
331.109 -1066.91 0.
-101.135 -1355.14 0.
-154.973 -1481.27 0.
-28.1624 -1469.71 0.
54.0683 -1278.13 0.
136.299 -1086.55 0.
92.5013 -1036.98 0.
74.9996 -1077.01 0.
57.4979 -1117.05 0.
-292.887 -1310.03 0.
-319.275 -1370.73 0.
-345.663 -1431.43 0.
-460.07 -1330.69 0.
-370.589 -1121.96 0.
80.9766 -789.701 0.
38.7881 -888.647 0.
-3.40037 -987.593 0.
158.154 -972.029 0.
161.322 -965.374 0.
164.491 -958.72 0.
-285.377 -926.853 0.
-85.2448 -459.608 0.
114.887 7.63761 0.
29.9719 -188.319 0.
-124.04 -547.807 0.
-44.9803 -998.901 0.
43.9439 -962.817 0.
51.8171 -942.264 0.
125.636 -905.243 0.
102.749 -959.866 0.
79.8623 -1014.49 0.
-49.3606 -1073.92 0.
-24.166 -1014.65 0.
1.02858 -955.379 0.
-275.55 -1053.49 0.
-272.394 -1046.28 0.
-269.238 -1039.07 0.
-10.9561 -978.743 0.
-42.1791 -1051.73 0.
72.8769 -1062.39 0.
44.6319 -1128.26 0.
16.387 -1194.13 0.
-269.676 -1363.88 0.
-287.374 -1405.07 0.
-305.072 -1446.26 0.
11.726 -1278.68 0.
58.5755 -1169.87 0.
105.425 -1061.06 0.
-168.104 -1095.96 0.
-124.868 -994.028 0.
236.35 -755.83 0.
-5.24613 -1128.42 0.
-152.13 -1470.82 0.
33.5741 -1587.36 0.
106.015 -1418.49 0.
178.456 -1249.62 0.
-410.591 -1467.41 0.
-465.47 -1596.48 0.
-520.348 -1725.55 0.
-95.567 -1587.12 0.
-99.7573 -1596.89 0.
-103.948 -1606.66 0.
-40.5758 -1443.17 0.
39.665 -1255.24 0.
-43.1069 -1153.4 0.
-45.4197 -1158.55 0.
-47.7324 -1163.71 0.
122.123 -1131.47 0.
59.9343 -1276.59 0.
-2.25459 -1421.71 0.
-175.01 -1527.29 0.
-153.222 -1476.42 0.
-131.435 -1425.55 0.
540.432 -1297.66 0.
426.71 -1562.81 0.
-1895.55 -2775.16 0.
-159.329 -1908.38 0.
-94.8586 -1757.72 0.
-112.255 -1679.24 0.
-135.294 -1732.85 0.
-158.334 -1786.46 0.
-124.08 -1759.28 0.
-81.8427 -1660.77 0.
-39.6058 -1562.26 0.
90.6082 -1494.18 0.
79.1557 -1519.97 0.
67.7032 -1545.76 0.
-80.3353 -1579.83 0.
-61.2196 -1534.84 0.
0.189632 -1473.47 0.
9.70054 -1451.21 0.
19.2114 -1428.95 0.
-270.141 -1524.82 0.
-248.224 -1473.34 0.
-226.306 -1421.85 0.
-37.5727 -1391.97 0.
-103.118 -1545.76 0.
-168.662 -1699.55 0.
106.816 -1639.03 0.
87.2465 -1685.37 0.
-19.6761 -1766.02 0.
-212.118 -1536.94 0.
-48.7692 -1155.4 0.
248.968 -830.163 0.
152.03 -1054.76 0.
55.0932 -1279.36 0.
-102.403 -1420.59 0.
-73.1221 -1352.36 0.
-43.8409 -1284.14 0.
-261.795 -1334.18 0.
-243.509 -1292.42 0.
-225.223 -1250.66 0.
-419.868 -1347.43 0.
-428.541 -1367.55 0.
-125.707 -1235.97 0.
-72.588 -1111.97 0.
-19.4694 -987.969 0.
182.485 -797.048 0.
240.911 -660.415 0.
299.337 -523.781 0.
-186.291 -692.277 0.
-192.601 -706.878 0.
-198.91 -721.48 0.
-270.485 -739.47 0.
-262.31 -720.62 0.
-374.067 -1108.72 0.
134.366 -892.215 0.
142.207 -871.691 0.
11.0674 -923.476 0.
-12.1006 -977.872 0.
-35.2682 -1032.27 0.
-58.3086 -1046.27 0.
-33.119 -987.009 0.
-7.92946 -927.75 0.
-267.733 -1019.28 0.
-264.662 -1012.04 0.
-261.592 -1004.79 0.
58.5826 -917.718 0.
27.4138 -990.615 0.
-0.0624717 -1061.53 0.
-28.2627 -1127.38 0.
-56.4628 -1193.23 0.
-361.503 -1372.32 0.
-379.154 -1413.44 0.
-396.804 -1454.56 0.
65.9226 -1223.87 0.
112.846 -1115.16 0.
159.769 -1006.45 0.
33.335 -978.107 0.
76.7298 -876.298 0.
-186.974 -906.238 0.
-9.87931 -1098.7 0.
-156.76 -1441.07 0.
-169.088 -1643.09 0.
-96.8104 -1474.04 0.
-24.5328 -1304.99 0.
-277.397 -1379.8 0.
-332.668 -1508.59 0.
-387.94 -1637.38 0.
-63.8979 -1542.35 0.
-68.1003 -1552.18 0.
-72.3028 -1562 0.
18.4364 -1386.38 0.
98.8404 -1198.54 0.
70.7193 -1073.57 0.
68.3137 -1078.64 0.
65.908 -1083.72 0.
47.2721 -1132.31 0.
-15.0292 -1277.46 0.
-77.3305 -1422.6 0.
-181.504 -1498.68 0.
-159.672 -1448.06 0.
-137.84 -1397.45 0.
404.783 -1324.24 0.
291.249 -1589.58 0.
-723.291 -2241.1 0.
15.9204 -1801.45 0.
80.502 -1650.84 0.
-69.2304 -1629.96 0.
-92.3322 -1683.45 0.
-115.434 -1736.94 0.
-226.765 -1771.53 0.
-184.599 -1672.98 0.
-142.433 -1574.43 0.
-24.8161 -1512.41 0.
-36.2365 -1538.07 0.
-47.657 -1563.74 0.
152.324 -1448.15 0.
171.437 -1403.07 0.
7.12884 -1438.96 0.
16.6517 -1416.66 0.
26.1745 -1394.37 0.
-67.2014 -1406.29 0.
-45.2954 -1354.73 0.
-23.3893 -1303.17 0.
-217.838 -1438.34 0.
-283.334 -1592.15 0.
-348.831 -1745.96 0.
133.005 -1596.37 0.
113.421 -1642.66 0.
19.3392 -1717.91 0.
-195.885 -1498.7 0.
-32.5696 -1117.2 0.
182.171 -827.596 0.
85.496 -1052.22 0.
-11.1792 -1276.85 0.
-196.038 -1429.3 0.
-166.81 -1361.01 0.
-137.581 -1292.71 0.
-171.519 -1263.94 0.
-153.311 -1222.07 0.
-135.103 -1180.21 0.
-219.048 -1230.3 0.
-227.767 -1250.33 0.
-103.951 -1196.08 0.
-50.8101 -1071.95 0.
2.33076 -947.817 0.
-48.5753 -864.257 0.
10.0212 -727.796 0.
68.6177 -591.336 0.
-68.1827 -610.366 0.
-74.5649 -624.914 0.
-80.9473 -639.463 0.
-367.843 -750.266 0.
-359.666 -731.513 0.
110.348 685.008 0.
571.846 -11.4409 0.
476.877 -235.639 0.
397.93 229.91 0.
345.198 106.025 0.
429.55 302.26 0.
593.245 523.823 0.
539.194 396.077 0.
215.968 -359.911 0.
17.9624 -335.34 0.
297.199 315.418 0.
619.657 1067.28 0.
642.88 345.541 0.
581.233 202.458 0.
485.37 240.952 0.
383.224 2.16552 0.
254.686 -298.176 0.
-61.8759 -468.101 0.
-180.894 -745.115 0.
-144.861 -660.374 0.
529.525 -214.733 0.
481.458 -327.467 0.
621.871 -0.406759 0.
422.284 -424.527 0.
546.367 -135.195 0.
152.637 -460.207 0.
72.1562 -865.985 0.
103.537 -793.785 0.
-55.7365 -961.423 0.
77.6182 -651.356 0.
298.461 -136.992 0.
277.08 -307.305 0.
173.268 -549.36 0.
271.792 -319.328 0.
689.543 184.332 0.
343.403 -622.06 0.
57.3046 -1288.53 0.
187.334 -1073.08 0.
441.851 -478.665 0.
235.723 -874.784 0.
590.708 -45.8728 0.
756.866 342.428 0.
557.2 231.961 0.
476.515 43.0283 0.
572.751 267 0.
507.024 150.703 0.
255.86 -435.633 0.
246.359 -457.972 0.
689.749 -364.331 0.
887.959 98.1729 0.
-723.949 -922.219 0.
842.273 -179.827 0.
840.704 -184.582 0.
562.567 -200.896 0.
502.561 -342.062 0.
346.11 -708.167 0.
78.9048 -832.618 0.
488.381 122.215 0.
188.591 -577.707 0.
255.741 -602.022 0.
496.394 -41.6342 0.
453.329 -143.371 0.
413.112 -1250.96 0.
369.142 -1354.05 0.
576.398 -93.589 0.
632.51 37.1084 0.
452.772 -382.389 0.
189.286 -1160.93 0.
510.693 -410.344 0.
928.442 565.081 0.
298.81 141.207 0.
235.339 -6.57499 0.
125.615 -262.314 0.
740.345 -205.194 0.
752.46 -176.805 0.
621.748 -232.246 0.
315.939 -303.117 0.
511.345 153.198 0.
431.529 -86.6879 0.
503.916 82.152 0.
770.567 704.04 0.
561.514 544.32 0.
390.874 146.439 0.
141.059 -436.046 0.
271.237 -369.561 0.
289.107 -326.864 0.
452.597 55.5593 0.
170.948 -672.279 0.
116.58 -797.663 0.
588.71 409.641 0.
209.802 -472.426 0.
426.992 36.2073 0.
468.354 803.883 0.
288.056 385.292 0.
585.482 1081.1 0.
557.044 656.67 0.
285.797 23.1239 0.
330.481 127.294 0.
-151.726 -40.996 0.
-82.3802 120.791 0.
-573.752 -1076.75 0.
258.381 -647.051 0.
303.246 -544.483 0.
4.69592 -629.682 0.
-64.9925 -792.72 0.
-134.681 -955.759 0.
-107.511 -1010.65 0.
-91.5573 -974.228 0.
-75.6039 -937.808 0.
-186.866 -987.906 0.
-197.75 -1013.81 0.
-208.633 -1039.72 0.
-12.4331 -1025.51 0.
-52.1262 -1118.24 0.
-279.64 -1274.79 0.
-225.635 -1149.47 0.
-171.631 -1024.14 0.
-232.083 -987.183 0.
-246.178 -1019.93 0.
-260.272 -1052.67 0.
152.51 -969.568 0.
73.8002 -1154.25 0.
-4.9096 -1338.93 0.
46.5338 -1306.28 0.
77.8338 -1233.64 0.
283.741 -1086.13 0.
-195.457 -1183.9 0.
-135.728 -1044.16 0.
-41.6956 -943.78 0.
-126.856 -1142.84 0.
-212.016 -1341.9 0.
-121.49 -1437.47 0.
-174.137 -1560.83 0.
-226.783 -1684.18 0.
-52.2501 -1623.47 0.
-36.6683 -1586.66 0.
-21.0865 -1549.86 0.
-54.3307 -1605.79 0.
-79.256 -1664.16 0.
-167.777 -1735.55 0.
-120.905 -1626.59 0.
-74.0319 -1517.62 0.
-70.9523 -1456.04 0.
-68.7061 -1451.24 0.
-66.4599 -1446.44 0.
-124.788 -1551.95 0.
-204.822 -1738.52 0.
-284.856 -1925.09 0.
78.082 -1646.43 0.
185.131 -1396.5 0.
-1274.43 -1818.07 0.
465.685 -1136.16 0.
432.357 -1214.24 0.
-64.1137 -1475.21 0.
-59.3945 -1465.32 0.
-54.6753 -1455.43 0.
-201.878 -1551.73 0.
-241.991 -1644.95 0.
-282.104 -1738.18 0.
-205.258 -1774.18 0.
-240.006 -1855.68 0.
-274.754 -1937.18 0.
115.039 -1611.84 0.
211.636 -1387.68 0.
84.2448 -1291.68 0.
36.5774 -1402.5 0.
-11.09 -1513.32 0.
119.173 -1513.71 0.
124.017 -1502.17 0.
128.861 -1490.62 0.
-256.298 -1553.37 0.
-163.299 -1335.65 0.
-70.2993 -1117.93 0.
171.338 -982.582 0.
167.307 -991.492 0.
195.874 -984.594 0.
-157.107 -1186.81 0.
-184.132 -1249.34 0.
-56.5475 -1215.52 0.
-8.65667 -1104.31 0.
39.2342 -993.098 0.
-9.31512 -935.966 0.
23.9395 -857.799 0.
57.1941 -779.631 0.
-21.5717 -945.067 0.
-136.32 -1211.92 0.
-251.068 -1478.77 0.
-220.17 -1386.34 0.
-165.222 -1257.33 0.
-140.327 -1141.67 0.
-83.9676 -1009.29 0.
-27.608 -876.902 0.
-8.30042 -801.294 0.
-13.5835 -813.175 0.
-18.8665 -825.055 0.
-145.571 -882.077 0.
-143.359 -876.959 0.
-141.147 -871.842 0.
-377.855 -909.199 0.
-335.287 -810.356 0.
-469.856 -1000.04 0.
224.695 -630.152 0.
269.568 -527.628 0.
-9.07034 -603.967 0.
-78.8913 -766.964 0.
-148.712 -929.962 0.
-144.944 -995.34 0.
-129.158 -958.789 0.
-113.371 -922.238 0.
-78.8827 -911.24 0.
-90.0096 -936.937 0.
-101.136 -962.634 0.
-79.2229 -1022.62 0.
-118.848 -1115.28 0.
-403.85 -1296.56 0.
-349.878 -1171.22 0.
-295.907 -1045.88 0.
-151.747 -921.306 0.
-165.584 -954.216 0.
-179.422 -987.126 0.
103.563 -959.022 0.
24.8968 -1143.82 0.
-53.7696 -1328.61 0.
65.0834 -1266.61 0.
96.4314 -1194.1 0.
1089.45 -709.544 0.
-339.483 -1213.76 0.
-280.09 -1073.87 0.
-16.9696 -902.651 0.
-102.209 -1101.63 0.
-187.448 -1300.6 0.
-0.938867 -1354.77 0.
-53.569 -1478.22 0.
-106.199 -1601.66 0.
5.095 -1566.48 0.
20.9084 -1530.02 0.
36.7218 -1493.57 0.
-54.3901 -1574.61 0.
-79.1716 -1633.03 0.
-193.73 -1715.37 0.
-146.589 -1606.54 0.
-99.447 -1497.72 0.
62.4253 -1367.6 0.
64.642 -1362.8 0.
66.8586 -1357.99 0.
11.1021 -1462.4 0.
-68.8797 -1649.07 0.
-148.861 -1835.74 0.
19.34 -1640.18 0.
126.396 -1390.27 0.
-848.142 -1603.64 0.
522.977 -1079.67 0.
489.716 -1157.71 0.
-145.637 -1479.11 0.
-141.031 -1469.26 0.
-136.424 -1459.41 0.
-151.295 -1498.16 0.
-191.342 -1591.45 0.
-231.389 -1684.74 0.
-138.729 -1714.52 0.
-173.655 -1795.98 0.
-208.581 -1877.44 0.
-44.2572 -1648.43 0.
52.0521 -1424.14 0.
127.063 -1242.29 0.
79.4381 -1353.06 0.
31.8136 -1463.84 0.
235.346 -1432.58 0.
240.055 -1420.89 0.
244.764 -1409.2 0.
-29.8497 -1425.28 0.
63.1086 -1207.39 0.
156.067 -989.504 0.
-100.955 -1068.11 0.
-104.895 -1077 0.
130.713 -981.076 0.
-257.479 -1198.61 0.
-284.428 -1261.32 0.
-45.2539 -1179.16 0.
2.77194 -1068.09 0.
50.7979 -957.017 0.
84.6221 -864.72 0.
117.855 -786.567 0.
151.089 -708.414 0.
-61.5252 -929.908 0.
-176.169 -1196.78 0.
-290.813 -1463.64 0.
-308.312 -1393.04 0.
-253.451 -1263.89 0.
-202.274 -1137.41 0.
-145.885 -1004.92 0.
-89.4948 -872.433 0.
268.872 -650.863 0.
263.725 -662.829 0.
258.578 -674.794 0.
-182.232 -866.652 0.
-180.091 -861.588 0.
-177.951 -856.524 0.
-182.6 -794.474 0.
-139.95 -695.958 0.
-474.27 -968.87 0.
134.635 -709.088 0.
138.093 -698.677 0.
-149.83 -818.605 0.
-158.095 -838.219 0.
-166.36 -857.832 0.
-123.379 -865.991 0.
-145.198 -916.385 0.
-167.017 -966.78 0.
-63.6117 -892.099 0.
-26.9042 -806.984 0.
9.80327 -721.868 0.
15.9931 -789.436 0.
-32.2764 -901.081 0.
-372.679 -1137.74 0.
-427.726 -1265.25 0.
-482.774 -1392.76 0.
-320.84 -1356.63 0.
-257.637 -1208.41 0.
-194.435 -1060.18 0.
81.7501 -895.819 0.
73.2774 -914.531 0.
64.8046 -933.243 0.
140.045 -894.862 0.
148.549 -873.787 0.
1028.94 -478.98 0.
-101.803 -897.842 0.
-69.6292 -823.967 0.
-13.2481 -800.493 0.
-128.629 -1070.41 0.
-244.01 -1340.33 0.
4.3846 -1368.17 0.
-9.01909 -1399.15 0.
-22.4227 -1430.12 0.
131.252 -1274.56 0.
212.298 -1085.08 0.
293.345 -895.602 0.
191.173 -1056.53 0.
108.537 -1248.61 0.
-171.907 -1502.57 0.
-147.329 -1443.95 0.
-122.752 -1385.34 0.
136.922 -1259.75 0.
107.785 -1328.09 0.
78.6481 -1396.43 0.
141.681 -1342.52 0.
191.297 -1226.52 0.
240.914 -1110.52 0.
205.177 -1049.88 0.
242.333 -964.109 0.
-1329 -1567.14 0.
629.208 -849.376 0.
565.031 -998.193 0.
-104.175 -1370.14 0.
-90.5728 -1338.83 0.
-76.9709 -1307.52 0.
-21.4205 -1244.24 0.
8.99402 -1174.13 0.
39.4085 -1104.03 0.
140.357 -1015.13 0.
162.741 -963.032 0.
185.126 -910.933 0.
193.007 -1005.67 0.
133.111 -1144.01 0.
127.57 -1251.05 0.
103.339 -1307.68 0.
79.1077 -1364.3 0.
251.072 -1366.67 0.
184.458 -1522.55 0.
117.843 -1678.43 0.
-128.738 -1662.93 0.
29.6036 -1293.89 0.
187.945 -924.857 0.
-101.177 -1033.54 0.
-131.788 -1104.95 0.
111.311 -1062.41 0.
-251.613 -1200.06 0.
-241.94 -1178.11 0.
-75.0676 -1100.41 0.
-101.231 -1162.11 0.
-127.394 -1223.8 0.
-48.487 -1251.74 0.
-84.5683 -1336.34 0.
-120.65 -1420.94 0.
-331.982 -1431.12 0.
-257.46 -1257.25 0.
-182.939 -1083.37 0.
-180.458 -993.589 0.
-132.871 -883.58 0.
-100.979 -774.241 0.
-41.3698 -635.876 0.
18.2391 -497.51 0.
466.469 -264.45 0.
420.137 -373.32 0.
373.804 -482.189 0.
-162.409 -780.123 0.
-189.458 -843.854 0.
-216.507 -907.584 0.
-104.064 -794.476 0.
-55.8147 -680.384 0.
-599.261 -992.462 0.
64.2165 -708.328 0.
67.8011 -697.942 0.
-221.567 -817.772 0.
-229.901 -837.382 0.
-238.235 -856.993 0.
-135.101 -839.423 0.
-156.824 -889.89 0.
-178.547 -940.357 0.
-123.363 -886.937 0.
-86.6575 -801.739 0.
-49.9522 -716.541 0.
103.171 -720.212 0.
54.8356 -831.878 0.
-307.31 -1078.29 0.
-362.481 -1205.83 0.
-417.652 -1333.37 0.
-327.871 -1328.43 0.
-264.543 -1180.33 0.
-201.215 -1032.24 0.
42.5596 -880.923 0.
34.335 -899.817 0.
26.1103 -918.711 0.
-50.5466 -944.068 0.
-41.8397 -923.156 0.
459.725 -690.972 0.
327.241 -682.999 0.
359.329 -608.86 0.
-102.976 -808.091 0.
-218.389 -1077.81 0.
-333.803 -1347.53 0.
-57.0179 -1363.55 0.
-70.5284 -1394.42 0.
-84.0387 -1425.3 0.
110.187 -1251.76 0.
191.143 -1062.31 0.
272.1 -872.87 0.
281.038 -986.863 0.
198.454 -1178.99 0.
-287.571 -1520.93 0.
-263.203 -1461.94 0.
-238.836 -1402.95 0.
101.067 -1244.15 0.
71.839 -1312.2 0.
42.6115 -1380.25 0.
233.945 -1271.17 0.
283.568 -1155.02 0.
333.19 -1038.86 0.
123.965 -1053.53 0.
160.888 -967.602 0.
-1285.54 -1516.91 0.
630.366 -817.004 0.
566.002 -965.813 0.
-6.05435 -1297.15 0.
7.29963 -1265.68 0.
20.6535 -1234.21 0.
14.0433 -1198.29 0.
44.4299 -1128.13 0.
74.8165 -1057.98 0.
52.251 -1021.61 0.
74.7947 -969.739 0.
97.3383 -917.868 0.
293.301 -930.827 0.
233.477 -1069.32 0.
130.539 -1217.75 0.
106.449 -1274.5 0.
82.3595 -1331.24 0.
135.254 -1384.53 0.
68.7483 -1540.59 0.
2.24232 -1696.66 0.
-313.938 -1711.01 0.
-155.615 -1341.92 0.
2.70708 -972.828 0.
167.428 -887.198 0.
136.911 -958.663 0.
217.767 -984.793 0.
-103.661 -1104.8 0.
-93.9855 -1082.98 0.
-208.11 -1126.11 0.
-234.389 -1187.72 0.
-260.668 -1249.32 0.
-25.4424 -1210.36 0.
-61.452 -1295.12 0.
-97.4616 -1379.88 0.
-393.167 -1425.2 0.
-318.563 -1251.49 0.
-243.958 -1077.77 0.
-163.302 -955.357 0.
-115.716 -845.271 0.
-138.045 -759.011 0.
-78.4771 -620.548 0.
-18.9093 -482.084 0.
303.173 -302.949 0.
256.739 -411.788 0.
210.305 -520.627 0.
-137.052 -738.151 0.
-164.026 -802.038 0.
-191.001 -865.926 0.
-65.216 -746.483 0.
-17.2605 -632.654 0.
-305.896 -39.9499 0.
566.428 625.64 0.
238.129 -140.919 0.
276.271 508.772 0.
-124.69 -426.734 0.
-92.7345 -352.24 0.
380.229 415.471 0.
371.945 395.824 0.
132.029 -164.438 0.
200.664 11.8904 0.
175.568 -46.1821 0.
-62.6961 -601.776 0.
308.553 -372.291 0.
574.006 247.708 0.
478.552 663.775 0.
288.012 218.498 0.
242.76 112.517 0.
106.917 -270.094 0.
-74.3715 -692.901 0.
-133.536 -830.541 0.
105.431 -625.058 0.
297.268 -176.988 0.
387.132 33.1937 0.
-87.1301 -635.045 0.
364.587 417.402 0.
221.277 -383.079 0.
943.352 -33.9663 0.
1096.01 321.133 0.
165.834 15.7239 0.
333.317 407.162 0.
491.591 777.219 0.
516.827 124.373 0.
518.832 129.841 0.
285.612 -413.495 0.
308.284 -718.557 0.
540.972 -174.903 0.
692.897 180.261 0.
740.854 -54.0001 0.
738.88 -57.0899 0.
-203.402 -1071.88 0.
-73.2285 -763.987 0.
-130.658 -893.842 0.
234.043 -836.325 0.
306.976 -665.015 0.
282.021 -722.113 0.
764.842 -176.972 0.
670.548 -396.178 0.
667.847 -401.737 0.
142.315 -822.367 0.
234.148 -609.455 0.
-911.389 -1721.21 0.
837.47 -308.747 0.
777.71 -447.58 0.
281.22 -780.836 0.
331.893 -662.309 0.
264.877 -818.407 0.
340.017 -473.648 0.
467.896 -176.376 0.
232.96 -725.596 0.
138.623 -623.143 0.
283.516 -285.837 0.
559.798 358.036 0.
478.922 -657.665 0.
592.084 -394.118 0.
665.131 54.5935 0.
648.174 15.7206 0.
575.033 -154.277 0.
240.148 -890.123 0.
582.388 -92.2827 0.
423.957 -462.732 0.
-80.6208 -784.211 0.
343.805 207.071 0.
509.143 593.987 0.
669.652 -201.35 0.
379.299 -879.187 0.
637.03 22.9225 0.
120.262 -830.603 0.
263.929 -495.488 0.
251.107 230.883 0.
110.07 -97.7492 0.
328.569 412.439 0.
229.895 -631.215 0.
128.061 -867.582 0.
-40.5085 -1259.73 0.
-82.5866 -551.282 0.
473.216 745.693 0.
177.461 55.7768 0.
193.912 -124.311 0.
48.5343 -462.918 0.
233.413 206.378 0.
323.095 415.052 0.
591.928 1041.59 0.
770.253 1126.93 0.
187.278 -234.396 0.
377.357 208.417 0.
814.97 1469.34 0.
367.375 425.255 0.
-3.99575 -441.385 0.
-268.342 -1263.12 0.
406.857 309.731 0.
-424.093 -947.165 0.
-2.99402 -735.119 0.
17.5215 -687.845 0.
-279.407 -791.706 0.
-300.529 -841.215 0.
-321.652 -890.724 0.
-140.707 -845.262 0.
-151.857 -871.201 0.
-163.007 -897.139 0.
-165.591 -974.516 0.
-221.843 -1105.53 0.
-278.094 -1236.54 0.
-184.188 -1132.28 0.
-136.512 -1021.8 0.
-126.848 -926.2 0.
-71.9879 -799.328 0.
-17.1272 -672.456 0.
46.8935 -594.295 0.
12.0894 -676.061 0.
-22.7147 -757.826 0.
-26.091 -815.172 0.
-49.7208 -870.167 0.
-73.3506 -925.162 0.
-329.008 -1090.77 0.
-361.575 -1168.08 0.
-63.59 -1103.84 0.
440.957 -1027.83 0.
370.047 -1193.03 0.
-568.19 -1646.19 0.
-442.557 -1352.36 0.
-316.925 -1058.54 0.
121.084 -782.865 0.
63.8854 -915.714 0.
6.68682 -1048.56 0.
191.013 -1046.07 0.
158.088 -1123.08 0.
125.163 -1200.1 0.
352.063 -1057.21 0.
384.363 -981.312 0.
-196.933 -1195.58 0.
-299.471 -1436.07 0.
-402.009 -1676.57 0.
-189.133 -1686.52 0.
-139.406 -1570.92 0.
-89.6797 -1455.31 0.
150.758 -1330.71 0.
130.922 -1377.3 0.
111.087 -1423.89 0.
-54.3437 -1523.58 0.
-67.295 -1554.95 0.
-388.057 -1718.69 0.
436.133 -1376.03 0.
430.038 -1389.42 0.
-208.614 -1660.55 0.
-177.788 -1587.92 0.
-146.961 -1515.28 0.
-147.691 -1487.53 0.
-154.732 -1503.54 0.
-161.773 -1519.54 0.
-146.321 -1537.03 0.
-162.264 -1573.75 0.
-178.207 -1610.48 0.
241.149 -1308.58 0.
314.714 -1138.23 0.
59.1525 -1126.56 0.
60.6235 -1122.33 0.
62.0945 -1118.1 0.
54.768 -1081.2 0.
108.871 -955.061 0.
162.974 -828.924 0.
-51.2461 -966.502 0.
-131.055 -1152.59 0.
-210.863 -1338.67 0.
184.256 -1157.84 0.
212.658 -1092.42 0.
448.063 -935.635 0.
-78.3674 -1151.26 0.
-73.7415 -1139.26 0.
-311.001 -1205.34 0.
-239.54 -1038.44 0.
-168.079 -871.543 0.
197.332 -604.916 0.
236.332 -512.885 0.
275.332 -420.855 0.
-63.4147 -543.321 0.
-61.7174 -538.971 0.
-60.0201 -534.621 0.
-138.664 -683.782 0.
-207.804 -845.49 0.
-213.113 -957.371 0.
-186.524 -895.769 0.
-159.935 -834.168 0.
-21.5789 -717.742 0.
17.7812 -626.698 0.
57.1413 -535.653 0.
-185.028 -636.265 0.
-210.493 -695.214 0.
-235.959 -754.162 0.
-11.8828 -569.368 0.
53.8914 -417.581 0.
-76.7214 -768.421 0.
30.7132 -689.798 0.
51.2979 -642.469 0.
-260.619 -752.414 0.
-281.64 -802.011 0.
-302.661 -851.607 0.
-100.953 -796.449 0.
-112.044 -822.457 0.
-123.135 -848.466 0.
-80.3753 -907.201 0.
-136.369 -1038.51 0.
-192.363 -1169.83 0.
-373.644 -1181.38 0.
-325.896 -1071.06 0.
-15.545 -846.968 0.
39.2174 -719.923 0.
93.98 -592.879 0.
160.308 -515.064 0.
125.625 -596.872 0.
90.9407 -678.68 0.
-70.9107 -802.655 0.
-94.4894 -857.715 0.
-118.068 -912.775 0.
-368.954 -1076.2 0.
-401.835 -1153.21 0.
507.133 -826.931 0.
363.1 -1030.56 0.
292.135 -1195.67 0.
-577.39 -1618.45 0.
-451.681 -1324.73 0.
-325.972 -1031.02 0.
128.437 -748.506 0.
71.2933 -881.313 0.
14.1497 -1014.12 0.
236.696 -994.181 0.
203.633 -1071.11 0.
170.571 -1148.05 0.
417.993 -998.664 0.
450.224 -922.773 0.
-103.628 -1124.25 0.
-206.278 -1364.54 0.
-308.929 -1604.82 0.
-242.367 -1678.11 0.
-192.423 -1562.53 0.
-142.48 -1446.94 0.
18.8471 -1355.98 0.
-0.938658 -1402.58 0.
-20.7244 -1449.19 0.
95.266 -1428.16 0.
82.2299 -1459.5 0.
-349.767 -1670.61 0.
519.786 -1308.47 0.
513.618 -1321.94 0.
-329.8 -1681.79 0.
-299.252 -1609.09 0.
-268.705 -1536.38 0.
-196.716 -1477.21 0.
-204.074 -1492.92 0.
-211.432 -1508.63 0.
1.00308 -1443.14 0.
-15.0024 -1479.93 0.
-31.008 -1516.72 0.
309.104 -1247.71 0.
382.647 -1077.11 0.
-47.4587 -1140.63 0.
-45.8645 -1136.53 0.
-44.2703 -1132.43 0.
-55.1484 -1097.01 0.
-1.06676 -970.951 0.
53.0148 -844.893 0.
96.9733 -871.748 0.
17.2351 -1057.87 0.
-62.503 -1243.99 0.
109.691 -1158.15 0.
138.267 -1092.9 0.
261.299 -984.219 0.
-137.959 -1145.57 0.
-133.335 -1133.68 0.
-229.556 -1139.21 0.
-158.023 -972.429 0.
-86.4907 -805.652 0.
160.843 -588.57 0.
200.046 -496.707 0.
239.25 -404.845 0.
-28.4586 -496.566 0.
-26.7146 -492.308 0.
-24.9706 -488.05 0.
-236.473 -695.012 0.
-305.509 -856.736 0.
-134.011 -892.225 0.
-107.441 -830.568 0.
-80.8716 -768.912 0.
-5.83616 -679.543 0.
33.5152 -588.389 0.
72.8665 -497.236 0.
-289.311 -649.533 0.
-314.737 -708.545 0.
-340.162 -767.557 0.
-45.7064 -552.66 0.
19.8249 -400.797 0.
397.223 106.577 0.
266.062 -71.6545 0.
203.71 -217.302 0.
-94.3257 -440.175 0.
-98.4392 -449.599 0.
-102.553 -459.023 0.
-10.7764 -507.613 0.
-113.723 -747.64 0.
-216.669 -987.667 0.
-95.9717 -915.622 0.
-24.0448 -747.893 0.
47.882 -580.165 0.
-200.513 -668.339 0.
-199.76 -665.233 0.
98.3873 -544.18 0.
46.478 -665.398 0.
-5.43132 -786.615 0.
-14.7903 -871.001 0.
-36.8362 -921.336 0.
-58.8822 -971.672 0.
-89.9062 -937.481 0.
-24.9765 -785.942 0.
39.953 -634.403 0.
-252.871 -797.061 0.
-295.505 -896.31 0.
583.904 -600.42 0.
427.824 -741.5 0.
385.903 -839.937 0.
-377.427 -1228.18 0.
-362.227 -1191.95 0.
-347.026 -1155.73 0.
54.6872 -979.912 0.
39.7979 -1014.97 0.
24.9087 -1050.03 0.
144.961 -1073.03 0.
95.3741 -1189.16 0.
45.7869 -1305.29 0.
372.193 -1109.23 0.
410.687 -1019.76 0.
-49.7585 -1147.26 0.
-19.893 -1077.8 0.
9.9726 -1008.33 0.
35.8402 -984.492 0.
-9.20887 -1088.32 0.
-54.258 -1192.15 0.
-7.6242 -1234.38 0.
-29.7562 -1285.85 0.
-51.8882 -1337.33 0.
245.756 -1247.17 0.
226.609 -1291.6 0.
-317.736 -1561.28 0.
588.429 -1033.38 0.
662.834 -861.637 0.
-107.216 -1090.77 0.
-130.607 -1147.44 0.
-153.998 -1204.1 0.
-59.0817 -1208.16 0.
-79.7846 -1257.98 0.
-100.487 -1307.8 0.
138.424 -1166.71 0.
178.845 -1072.6 0.
219.266 -978.5 0.
395.908 -1031.21 0.
317.496 -1214.35 0.
-297.202 -1599.88 0.
-256.142 -1503.98 0.
-215.081 -1408.09 0.
-143.842 -1283.39 0.
-80.8527 -1136.34 0.
-17.8638 -989.292 0.
47.0337 -952.178 0.
7.01516 -1045.56 0.
-33.0034 -1138.94 0.
147.16 -1045.3 0.
166.903 -997.868 0.
65.9061 -1000.19 0.
-116.734 -977.815 0.
-63.7282 -854.463 0.
-47.079 -799.565 0.
-108.969 -943.291 0.
-170.858 -1087.02 0.
-70.9852 -1088.39 0.
-50.55 -1041.14 0.
-30.1148 -993.9 0.
-319.597 -1077.6 0.
-298.292 -1027.5 0.
-276.987 -977.396 0.
-380.641 -894.113 0.
-308.196 -724.315 0.
15.5953 -472.99 0.
-13.6641 -541.896 0.
-42.9236 -610.801 0.
54.3879 -581.504 0.
86.1411 -506.424 0.
117.894 -431.344 0.
-246.745 -610.198 0.
-290.734 -713.797 0.
-334.722 -817.395 0.
-139.126 -582.739 0.
-28.491 -323.839 0.
322.578 105.692 0.
193.448 -71.7872 0.
131.149 -217.312 0.
-3.57535 -370.06 0.
-7.65861 -379.498 0.
-11.7419 -388.936 0.
-102.852 -515.669 0.
-205.737 -755.728 0.
-308.623 -995.786 0.
-178.338 -919.814 0.
-106.409 -752.148 0.
-34.4794 -584.482 0.
-94.0472 -591.068 0.
-93.1394 -588.076 0.
-19.8657 -563.46 0.
-71.6422 -684.614 0.
-123.419 -805.768 0.
-155.109 -900.532 0.
-177.068 -950.91 0.
-199.028 -1001.29 0.
75.2824 -835.234 0.
140.204 -683.709 0.
205.126 -532.184 0.
-186.88 -736.834 0.
-229.431 -836.189 0.
608.512 -558.463 0.
395.269 -724.708 0.
353.399 -823.22 0.
-255.473 -1144.07 0.
-240.071 -1107.87 0.
-224.668 -1071.68 0.
145.761 -909.84 0.
131.009 -944.869 0.
116.258 -979.898 0.
-10.4269 -1107.63 0.
-59.8844 -1223.8 0.
-109.342 -1339.96 0.
342.674 -1090.86 0.
381.194 -1001.3 0.
42.2252 -1076.01 0.
71.9689 -1006.37 0.
101.713 -936.727 0.
73.2751 -938.427 0.
28.0164 -1042.14 0.
-17.2423 -1145.85 0.
-31.923 -1212.97 0.
-54.3376 -1264.37 0.
-76.7521 -1315.77 0.
296.929 -1194 0.
277.888 -1238.51 0.
893.724 -1010.9 0.
424.315 -1071.93 0.
498.382 -899.809 0.
-23.9445 -1023.81 0.
-47.508 -1080.27 0.
-71.0714 -1136.72 0.
79.3159 -1118.02 0.
58.5543 -1167.84 0.
37.7927 -1217.65 0.
72.5261 -1163.66 0.
112.966 -1069.61 0.
153.405 -975.552 0.
347.489 -1019.87 0.
269.324 -1203.09 0.
-286.146 -1563.95 0.
-245.162 -1467.9 0.
-204.179 -1371.84 0.
-20.6728 -1199.85 0.
42.1571 -1052.74 0.
104.987 -905.622 0.
-106.263 -986.453 0.
-146.488 -1079.77 0.
-186.713 -1173.08 0.
230.325 -977.778 0.
250.036 -930.407 0.
-188.66 -1077.76 0.
-148.198 -960.007 0.
-95.2537 -836.537 0.
-7.94957 -751.968 0.
-69.8552 -895.803 0.
-131.761 -1039.64 0.
-44.5701 -1045.93 0.
-24.225 -998.545 0.
-3.87986 -951.161 0.
-428.885 -1092.95 0.
-407.45 -1042.95 0.
-386.014 -992.95 0.
-394.425 -868.427 0.
-321.94 -698.577 0.
-100.323 -491.275 0.
-129.668 -560.027 0.
-159.013 -628.779 0.
110.513 -526.366 0.
142.221 -451.191 0.
173.928 -376.016 0.
-50.419 -494.758 0.
-94.4212 -598.361 0.
-138.424 -701.963 0.
-271.226 -608.421 0.
-160.285 -349.926 0.
9.18095 -450.183 0.
46.9058 -246.101 0.
154.965 5.62403 0.
197.274 -43.0437 0.
182.312 -75.868 0.
574.551 841.171 0.
126.902 223.768 0.
28.5973 -5.84486 0.
302.394 632.816 0.
524.463 909.552 0.
160.288 59.7134 0.
-29.3586 -382.88 0.
255.055 49.8096 0.
239.642 14.0361 0.
253.839 331.74 0.
161.519 116.329 0.
-33.5108 -338.791 0.
-49.0948 -356.164 0.
-56.3693 -373.601 0.
-51.0695 -361.764 0.
333.833 -510.368 0.
379.004 -405.796 0.
401.673 -353.634 0.
-5.48552 -408.144 0.
42.1625 -298.883 0.
642.421 336.248 0.
-14.6045 -1590.83 0.
355.988 -726.505 0.
228.895 -214.511 0.
-146.892 -1091.9 0.
90.5009 -538.188 0.
480.645 -272.56 0.
542.708 -127.556 0.
663.346 154.165 0.
193.926 -305.053 0.
135.913 -441.571 0.
286.274 -91.8605 0.
878.71 245.581 0.
426.24 -809.131 0.
318.865 -571.844 0.
291.422 -635.603 0.
336.528 -530.165 0.
377.671 -271.47 0.
331.679 -378.356 0.
395.874 -228.05 0.
298.464 -362.026 0.
49.7344 -942.927 0.
296.14 -368.394 0.
992.591 365.31 0.
955.452 279.364 0.
-1234.45 -1162.4 0.
578.065 -373.764 0.
527.408 -492.504 0.
339.327 -301.545 0.
221.091 -578.691 0.
237.209 -542.334 0.
236.406 -985.984 0.
384.08 -641.281 0.
667.012 19.2118 0.
60.9695 -1033.6 0.
169.623 -779.305 0.
185.272 -742.119 0.
464.475 -625.703 0.
451.393 -657.27 0.
489.965 255.178 0.
257.126 -287.401 0.
131.322 -580.165 0.
539.735 -96.0691 0.
572.407 -20.7073 0.
715.514 312.305 0.
200.305 55.2879 0.
207.295 71.2324 0.
219.719 99.586 0.
528.836 -409.671 0.
205.212 -1165.47 0.
67.76 650.766 0.
120.966 -241.891 0.
-23.585 -577.835 0.
586.167 590.719 0.
441.492 253.254 0.
354.474 50.4879 0.
96.7166 -735.536 0.
260.047 -354.389 0.
344.127 -158.099 0.
-230.165 -388.321 0.
-191.916 -299.906 0.
-44.5118 43.2277 0.
-4.14846 99.7008 0.
-33.7555 30.184 0.
245.325 565.912 0.
328.652 760.938 0.
309.188 716.192 0.
524.783 368.791 0.
549.734 427.296 0.
746.695 887.036 0.
236.185 -164.295 0.
340.551 79.2793 0.
391.924 199.791 0.
-696.814 -1323.52 0.
129.105 603.653 0.
39.9245 -666.903 0.
-285.757 -804.082 0.
-287.308 -808.108 0.
-144.599 -761.667 0.
-173.825 -829.372 0.
-203.051 -897.077 0.
-337.953 -925.01 0.
-262.731 -749.297 0.
-187.509 -573.583 0.
-109.852 -524.741 0.
-137.267 -588.87 0.
-164.681 -652.999 0.
-208.717 -701.093 0.
-224.077 -735.803 0.
-185.804 -758.202 0.
-253.183 -914.988 0.
-320.563 -1071.77 0.
-336.99 -1128.16 0.
-274.953 -983.701 0.
-212.916 -839.241 0.
357.719 -605.648 0.
292.335 -758.413 0.
226.95 -911.178 0.
-343.966 -1158.38 0.
-326.368 -1117.75 0.
724.779 -633.687 0.
13.9813 -931.763 0.
20.0637 -917.308 0.
-59.6155 -957.003 0.
-100.428 -1053.28 0.
-141.241 -1149.56 0.
215.894 -1055.99 0.
199.325 -1094.32 0.
182.757 -1132.64 0.
-70.2064 -1237.17 0.
-61.1742 -1215.2 0.
-52.1419 -1193.23 0.
184.021 -1108.73 0.
173.655 -1133.15 0.
69.3257 -1194.63 0.
74.3206 -1183.88 0.
79.3154 -1173.14 0.
-84.0921 -1243.04 0.
-92.1423 -1263.11 0.
-100.192 -1283.18 0.
14.7954 -1252.39 0.
4.94704 -1277.37 0.
-4.90132 -1302.34 0.
215.454 -1068.39 0.
312.355 -841.553 0.
-1055.57 -1242.78 0.
333.768 -860.47 0.
221.95 -1121.53 0.
-35.8988 -1393.41 0.
-22.5726 -1362.61 0.
-9.24639 -1331.81 0.
99.68 -1165.65 0.
220.626 -882.754 0.
341.572 -599.861 0.
193.748 -768.264 0.
53.9133 -1094.16 0.
-85.9218 -1420.05 0.
222.508 -1180.82 0.
300.118 -999.107 0.
49.6791 -976.925 0.
50.5806 -974.226 0.
51.4823 -971.527 0.
58.4318 -958.181 0.
71.7497 -926.346 0.
85.0677 -894.511 0.
-238.435 -1061.11 0.
-276.451 -1148.79 0.
-314.467 -1236.48 0.
73.4593 -1052.19 0.
96.5591 -997.944 0.
-161.413 -1064.34 0.
-153.945 -1103.88 0.
-176.613 -1156.59 0.
-224.887 -1182.27 0.
-165.199 -1044.06 0.
-105.511 -905.847 0.
96.6257 -717.532 0.
147.225 -599.143 0.
197.824 -480.755 0.
-238.694 -614.096 0.
-221.435 -574.97 0.
-204.175 -535.844 0.
-264.122 -619.287 0.
-299.119 -700.972 0.
-470.939 -833.993 0.
-485.521 -866.392 0.
-500.103 -898.791 0.
-56.4227 -725.978 0.
-53.4735 -719.747 0.
-50.5244 -713.516 0.
-22.5159 -621.1 0.
49.6558 -452.396 0.
121.827 -283.691 0.
-235.721 -539.848 0.
-323.321 -744.991 0.
208.542 -563.966 0.
-384.482 -815.339 0.
-386.095 -819.407 0.
-169.178 -740.51 0.
-198.121 -808.422 0.
-227.064 -876.334 0.
-287.749 -871.652 0.
-212.439 -696.036 0.
-137.13 -520.42 0.
-117.821 -497.319 0.
-145.248 -561.48 0.
-172.674 -625.642 0.
-366.495 -736.578 0.
-381.883 -771.204 0.
-136.721 -706.521 0.
-204.248 -863.103 0.
-271.774 -1019.69 0.
-267.107 -1067.16 0.
-205.093 -922.696 0.
-143.08 -778.229 0.
453.03 -533.508 0.
387.507 -686.109 0.
321.984 -838.709 0.
-347.687 -1127.91 0.
-330.138 -1087.06 0.
94.287 -871.694 0.
-281.474 -1027.92 0.
-275.335 -1013.44 0.
-5.62495 -902.242 0.
-46.3683 -998.504 0.
-87.1117 -1094.77 0.
318.732 -980.023 0.
302.26 -1018.43 0.
285.788 -1056.83 0.
113.853 -1126.6 0.
123.089 -1104.78 0.
132.324 -1082.95 0.
61.6216 -1129.38 0.
51.303 -1153.72 0.
105.988 -1147.89 0.
110.855 -1137.15 0.
115.722 -1126.42 0.
-120.579 -1227.97 0.
-128.787 -1247.92 0.
-136.995 -1267.86 0.
149.281 -1163.74 0.
139.398 -1188.81 0.
129.515 -1213.88 0.
33.392 -1114.89 0.
130.404 -888.295 0.
-851.097 -1123.45 0.
306.779 -840.191 0.
194.919 -1101.14 0.
95.9058 -1305.58 0.
109.118 -1274.69 0.
122.331 -1243.8 0.
41.6102 -1159.79 0.
162.491 -876.868 0.
283.372 -593.949 0.
233.674 -720.165 0.
93.8952 -1046.21 0.
-45.8834 -1372.26 0.
235.454 -1143.08 0.
313.121 -961.405 0.
173.968 -892.328 0.
174.792 -889.517 0.
175.617 -886.707 0.
-62.4257 -978.952 0.
-49.2321 -947.057 0.
-36.0384 -915.163 0.
-172.308 -1001.05 0.
-210.562 -1088.61 0.
-248.816 -1176.16 0.
-130.95 -1109 0.
-108.098 -1054.51 0.
696.879 -664.526 0.
-21.99 -1015.31 0.
-44.5494 -1068.09 0.
-270.695 -1170.83 0.
-211.128 -1032.63 0.
-151.561 -894.426 0.
103.754 -683.823 0.
154.121 -565.214 0.
204.487 -446.606 0.
-113.754 -528.992 0.
-96.5298 -489.79 0.
-79.3054 -450.589 0.
-187.869 -555.165 0.
-222.957 -636.738 0.
-598.108 -856.697 0.
-612.495 -889.234 0.
-626.882 -921.771 0.
-175.268 -745.514 0.
-172.351 -739.195 0.
-169.435 -732.876 0.
-83.5925 -615.909 0.
-11.3511 -447.294 0.
60.8903 -278.679 0.
-64.5039 -434.445 0.
-151.893 -639.707 0.
299.465 -219.183 0.
-269.679 -460.229 0.
-266.541 -452.391 0.
-51.6609 -336.225 0.
-4.48661 -226.147 0.
42.6875 -116.069 0.
82.4456 -99.8402 0.
21.0088 -243.101 0.
-40.428 -386.362 0.
-150.103 -438.071 0.
-121.109 -369.722 0.
-92.1148 -301.374 0.
-214.557 -475.713 0.
-290.929 -654.941 0.
-187.576 -730.584 0.
-121.144 -576.42 0.
-54.7115 -422.255 0.
-23.619 -416.223 0.
-175.838 -771.311 0.
-328.058 -1126.4 0.
280.794 -928.909 0.
348.492 -771.955 0.
416.191 -615 0.
-186.652 -832.533 0.
-179.725 -815.868 0.
7.16228 -721.542 0.
-210.365 -731.082 0.
-166.158 -628.553 0.
201.713 -451.047 0.
90.152 -709.98 0.
-21.4086 -968.913 0.
301.711 -954.748 0.
292.576 -976.012 0.
283.44 -997.276 0.
202.805 -1037.55 0.
204.923 -1032.6 0.
207.041 -1027.64 0.
-24.4457 -1120.6 0.
-22.0655 -1114.43 0.
157.368 -1029.87 0.
161.827 -1019.22 0.
166.286 -1008.56 0.
-66.235 -1118.38 0.
-89.227 -1172.76 0.
-112.219 -1227.14 0.
229.919 -938.71 0.
383.17 -579.926 0.
536.421 -221.142 0.
287.631 -408.566 0.
189.066 -638.416 0.
-1234.91 -1436.85 0.
246.608 -787.291 0.
254.063 -769.512 0.
339.765 -748.69 0.
275.743 -897.46 0.
211.721 -1046.23 0.
28.1501 -1201.39 0.
17.7041 -1226 0.
7.2579 -1250.62 0.
48.4892 -1145.25 0.
120.953 -976.01 0.
193.417 -806.769 0.
334.293 -886.029 0.
245.749 -1093.9 0.
52.2982 -1314.85 0.
96.944 -1211 0.
141.59 -1107.16 0.
-206.024 -1188.73 0.
-187.479 -1146.03 0.
-168.933 -1103.32 0.
-137.228 -1037.48 0.
-102.941 -959.725 0.
-68.6537 -881.968 0.
-168.643 -883.193 0.
-146.669 -832.629 0.
122.06 -675.006 0.
121.134 -728.436 0.
93.7235 -793.006 0.
-181.604 -930.418 0.
-135.993 -823.004 0.
-90.3812 -715.59 0.
90.6457 -579.446 0.
102.12 -552.918 0.
113.594 -526.389 0.
-104.648 -653.09 0.
-135.81 -724.536 0.
-166.973 -795.983 0.
-254.945 -672.507 0.
-158.271 -448.475 0.
-400.479 -391.275 0.
-390.271 -369.018 0.
-380.062 -346.761 0.
20.8394 -187.649 0.
-19.038 -280.011 0.
-58.9154 -372.373 0.
-12.9203 -405.54 0.
-33.2946 -452.969 0.
-53.6686 -500.397 0.
-66.363 -506.36 0.
-61.3352 -491.85 0.
20.6421 -308.232 0.
-231.273 -412.549 0.
-227.959 -404.806 0.
-133.607 -339.644 0.
-86.3554 -229.679 0.
-39.1037 -119.714 0.
160.83 -34.5443 0.
99.4503 -177.885 0.
38.0706 -321.227 0.
-250.926 -450.081 0.
-221.903 -381.806 0.
-192.88 -313.531 0.
77.3223 -318.978 0.
0.983012 -498.222 0.
-298.685 -746.868 0.
-232.373 -592.623 0.
-166.062 -438.378 0.
-148.521 -438.204 0.
-300.767 -793.113 0.
-453.013 -1148.02 0.
211.274 -928.563 0.
278.868 -771.394 0.
346.463 -614.225 0.
-65.4819 -748.936 0.
-58.4724 -732.263 0.
-525.723 -918.31 0.
-11.606 -614.042 0.
32.6326 -511.431 0.
210.122 -416.028 0.
98.8417 -675.159 0.
-12.4385 -934.29 0.
163.879 -982.617 0.
154.604 -1003.82 0.
145.328 -1025.02 0.
174.635 -1017.53 0.
176.821 -1012.69 0.
179.008 -1007.85 0.
-90.9038 -1118.53 0.
-88.7098 -1112.04 0.
152.394 -1000.3 0.
157.025 -989.782 0.
161.656 -979.262 0.
23.593 -1048.64 0.
0.513988 -1103.03 0.
-22.565 -1157.42 0.
83.1893 -969.973 0.
236.579 -611.55 0.
389.969 -253.126 0.
385.318 -335.274 0.
286.813 -565.299 0.
-124.265 -929.054 0.
108.656 -814.933 0.
116.268 -797.224 0.
243.942 -758.513 0.
179.829 -907.133 0.
115.715 -1055.75 0.
133.44 -1125.04 0.
123.099 -1149.67 0.
112.759 -1174.3 0.
30.2452 -1121.88 0.
102.676 -952.657 0.
175.106 -783.437 0.
329.469 -856.342 0.
240.937 -1064.19 0.
112.534 -1257.85 0.
157.032 -1153.8 0.
201.531 -1049.75 0.
-183.197 -1147.98 0.
-164.746 -1105.15 0.
-146.296 -1062.32 0.
-45.9996 -967.458 0.
-11.6763 -889.709 0.
22.647 -811.96 0.
-254.303 -887.732 0.
-232.366 -837.089 0.
108.273 -649.479 0.
71.1128 -718.557 0.
43.7526 -783.125 0.
-139.823 -881.29 0.
-94.1518 -773.876 0.
-48.4809 -666.461 0.
-24.5369 -596.8 0.
-13.0701 -570.33 0.
-1.60346 -543.859 0.
-44.0933 -595.698 0.
-75.1527 -667.269 0.
-106.212 -738.84 0.
-339.225 -677.008 0.
-242.797 -452.83 0.
-241.093 -292.12 0.
-230.96 -269.766 0.
-220.826 -247.413 0.
63.5038 -137.769 0.
23.4934 -229.95 0.
-16.5171 -322.13 0.
29.6623 -355.995 0.
9.41832 -403.45 0.
-10.8255 -450.906 0.
-127.109 -500.78 0.
-121.77 -486.312 0.
-132.1 -110.409 0.
-166.182 -303.281 0.
-87.5024 -117.913 0.
-86.5456 -45.602 0.
-150.224 -193.843 0.
-134.217 -155.932 0.
536.812 725.798 0.
251.693 60.3433 0.
360.437 313.832 0.
-152.835 -1.42315 0.
-299.891 -344.328 0.
-327.814 -409.253 0.
499.181 139.963 0.
527.42 206.504 0.
40.8778 289.519 0.
-254.897 -400.083 0.
-451.242 -857.739 0.
-385.369 -719.379 0.
73.7802 351.462 0.
-79.4417 -6.51748 0.
407.766 -308.409 0.
481.822 -135.428 0.
636.621 225.988 0.
212.379 -303.054 0.
169.548 -402.741 0.
159.179 -308.211 0.
270.864 -302.418 0.
122.812 -648.495 0.
114.896 -625.102 0.
162.885 -512.676 0.
169.962 -495.579 0.
427.522 -70.466 0.
539.903 191.302 0.
611.086 356.924 0.
556.105 -42.4528 0.
227.872 -809.691 0.
103.204 -1101.95 0.
160.748 -375.954 0.
221.108 -234.178 0.
519.704 -102.439 0.
294.776 -626.691 0.
353.296 -489.716 0.
414.572 -280.848 0.
406.565 -299.088 0.
448.216 -201.447 0.
407.676 100.965 0.
209.431 -361.331 0.
190.934 -404.222 0.
577.072 -44.1223 0.
601.667 13.9226 0.
-692.602 -1194.07 0.
-24.3235 -830.489 0.
124.233 -483.978 0.
385.477 -210.577 0.
273.626 -472.126 0.
106.792 -862.221 0.
496.01 -451.364 0.
605.472 -195.922 0.
496.448 -450.235 0.
301.752 -421.427 0.
259.854 -520.097 0.
408.147 -174.95 0.
677.403 -10.0222 0.
699.721 42.145 0.
322.259 -851.856 0.
455.337 -541.867 0.
736.172 112.899 0.
383.029 162.814 0.
122.995 -444.895 0.
181.579 -309.1 0.
190.525 -557.798 0.
427.418 -6.25581 0.
561.948 306.51 0.
3.5513 -95.099 0.
194.394 349.312 0.
1158.4 -341.686 0.
143.63 -422.894 0.
182.954 -330.38 0.
450.203 445.901 0.
235.05 -56.4378 0.
390.064 304.97 0.
319.664 455.854 0.
31.5339 -216.175 0.
-23.3532 -343.918 0.
437.17 446.28 0.
458.812 495.532 0.
296.155 114.754 0.
-88.1143 101.847 0.
66.6838 464.414 0.
152.666 354.339 0.
309.493 721.097 0.
162.89 379.891 0.
123.527 -47.6854 0.
92.1152 -122.012 0.
246.56 237.283 0.
447.972 575.614 0.
483.785 661.146 0.
270.98 166.343 0.
191.392 382.426 0.
121.145 218.849 0.
-226.203 -465.612 0.
-383.54 -497.764 0.
-369.148 -464.005 0.
-293.36 -409.086 0.
-287.579 -395.935 0.
-281.798 -382.783 0.
138.759 -191.217 0.
143.063 -180.612 0.
147.366 -170.007 0.
-218.561 -420.04 0.
-295.361 -598.953 0.
-372.162 -777.867 0.
92.1664 -476.902 0.
163.577 -309.336 0.
-205.589 -361.841 0.
-309.181 -603.171 0.
-412.772 -844.5 0.
-313.048 -911.243 0.
-271.724 -815.264 0.
-230.399 -719.285 0.
64.7844 -599.328 0.
20.1563 -703.377 0.
-24.472 -807.426 0.
-69.7286 -854.611 0.
-73.1244 -862.452 0.
556.664 -598.307 0.
-122.695 -1047.6 0.
-206.464 -1243.05 0.
-147.186 -1331.31 0.
-122.676 -1273.25 0.
-98.1657 -1215.19 0.
28.1316 -1065.96 0.
113.372 -867.926 0.
198.613 -669.892 0.
335.209 -606.475 0.
292.75 -705.23 0.
250.291 -803.986 0.
-32.3736 -991.201 0.
-65.839 -1069.57 0.
54.177 -1074.95 0.
62.3108 -1054.86 0.
70.4445 -1034.77 0.
10.7813 -1049.81 0.
8.52239 -1055.08 0.
6.26347 -1060.34 0.
-15.4589 -1178.95 0.
-116.849 -1415.27 0.
-218.239 -1651.59 0.
-97.6881 -1550.77 0.
-35.6541 -1406.03 0.
-679.556 -1563.94 0.
-112.601 -1175.95 0.
-36.4984 -998.25 0.
148.635 -791.899 0.
182.454 -714.046 0.
216.273 -636.192 0.
315.087 -595.581 0.
271.787 -696.362 0.
228.487 -797.143 0.
95.8777 -886.049 0.
93.0936 -893.648 0.
90.3096 -901.248 0.
157.392 -900.787 0.
140.951 -939.242 0.
261.346 -911.163 0.
281.608 -865.062 0.
301.87 -818.961 0.
16.7603 -921.48 0.
8.27682 -941.715 0.
-0.206624 -961.95 0.
-67.4945 -979.901 0.
-49.806 -935.847 0.
-32.1175 -891.792 0.
-280.978 -886.928 0.
-215.647 -734.541 0.
506.005 -305.88 0.
5.00678 -560.643 0.
-16.2083 -609.267 0.
-147.783 -709.158 0.
-172.445 -766.994 0.
-197.106 -824.829 0.
56.9298 -701.919 0.
100.266 -600.091 0.
143.602 -498.264 0.
-40.034 -498.21 0.
0.355102 -404.725 0.
40.7442 -311.24 0.
-426.598 -621.734 0.
-494.709 -779.72 0.
-316.305 -816.135 0.
-319.77 -823.229 0.
-323.234 -830.323 0.
-267.129 -768.431 0.
-203.804 -620.75 0.
-140.479 -473.068 0.
-86.5183 -412.809 0.
-99.9379 -443.88 0.
-113.357 -474.953 0.
-178.49 -467.059 0.
-152.247 -406.307 0.
130.2 -280.875 0.
-531.73 -530.215 0.
-517.199 -496.611 0.
-338.058 -396.352 0.
-332.107 -383.326 0.
-326.156 -370.301 0.
148.087 -155.763 0.
152.571 -145.357 0.
157.056 -134.951 0.
-62.7614 -321.283 0.
-139.569 -500.163 0.
-216.377 -679.043 0.
-66.2237 -513.952 0.
5.15356 -346.373 0.
-149.626 -306.155 0.
-253.147 -547.603 0.
-356.668 -789.05 0.
-107.085 -791.378 0.
-65.6968 -695.191 0.
-24.3088 -599.005 0.
-187.969 -676.783 0.
-232.449 -780.731 0.
-276.928 -884.679 0.
-106.98 -838.94 0.
-110.302 -846.656 0.
127.768 -750.519 0.
-200.261 -1050.25 0.
-283.983 -1245.72 0.
-80.2837 -1270.82 0.
-55.7011 -1212.82 0.
-31.1184 -1154.81 0.
77.9743 -1013.29 0.
163.136 -815.151 0.
248.298 -617.01 0.
377.697 -556.818 0.
335.177 -655.56 0.
292.658 -754.303 0.
72.3969 -915.106 0.
39.033 -993.627 0.
9.77332 -1062.18 0.
18.0014 -1042.17 0.
26.2296 -1022.16 0.
-64.1382 -1050.6 0.
-66.2938 -1055.91 0.
-68.4494 -1061.21 0.
157.44 -1073.23 0.
56.0856 -1309.65 0.
-45.2683 -1546.08 0.
-117.956 -1528.31 0.
-55.8121 -1383.67 0.
-248.731 -1347.45 0.
-23.5199 -1106.06 0.
52.6331 -928.365 0.
183.227 -746.138 0.
216.848 -668.059 0.
250.469 -589.98 0.
183.398 -621.18 0.
140.237 -721.955 0.
97.0764 -822.73 0.
102.717 -851.945 0.
99.9663 -859.533 0.
97.2155 -867.122 0.
4.23785 -934.761 0.
-11.9745 -973.392 0.
233.921 -892.016 0.
254.167 -845.887 0.
274.413 -799.758 0.
154.507 -830.987 0.
146.042 -851.2 0.
137.576 -871.413 0.
-146.832 -982.668 0.
-129.077 -938.727 0.
-111.322 -894.786 0.
-198.288 -820.392 0.
-132.911 -667.916 0.
-48.7531 -511.928 0.
-74.8182 -562.672 0.
-96.1652 -611.056 0.
-257.925 -725.687 0.
-282.542 -783.323 0.
-307.159 -840.958 0.
359.554 -541.428 0.
402.794 -439.514 0.
446.034 -337.6 0.
-114.332 -499.375 0.
-73.927 -405.973 0.
-33.5224 -312.571 0.
-443.91 -597.258 0.
-511.884 -755.288 0.
-260.249 -760.205 0.
-263.6 -767.462 0.
-266.952 -774.719 0.
-350.986 -773.482 0.
-287.846 -625.615 0.
-224.707 -477.749 0.
-205.234 -431.898 0.
-218.485 -463.107 0.
-231.737 -494.317 0.
-168.886 -431.746 0.
-142.532 -370.88 0.
219.434 205.912 0.
-347.79 -223.285 0.
-445.981 -451.871 0.
-395.893 -560.552 0.
-350.739 -453.603 0.
-305.585 -346.654 0.
133.094 -104.545 0.
138.361 -92.6854 0.
143.629 -80.8259 0.
45.3298 -96.4546 0.
63.7409 -53.7149 0.
82.1521 -10.9752 0.
-37.8277 -269.147 0.
-164.026 -564.045 0.
-306.257 -818.913 0.
-188.877 -544.553 0.
-71.4976 -270.192 0.
232.707 -28.5235 0.
164.645 -186.661 0.
96.5833 -344.799 0.
-251.897 -576.69 0.
-269.496 -617.434 0.
-287.094 -658.178 0.
14.8826 -587.827 0.
-21.1339 -671.816 0.
175.501 -655.313 0.
-51.597 -697.828 0.
-23.3818 -631.158 0.
302.653 -472.596 0.
249.308 -597.699 0.
195.964 -722.801 0.
94.3487 -788.8 0.
136.615 -690.043 0.
178.882 -591.285 0.
403.457 -475.626 0.
398.63 -487.764 0.
393.803 -499.901 0.
325.361 -471.44 0.
359.022 -391.903 0.
244.506 -384.147 0.
235.671 -404.975 0.
226.836 -425.803 0.
157.944 -479.344 0.
139.428 -522.771 0.
120.912 -566.197 0.
450.589 -442.277 0.
448.433 -447.037 0.
446.277 -451.798 0.
211.632 -624.094 0.
163.706 -734.82 0.
-595.883 -1151.09 0.
149.932 -767.226 0.
183.657 -688.487 0.
238.572 -633.185 0.
192.57 -740.067 0.
146.568 -846.948 0.
-23.9995 -922.602 0.
28.7721 -799.251 0.
81.5437 -675.899 0.
246.399 -481.524 0.
317.125 -315.766 0.
387.852 -150.009 0.
279.875 -214.636 0.
261.244 -257.95 0.
519.29 -192.44 0.
452.823 -346.466 0.
386.356 -500.491 0.
167.373 -669.801 0.
184.06 -630.431 0.
200.748 -591.06 0.
-17.6841 -627.615 0.
19.4169 -542.733 0.
56.5178 -457.852 0.
-25.7242 -542.288 0.
-66.3175 -636.897 0.
-228.017 -780.771 0.
-131.931 -624.057 0.
-69.9949 -481.57 0.
-97.5263 -412.988 0.
-126.454 -480.379 0.
-155.382 -547.771 0.
412.084 -369.396 0.
372.176 -463.233 0.
332.268 -557.07 0.
-238.401 -701.378 0.
-141.67 -475.008 0.
-44.9388 -248.638 0.
-321.073 -357.978 0.
-325.538 -368.67 0.
-39.4008 -254.074 0.
-45.859 -268.741 0.
-52.3172 -283.407 0.
-199.386 -344.187 0.
-186.221 -313.641 0.
-173.056 -283.095 0.
-158.814 -278.24 0.
-171.322 -307.067 0.
-183.829 -335.894 0.
-115.134 -451.225 0.
-206.379 -664.554 0.
-8.86906 138.948 0.
-40.5043 -60.5809 0.
-139.04 -288.879 0.
-293.275 -485.222 0.
-248.025 -378.381 0.
-202.776 -271.54 0.
67.4962 -101.322 0.
72.7017 -89.4178 0.
77.9071 -77.514 0.
-45.96 -104.187 0.
-27.5399 -61.5099 0.
-9.11962 -18.8329 0.
-31.2229 -235.18 0.
-157.429 -529.991 0.
-179.368 -733.181 0.
-61.9791 -458.759 0.
55.4094 -184.337 0.
89.514 -58.9661 0.
21.6287 -217.125 0.
-46.2567 -375.284 0.
-225.246 -533.117 0.
-242.721 -573.808 0.
-260.196 -614.499 0.
116.672 -512.75 0.
80.6698 -596.729 0.
-178.168 -775.625 0.
58.0227 -619.765 0.
86.2035 -553.002 0.
368.216 -412.701 0.
314.959 -537.828 0.
261.703 -662.955 0.
-119.662 -849.475 0.
-77.5938 -750.588 0.
-35.5256 -651.7 0.
371.661 -457.672 0.
366.775 -469.781 0.
361.889 -481.89 0.
410.246 -403.659 0.
444.036 -324.235 0.
185.06 -377.492 0.
176.297 -398.438 0.
167.534 -419.384 0.
211.743 -424.993 0.
193.262 -468.477 0.
174.78 -511.961 0.
359.407 -450.118 0.
357.223 -454.881 0.
355.038 -459.645 0.
118.694 -632.733 0.
70.9111 -743.571 0.
-662.286 -1147.86 0.
160.06 -731.166 0.
193.734 -652.469 0.
248.305 -598.266 0.
202.146 -704.984 0.
155.987 -811.703 0.
-53.3231 -903.886 0.
-0.511827 -780.396 0.
52.2995 -656.905 0.
234.655 -455.265 0.
305.46 -289.379 0.
376.265 -123.493 0.
390.576 -136.128 0.
371.991 -179.489 0.
539.976 -151.932 0.
473.565 -305.986 0.
407.155 -460.039 0.
-82.5816 -745.2 0.
-65.9296 -705.824 0.
-49.2774 -666.447 0.
42.7143 -570.723 0.
79.585 -485.594 0.
116.456 -400.464 0.
60.404 -473.699 0.
19.9797 -568.374 0.
-245.828 -757.291 0.
-94.4461 -576.375 0.
-32.7733 -433.497 0.
112.047 -292.246 0.
83.155 -359.522 0.
54.2633 -426.797 0.
88.0584 -477.585 0.
48.3094 -571.378 0.
8.56048 -665.171 0.
-228.157 -665.229 0.
-131.071 -439.058 0.
-33.9842 -212.887 0.
-222.663 -283.908 0.
-227.203 -294.355 0.
-52.4105 -228.641 0.
-58.7812 -243.281 0.
-65.1518 -257.922 0.
-160.32 -296.35 0.
-147.129 -265.794 0.
-133.939 -235.238 0.
-66.5028 -207.288 0.
-78.756 -236.313 0.
-91.0088 -265.338 0.
60.7596 -344.686 0.
-30.1652 -558.14 0.
392.441 -253.053 0.
211.937 -17.0537 0.
142.833 -180.088 0.
-138.626 -289.175 0.
-239.025 -523.257 0.
-260.748 -573.455 0.
-135.633 -419.92 0.
-5.28435 -115.12 0.
189.059 339.044 0.
44.5873 309.251 0.
27.4435 267.702 0.
96.718 428.06 0.
130.904 162.128 0.
-50.5302 -260.001 0.
351.709 297.458 0.
289.648 152.745 0.
62.2082 -377.602 0.
-262.367 -576.701 0.
-75.0805 -140.283 0.
175.448 443.362 0.
-185.763 -459.331 0.
-257.541 -627.428 0.
292.392 655.211 0.
481.88 180.6 0.
389.908 -34.5753 0.
276.504 -117.337 0.
230.213 -396.395 0.
41.517 -835.94 0.
90.8507 -1154.28 0.
149.675 -1017.01 0.
285.032 -701.301 0.
-312.417 -860.883 0.
1.80211 -127.191 0.
-54.9147 -258.942 0.
592.931 151.439 0.
543.831 36.6574 0.
326.051 -471.771 0.
887.965 578.775 0.
695.449 130.674 0.
-3.04228 -669.648 0.
-183.691 -1092.35 0.
-101.568 -901.925 0.
137.197 -672.118 0.
164.233 -608.36 0.
205.551 -511.234 0.
370.838 -217.013 0.
517.016 124.161 0.
298.011 -386.79 0.
-17.4314 -741.074 0.
44.996 -594.911 0.
-1103.08 -993.593 0.
478.998 23.4644 0.
536.898 157.763 0.
443.057 -130.403 0.
244.579 -593.33 0.
-51.3077 -1283.17 0.
-350.418 -1510.9 0.
-135.606 -1010.67 0.
286.425 -26.9069 0.
410.044 9.69114 0.
335.747 -163.46 0.
381.781 -55.9544 0.
70.662 -1063.23 0.
221.08 -711.705 0.
333.907 -638.185 0.
507.103 -233.069 0.
548.435 -135.698 0.
-226.295 -575.079 0.
-249.688 -629.179 0.
-412.543 -1008.61 0.
-86.3035 -955.942 0.
16.9866 -715.542 0.
162.854 -375.778 0.
272.941 -109.696 0.
159.32 -375.5 0.
810.587 216.823 0.
-114.214 -661.828 0.
-116.475 -666.469 0.
431.274 79.8946 0.
371.812 -57.598 0.
354.995 -95.2451 0.
-15.954 -70.6885 0.
248.905 547.389 0.
166.719 355.472 0.
185.613 312.797 0.
65.2779 32.929 0.
4.39278 -108.248 0.
-109.48 -173.796 0.
-84.2895 -115.2 0.
-58.3606 -184.026 0.
101.744 189.896 0.
130.476 257.266 0.
-59.9005 -110.576 0.
-158.211 -339.528 0.
-64.6095 -120.647 0.
104.844 50.1238 0.
-123.481 -482.011 0.
81.7182 -2.3859 0.
323.385 -33.0526 0.
658.225 750.688 0.
203.6 -206.352 0.
-104.079 -255.372 0.
-72.3749 -183.063 0.
-79.9323 -172.889 0.
-161.744 -364.572 0.
-243.556 -556.255 0.
-268.619 -589.767 0.
-188.185 -401.515 0.
-107.752 -213.263 0.
-45.4478 -174.18 0.
-78.2273 -251.152 0.
-111.007 -328.125 0.
-21.0089 -243.124 0.
10.9443 -168.395 0.
66.7195 -115.076 0.
-56.2267 -402.323 0.
-179.173 -689.571 0.
-332.576 -870.004 0.
-262.033 -705.385 0.
-191.49 -540.767 0.
-40.9792 -442.235 0.
-69.951 -509.877 0.
-98.9226 -577.519 0.
65.6012 -575.601 0.
27.8946 -663.252 0.
261.024 -635.007 0.
81.9175 -656.002 0.
111.756 -586.499 0.
281.283 -449.71 0.
329.337 -336.673 0.
377.391 -223.635 0.
-114.102 -468 0.
-219.283 -713.775 0.
-324.464 -959.551 0.
93.5219 -777.686 0.
148.779 -647.78 0.
204.036 -517.875 0.
206.119 -619.141 0.
139.043 -775.973 0.
-80.9787 -993.289 0.
-121.475 -1086.83 0.
-161.97 -1180.37 0.
-48.8507 -1171.75 0.
-32.5029 -1133.5 0.
-16.1552 -1095.26 0.
47.2015 -936.62 0.
159.433 -674.522 0.
271.664 -412.425 0.
123.361 -488.602 0.
81.8475 -585.49 0.
-504.688 -916.453 0.
306.844 -580.23 0.
301.156 -594.48 0.
225.799 -617.338 0.
270.094 -515.075 0.
314.388 -412.813 0.
113.063 -483.273 0.
78.1395 -564.799 0.
43.216 -646.325 0.
-73.4169 -798.031 0.
-136.552 -944.898 0.
-199.688 -1091.77 0.
174.638 -848.984 0.
230.606 -718.393 0.
134.173 -659.639 0.
165.399 -587.585 0.
196.626 -515.532 0.
-146.485 -606.746 0.
-124.352 -555.603 0.
-102.219 -504.459 0.
120.847 -449.912 0.
69.6885 -570.484 0.
18.5302 -691.056 0.
56.5669 -714.875 0.
42.6952 -747.299 0.
460.498 -594.214 0.
-245.556 -841.988 0.
-216.791 -774.506 0.
49.139 -579.033 0.
136.708 -373.427 0.
224.278 -167.821 0.
43.1486 -165.915 0.
30.2386 -195.638 0.
17.3287 -225.362 0.
-31.1533 -269.155 0.
-41.894 -293.429 0.
-52.6347 -317.703 0.
-178.208 -296.865 0.
-134.711 -195.956 0.
-29.2535 -61.4784 0.
42.5283 106.109 0.
114.31 273.697 0.
155.622 307.183 0.
45.0213 49.4859 0.
-65.5794 -208.211 0.
-115.823 -346.39 0.
-140.192 -402.672 0.
-164.561 -458.954 0.
260.176 -130.999 0.
362.135 109.526 0.
213.031 -171.298 0.
-352.13 -330.407 0.
-320.549 -258.051 0.
-51.3128 -129.325 0.
-133.105 -321.064 0.
-214.898 -512.803 0.
-325.347 -582.496 0.
-244.769 -394.428 0.
-164.192 -206.36 0.
114.582 -73.8723 0.
81.7804 -150.98 0.
48.9783 -228.088 0.
20.7984 -193.817 0.
52.8411 -119.105 0.
-49.3216 -133.563 0.
-172.065 -420.924 0.
-294.808 -708.284 0.
-248.463 -801.831 0.
-177.83 -637.241 0.
-107.198 -472.651 0.
143.434 -332.331 0.
114.598 -400.081 0.
85.761 -467.832 0.
-31.3885 -585.837 0.
-69.0501 -673.548 0.
-34.0439 -730.273 0.
50.7193 -637.739 0.
80.6683 -568.294 0.
160.206 -470.071 0.
208.198 -357.007 0.
256.19 -243.943 0.
-59.8996 -413.21 0.
-165.038 -659.001 0.
-270.176 -904.793 0.
-15.6261 -793.338 0.
39.5382 -663.444 0.
94.7025 -533.551 0.
13.1152 -670.457 0.
-53.8843 -827.276 0.
10.3451 -922.983 0.
-30.1816 -1016.48 0.
-70.7083 -1109.97 0.
3.40218 -1117.93 0.
19.7559 -1079.61 0.
36.1095 -1041.3 0.
45.3049 -905.608 0.
157.517 -643.472 0.
269.729 -381.336 0.
183.672 -431.921 0.
141.9 -528.575 0.
218.427 -574.926 0.
430.323 -495.711 0.
424.653 -510 0.
233.19 -582.919 0.
277.594 -480.77 0.
321.998 -378.622 0.
160.205 -431.765 0.
125.311 -513.296 0.
90.4167 -594.827 0.
-228.874 -833.254 0.
-291.843 -980.057 0.
-354.813 -1126.86 0.
206.405 -803.882 0.
262.573 -673.542 0.
-83.9203 -720.837 0.
-52.7271 -648.823 0.
-21.5338 -576.81 0.
-10.7764 -517.102 0.
11.2399 -465.864 0.
33.2563 -414.626 0.
126.217 -416.359 0.
75.0105 -536.92 0.
23.804 -657.481 0.
123.865 -654.561 0.
109.99 -686.923 0.
335.264 -616.706 0.
-294.791 -831.966 0.
-265.758 -764.558 0.
-56.9748 -593.121 0.
30.6199 -387.408 0.
118.215 -181.695 0.
182.205 -74.1432 0.
169.372 -103.937 0.
156.538 -133.731 0.
25.6227 -213.18 0.
14.8059 -237.319 0.
3.98925 -261.459 0.
-180.698 -266.536 0.
-137.05 -165.649 0.
-43.5124 -36.8811 0.
28.3045 130.747 0.
100.121 298.374 0.
217.25 365.625 0.
106.713 107.944 0.
-3.82344 -149.737 0.
-160.883 -334.365 0.
-185.064 -390.749 0.
-209.246 -447.133 0.
250.156 -104.666 0.
352.187 136.006 0.
-11.5192 -78.666 0.
-390.976 -310.271 0.
-402.497 -337.929 0.
-10.0841 -169.846 0.
37.6163 -57.9902 0.
85.3167 53.8654 0.
-104.345 -17.4337 0.
-154.274 -133.29 0.
-204.203 -249.146 0.
151.922 -150.668 0.
134.217 -191.275 0.
116.513 -231.881 0.
-49.5714 -285.426 0.
-35.6815 -252.893 0.
-151.745 -274.562 0.
-142.188 -252.061 0.
-132.63 -229.56 0.
38.588 -171.515 0.
-4.39489 -271.705 0.
-47.3778 -371.896 0.
173.508 -340.684 0.
148.382 -399.082 0.
123.257 -457.481 0.
-89.7072 -551.716 0.
-82.4209 -535.547 0.
30.3452 -473.941 0.
148.549 -407.782 0.
156.536 -388.82 0.
122.596 -374.991 0.
155.765 -298.134 0.
188.935 -221.278 0.
46.9624 -231.938 0.
67.8296 -182.969 0.
88.6968 -134 0.
221.035 -108.98 0.
185.538 -192.682 0.
150.041 -276.384 0.
86.9937 -412.106 0.
28.605 -548.639 0.
168.658 -583.843 0.
186.89 -541.231 0.
205.122 -498.619 0.
260.254 -389.386 0.
359.456 -157.854 0.
458.659 73.6785 0.
396.915 -5.11703 0.
267.914 -306.712 0.
138.912 -608.308 0.
86.7559 -606.762 0.
139.801 -483.628 0.
-408.792 -618.663 0.
526.205 -387.673 0.
436.856 -595.461 0.
79.3059 -854.668 0.
142.992 -705.525 0.
206.678 -556.381 0.
55.926 -596.294 0.
5.95238 -713.355 0.
-44.0213 -830.416 0.
-226.022 -842.23 0.
-150.909 -667.388 0.
-75.7968 -492.546 0.
456.943 -127.843 0.
528.258 39.2215 0.
146.821 -10.9707 0.
112.004 -92.0563 0.
77.1867 -173.142 0.
98.5418 -251.498 0.
31.8489 -406.906 0.
-34.844 -562.315 0.
10.3451 -589.774 0.
15.7582 -576.845 0.
21.1714 -563.917 0.
185.131 -468.245 0.
204.42 -422.984 0.
532.74 -239.463 0.
-14.7743 -381.645 0.
33.354 -268.617 0.
93.762 -178.59 0.
81.5575 -209.011 0.
69.353 -239.431 0.
169.506 -228.85 0.
146.829 -282.047 0.
124.152 -335.245 0.
-148.761 -402.543 0.
-101.211 -290.758 0.
-53.6621 -178.973 0.
-231.423 -216.973 0.
-213.782 -175.113 0.
-51.9695 -93.7365 0.
-131.802 -280.298 0.
-211.634 -466.86 0.
-131.224 -486.179 0.
-60.973 -322.998 0.
9.27802 -159.817 0.
-48.3137 -51.5541 0.
22.1153 112.929 0.
92.5444 277.412 0.
368.92 217.954 0.
231.93 -104.055 0.
131.444 13.8158 0.
-229.781 -210.089 0.
-241.324 -237.808 0.
136.325 -75.0676 0.
184.154 36.5962 0.
231.983 148.26 0.
-67.4928 29.8813 0.
-117.346 -86.0732 0.
-167.2 -202.028 0.
197.772 -99.5961 0.
180.215 -140.409 0.
162.658 -181.221 0.
-133.047 -289.02 0.
-119.162 -256.541 0.
-106.262 -223.848 0.
-96.8271 -201.273 0.
-87.3921 -178.699 0.
26.9654 -145.663 0.
-16.0535 -245.787 0.
-59.0724 -345.912 0.
100.741 -340.636 0.
75.7871 -399.208 0.
50.8334 -457.781 0.
-142.561 -542.737 0.
-135.276 -526.545 0.
162.932 -385.744 0.
215.18 -348.116 0.
223.169 -329.189 0.
86.5564 -358.965 0.
119.666 -281.995 0.
152.776 -205.025 0.
101.579 -177.13 0.
122.443 -128.201 0.
143.307 -79.273 0.
228.217 -74.4909 0.
192.616 -158.216 0.
157.015 -241.941 0.
231.842 -318.306 0.
173.551 -455.069 0.
141.885 -563.219 0.
160.203 -520.606 0.
178.521 -477.994 0.
97.7142 -427.619 0.
196.776 -196.024 0.
295.838 35.5716 0.
348.223 5.47279 0.
219.297 -296.106 0.
90.3704 -597.686 0.
-5.58804 -615.414 0.
47.4051 -492.158 0.
-51.1869 -434.246 0.
558.23 -342.62 0.
468.976 -550.312 0.
7.8404 -853.581 0.
71.727 -704.612 0.
135.614 -555.643 0.
-42.7918 -607.013 0.
-92.8826 -723.991 0.
-142.973 -840.969 0.
-7.80407 -717.264 0.
67.1447 -542.123 0.
142.093 -366.983 0.
358.096 -139.321 0.
429.388 27.7186 0.
223.162 53.2532 0.
188.313 -27.8327 0.
153.463 -108.918 0.
-15.2853 -268.577 0.
-81.8982 -424.089 0.
-148.511 -579.601 0.
-65.1502 -591.008 0.
-59.6923 -578.149 0.
-54.2344 -565.291 0.
104.873 -470.668 0.
124.236 -425.367 0.
233.325 -337.175 0.
278.86 -224.774 0.
326.922 -111.465 0.
173.405 -113.173 0.
161.029 -143.391 0.
148.654 -173.609 0.
198.78 -184.837 0.
176.087 -238.022 0.
153.394 -291.207 0.
-401.4 -479.846 0.
-353.974 -368.097 0.
-306.549 -256.349 0.
-374.477 -246.432 0.
-356.722 -204.714 0.
33.93 -25.6093 0.
-45.9462 -212.15 0.
-125.823 -398.691 0.
-115.283 -448.264 0.
-45.0786 -284.83 0.
25.1259 -121.395 0.
3.48162 1.99117 0.
73.9564 166.556 0.
144.431 331.12 0.
361.081 245.828 0.
223.949 -75.7646 0.
572.36 481.802 0.
236.944 613.62 0.
129.373 363.592 0.
160.153 -263.829 0.
-19.2839 -682.386 0.
139.292 -312.329 0.
-70.7173 -21.0789 0.
15.0562 179.796 0.
-216.539 -360.121 0.
159.922 -245.358 0.
356.398 212.846 0.
500.768 549.602 0.
34.9318 294.559 0.
-259.019 -390.684 0.
-88.4768 -236.479 0.
-209.947 -518.614 0.
-15.7325 -64.1061 0.
-124.913 -445.558 0.
-54.1494 -281.09 0.
-73.8739 -327.644 0.
-106.49 -654.35 0.
-334.871 -1187.04 0.
158.795 -35.3027 0.
-23.6074 -134.167 0.
-177.955 -494.762 0.
-57.816 -340.53 0.
412.533 11.5967 0.
206.702 -470.083 0.
-56.5803 -593.507 0.
-17.8914 -503.422 0.
-155.35 -824.384 0.
-133.467 -798.576 0.
139.163 -162.418 0.
346.251 320.88 0.
425.899 404.002 0.
241.15 -26.7175 0.
29.3923 -520.434 0.
445.131 -64.5421 0.
434.353 -90.0617 0.
283.025 -150.311 0.
305.705 -98.5474 0.
307.62 -95.1525 0.
-29.5432 -379.511 0.
-198.551 -773.306 0.
-52.924 -432.958 0.
284.073 -19.7727 0.
110.218 -425.945 0.
96.3546 -458.816 0.
175.354 12.0336 0.
413.741 568.089 0.
104.413 396.61 0.
873.911 367.727 0.
735.706 45.8225 0.
118.15 -429.995 0.
191.395 -259.277 0.
351.431 113.976 0.
205.361 188.837 0.
57.2672 -155.544 0.
-165.309 -673.67 0.
317.728 -344.386 0.
396.545 -160.247 0.
500.216 81.9038 0.
263.316 -136.315 0.
288.768 -77.7979 0.
361.066 261.493 0.
330.912 191.46 0.
116.886 -307.698 0.
-316.297 -726.416 0.
-328.673 -755.339 0.
-186.926 -424.535 0.
85.2282 -65.0119 0.
138.316 58.9449 0.
243.936 305.339 0.
371.608 337.497 0.
178.253 -114.934 0.
327.043 34.6602 0.
689.278 205.137 0.
808.486 484.529 0.
343.334 165.606 0.
148.386 -289.837 0.
168.954 -242.096 0.
206.407 -192.433 0.
227.078 -143.468 0.
373.877 199.675 0.
-241.773 405.714 0.
-304.564 257.819 0.
-427.046 -29.4052 0.
-471.795 -174.17 0.
-424.129 -62.1437 0.
204.655 241.502 0.
80.3558 -48.4853 0.
134.11 76.952 0.
118.978 96.2559 0.
21.3116 -131.328 0.
-21.7523 -231.469 0.
-21.4977 -121.201 0.
43.3234 29.7963 0.
89.5842 137.458 0.
182.493 -121.039 0.
-43.4533 -648.274 0.
-729.093 -345.49 0.
-244.048 -69.5872 0.
-228.738 -32.3922 0.
298.152 203.885 0.
264.948 126.329 0.
231.745 48.7727 0.
-106.989 -133.164 0.
-108.668 -137.541 0.
-110.346 -141.917 0.
211.071 -107.688 0.
129.381 -297.594 0.
47.6904 -487.5 0.
-307.839 -629.239 0.
-290.27 -587.413 0.
-165.808 -499.2 0.
-146.346 -453.598 0.
-126.885 -407.995 0.
-104.366 -340.64 0.
-54.6301 -224.93 0.
-4.89384 -109.219 0.
169.63 -11.3007 0.
150.831 -54.8759 0.
132.032 -98.4511 0.
-100.925 -245.823 0.
-127.903 -308.369 0.
138.736 -245.436 0.
303.312 -200.273 0.
291.178 -229.918 0.
116.156 -326.739 0.
112.588 -335.112 0.
109.02 -343.484 0.
152.636 -298.54 0.
186.573 -220.002 0.
220.51 -141.463 0.
241.686 -172.836 0.
193.207 -286.427 0.
144.728 -400.018 0.
309.025 -301.878 0.
331.843 -248.809 0.
-7.98076 -358.602 0.
-14.3224 -374.143 0.
-20.6638 -389.685 0.
21.853 -426.591 0.
-52.1811 -599.259 0.
-126.215 -771.927 0.
-51.5119 -738.227 0.
9.80457 -595.457 0.
71.1211 -452.687 0.
-44.1665 -465.258 0.
-36.3464 -447.16 0.
79.4997 -382.744 0.
487.867 -189.267 0.
497.556 -166.753 0.
82.1323 -345.592 0.
41.4695 -440.821 0.
0.806692 -536.051 0.
-110.224 -631.802 0.
-113.753 -639.503 0.
-117.281 -647.203 0.
250.896 -421.212 0.
304.743 -295.513 0.
358.59 -169.815 0.
208.67 -205.669 0.
219.717 -180.767 0.
219.102 -155.11 0.
254.603 -71.4857 0.
290.103 12.1386 0.
-33.272 -73.5895 0.
-21.6363 -46.2042 0.
-10.0005 -18.8188 0.
157.923 7.22637 0.
107.691 -109.858 0.
57.4596 -226.943 0.
261.406 -159.911 0.
259.524 -165.356 0.
-29.6182 -296.429 0.
292.719 -154.297 0.
295.452 -148.325 0.
20.0211 -261.738 0.
12.9263 -277.762 0.
5.83155 -293.787 0.
117.807 -226.015 0.
151.938 -145.908 0.
186.07 -65.8011 0.
-274.794 -228.814 0.
-263.564 -203.215 0.
-252.334 -177.616 0.
-362.029 -340.074 0.
-431.734 -502.215 0.
-152.305 -479.556 0.
-67.8161 -282.165 0.
16.6725 -84.7743 0.
59.093 -4.84452 0.
-8.65906 -162.887 0.
-76.4111 -320.93 0.
-244.376 -419.249 0.
-215.575 -352.548 0.
-186.773 -285.847 0.
221.244 -78.8899 0.
234.294 -48.5104 0.
-380.875 -165.137 0.
-459.38 -130.673 0.
-444.05 -93.5498 0.
237.669 209.589 0.
204.445 132.014 0.
171.222 54.4394 0.
-74.2682 -87.5505 0.
-75.8262 -92.0693 0.
-77.3844 -96.588 0.
217.598 -73.5745 0.
135.781 -263.418 0.
53.9648 -453.262 0.
-227.503 -563.299 0.
-209.969 -521.461 0.
-105.236 -441.879 0.
-85.8044 -396.218 0.
-66.3725 -350.556 0.
-117.189 -314.728 0.
-67.4915 -199.001 0.
-17.7937 -83.2744 0.
185.449 27.07 0.
166.731 -16.5985 0.
148.014 -60.2669 0.
-119.003 -222.395 0.
-146.017 -284.845 0.
228.543 -175.598 0.
296.605 -172.093 0.
284.539 -201.723 0.
204.741 -257.315 0.
201.066 -265.616 0.
197.391 -273.917 0.
256.643 -222.471 0.
290.593 -144.016 0.
324.542 -65.5614 0.
336.586 -100.76 0.
288.223 -214.562 0.
239.86 -328.363 0.
281.487 -282.023 0.
304.464 -229.182 0.
-241.358 -426.192 0.
-247.543 -441.83 0.
-253.727 -457.467 0.
131.459 -348.717 0.
57.2839 -521.26 0.
-16.8913 -693.804 0.
-69.7269 -713.986 0.
-8.27507 -571.286 0.
53.1768 -428.586 0.
-42.0523 -432.963 0.
-34.2617 -414.762 0.
-68.36 -414.499 0.
319.622 -229.558 0.
329.114 -206.678 0.
10.017 -345.814 0.
-30.668 -440.982 0.
-71.353 -536.149 0.
-48.2267 -574.316 0.
-51.7816 -581.92 0.
-55.3366 -589.523 0.
222.783 -401.316 0.
276.707 -275.743 0.
330.63 -150.17 0.
195.719 -179.735 0.
206.732 -154.807 0.
278.193 -98.4654 0.
313.736 -14.9488 0.
349.279 68.5678 0.
-11.2984 -32.5927 0.
0.345331 -5.19978 0.
11.9891 22.1931 0.
225.261 67.6203 0.
174.982 -49.3914 0.
124.704 -166.403 0.
404.697 -67.268 0.
402.545 -72.5503 0.
224.459 -156.372 0.
10.2929 -243.747 0.
12.8207 -237.552 0.
-134.909 -297.036 0.
-142.106 -312.992 0.
-149.302 -328.947 0.
42.0973 -227.674 0.
76.3242 -147.554 0.
110.551 -67.4335 0.
34.0903 -64.992 0.
45.4164 -39.4844 0.
56.7426 -13.9769 0.
-122.934 -205.273 0.
-192.647 -367.375 0.
-195.168 -466.951 0.
-110.799 -269.418 0.
-26.4297 -71.8853 0.
55.6857 24.6447 0.
-12.0636 -133.346 0.
-79.8129 -291.337 0.
-345.208 -430.678 0.
-316.201 -364.08 0.
-287.194 -297.481 0.
261.816 -30.5931 0.
275.235 -0.276982 0.
92.5254 65.7073 0.
-547.987 -222.465 0.
-546.504 -219.27 0.
105.012 64.0781 0.
107.795 70.2988 0.
110.578 76.5195 0.
79.5189 37.5597 0.
46.5731 -39.0018 0.
13.6273 -115.563 0.
173.794 -17.4629 0.
214.141 75.5885 0.
254.489 168.64 0.
-14.5539 6.94539 0.
-47.944 -71.4105 0.
32.5172 -90.7462 0.
54.294 -40.5727 0.
76.0709 9.60078 0.
21.8533 -18.2132 0.
-29.3885 -136.91 0.
-80.6303 -255.607 0.
108.045 -201.675 0.
124.03 -164.194 0.
140.016 -126.712 0.
-74.8897 -212.944 0.
-75.2057 -213.442 0.
384.085 -16.4566 0.
297.394 -78.472 0.
284.071 -108.276 0.
251.968 -153.406 0.
218.692 -230.99 0.
185.415 -308.573 0.
185.242 -354.587 0.
174.107 -380.693 0.
162.972 -406.8 0.
203.215 -383.2 0.
214.362 -356.584 0.
225.508 -329.969 0.
221.185 -271.49 0.
255.232 -191.528 0.
-239.866 -343.316 0.
-226.694 -311.039 0.
-213.523 -278.762 0.
270.639 -64.1278 0.
251.988 -108.008 0.
233.338 -151.887 0.
107.564 -216.832 0.
113.741 -201.508 0.
119.918 -186.184 0.
19.2957 -262.418 0.
-5.05456 -319.883 0.
428.153 -181.304 0.
290.828 -122.377 0.
353.002 22.1144 0.
161.516 39.6319 0.
184.905 94.7495 0.
208.294 149.867 0.
267.385 209.229 0.
277.613 233.221 0.
287.841 257.214 0.
472.195 256.242 0.
404.637 98.8943 0.
337.079 -58.4538 0.
154.321 -248.665 0.
97.5796 -382.427 0.
119.936 -465.72 0.
135.805 -429.252 0.
151.674 -392.784 0.
-207.779 -502.258 0.
-167.511 -408.382 0.
-127.243 -314.507 0.
156.686 -131.102 0.
181.209 -73.6478 0.
205.731 -16.1939 0.
411.297 64.4882 0.
400.625 39.5841 0.
528.685 77.0438 0.
-94.8843 -160.494 0.
-79.7566 -125.058 0.
-71.0812 -107.188 0.
-81.3672 -130.451 0.
-91.6531 -153.714 0.
56.4097 -55.9827 0.
104.683 56.9468 0.
152.957 169.876 0.
305.26 248.305 0.
292.023 216.979 0.
278.786 185.653 0.
108.345 146.13 0.
131.038 199.858 0.
87.1444 202.193 0.
-11.2761 -27.8602 0.
-109.696 -257.914 0.
-56.227 -294.535 0.
46.2054 -57.2074 0.
148.638 180.121 0.
-99.6535 16.7866 0.
-232.264 -292.209 0.
-364.875 -601.205 0.
54.1398 -478.503 0.
53.2796 -479.301 0.
-501.316 -159.273 0.
-436.616 -143.438 0.
-435.123 -140.184 0.
27.7616 62.3397 0.
30.4462 68.6188 0.
33.131 74.8979 0.
324.054 173.778 0.
291.072 97.1326 0.
258.09 20.4875 0.
37.6216 -44.1354 0.
77.9997 48.8739 0.
118.378 141.883 0.
-136.084 -13.7548 0.
-169.445 -92.0377 0.
-25.9864 -84.8274 0.
-4.2129 -34.6441 0.
17.5607 15.5392 0.
94.968 44.9214 0.
43.698 -73.8624 0.
-7.57203 -192.646 0.
178.008 -140.586 0.
193.995 -103.171 0.
209.983 -65.7562 0.
69.8317 -119.371 0.
69.6746 -120.012 0.
-192.74 -232.569 0.
244.398 -69.8893 0.
231.041 -99.6411 0.
200.974 -143.577 0.
167.714 -221.055 0.
134.454 -298.533 0.
77.8719 -368.867 0.
66.7837 -395.002 0.
55.6955 -421.137 0.
110.474 -391.627 0.
121.74 -365.166 0.
133.006 -338.705 0.
122.374 -282.18 0.
156.411 -202.289 0.
-50.4839 -229.571 0.
-37.0926 -197.427 0.
-23.7015 -165.284 0.
232.286 -49.8224 0.
213.669 -93.6083 0.
195.053 -137.394 0.
69.3294 -201.663 0.
75.4763 -186.283 0.
81.6232 -170.903 0.
17.1968 -231.848 0.
-6.99355 -289.329 0.
718.764 -24.9798 0.
313.735 -81.1547 0.
375.947 63.3545 0.
235.447 102.748 0.
258.906 157.81 0.
282.364 212.872 0.
187.621 206.338 0.
197.966 230.256 0.
208.311 254.175 0.
457.431 282.099 0.
389.912 124.77 0.
322.393 -32.5596 0.
171.341 -209.508 0.
114.511 -343.198 0.
95.0491 -445.418 0.
110.775 -408.905 0.
126.5 -372.392 0.
-183.99 -460.416 0.
-143.736 -366.513 0.
-103.482 -272.609 0.
164.51 -96.3462 0.
188.968 -38.8353 0.
213.426 18.6757 0.
174.067 -5.66686 0.
163.472 -30.6462 0.
417.365 60.638 0.
-120.544 -140.432 0.
-105.313 -105.044 0.
72.5481 -13.5978 0.
62.426 -36.9471 0.
52.304 -60.2965 0.
18.9 -40.7323 0.
67.1963 72.1624 0.
115.493 185.057 0.
364.659 304.781 0.
351.388 273.475 0.
338.117 242.169 0.
102.635 175.581 0.
125.561 229.089 0.
154.759 262.762 0.
56.4622 32.663 0.
-41.8344 -197.436 0.
43.7554 -220.353 0.
146.233 17.0089 0.
248.712 254.371 0.
160.564 159.779 0.
27.9502 -149.275 0.
-104.663 -458.329 0.
5.52285 -467.422 0.
4.74586 -468.069 0.
-557.021 -60.5831 0.
-428.17 -291.092 0.
-583.424 -654.105 0.
-254.564 -419.001 0.
-47.7711 63.9801 0.
-112.748 -87.1622 0.
354.099 -188.482 0.
389.749 -104.702 0.
458.123 55.3386 0.
7.47996 170.844 0.
208.72 641.465 0.
327.671 920.17 0.
38.4788 656.416 0.
-238.872 8.77373 0.
-353.08 -708.617 0.
-46.1832 6.89842 0.
102.735 353.671 0.
198.785 181.002 0.
237.447 271.789 0.
10.2128 -258.355 0.
317.382 81.0573 0.
492.755 491.178 0.
411.783 303.043 0.
279.383 121.253 0.
268.926 96.7242 0.
-490.322 -282.555 0.
548.253 770 0.
197.927 -46.9865 0.
297.294 212.892 0.
307.779 236.673 0.
45.1529 -376.718 0.
-124.385 -606.999 0.
92.4473 -101.441 0.
-30.2239 -387.952 0.
105.05 -194.805 0.
81.4681 -250.212 0.
7.64118 -423.082 0.
102.128 -108.01 0.
122.229 -61.0794 0.
111.509 -174.072 0.
-10.026 -458.385 0.
-98.6836 -666.017 0.
8.46395 -467.706 0.
298.188 207.202 0.
290.755 188.883 0.
42.4325 -160.348 0.
175.922 151.385 0.
419.906 721.062 0.
329.364 526.057 0.
2.27529 -238.648 0.
-899.623 -495.586 0.
319.487 -75.6905 0.
87.0228 -619.444 0.
-34.6998 -635.604 0.
47.3749 -444.869 0.
243.353 11.5288 0.
144.777 291.127 0.
122.356 238.439 0.
-31.3285 -120.516 0.
219.222 -209.969 0.
81.5299 -531.437 0.
408.933 232.246 0.
338.924 182.834 0.
317.649 133.481 0.
287.824 82.5305 0.
155.432 -226.643 0.
288.558 83.8329 0.
72.7723 126.882 0.
-137.293 -363.301 0.
-484.768 -1174.03 0.
-207.823 -950.418 0.
-20.0268 -512.659 0.
198.096 -4.00136 0.
52.9318 193.062 0.
-181.107 -353.345 0.
-91.3397 -511.449 0.
-89.8752 9.43787 0.
-711.174 -1438.83 0.
-57.97 -565.405 0.
421.633 554.804 0.
-351.54 -1248.42 0.
-509.534 -1167.78 0.
43.4395 122.51 0.
475.793 1130.84 0.
576.307 716.536 0.
483.808 501.291 0.
522.441 592.061 0.
92.0363 191.85 0.
-50.1104 -140.548 0.
-106.287 -445.541 0.
-49.2862 -312.569 0.
-136.513 -515.972 0.
101.768 -247.748 0.
259.565 121.446 0.
240.42 77.7732 0.
101.388 -439.105 0.
80.3964 -488.55 0.
181.419 -253.319 0.
48.5965 -241.569 0.
149.965 -5.82537 0.
-85.1344 229.19 0.
-284.719 42.5698 0.
-335.109 -75.6286 0.
11.0778 4.88537 0.
32.4733 55.1252 0.
53.8688 105.365 0.
276.901 191.829 0.
236.375 97.6126 0.
195.849 3.39657 0.
25.9573 -125.177 0.
3.72316 -175.842 0.
-18.5113 -226.507 0.
-513.324 -377.51 0.
-475.374 -287.846 0.
136.28 43.6933 0.
141.69 57.609 0.
147.1 71.5245 0.
102.167 39.7653 0.
70.6022 -33.8426 0.
39.0372 -107.45 0.
391.078 29.1396 0.
402.97 57.4252 0.
414.861 85.7107 0.
141.463 -52.0727 0.
122.71 -94.967 0.
-658.408 -465.461 0.
215.57 -29.1521 0.
248.034 46.4438 0.
-9.3942 -39.4805 0.
-69.834 -179.425 0.
-130.274 -319.369 0.
-60.1103 -317.006 0.
-19.2604 -221.301 0.
21.5897 -125.596 0.
248.887 -69.5892 0.
195.222 -195.627 0.
141.557 -321.664 0.
-21.3725 -294.05 0.
44.362 -141.018 0.
78.8997 -33.7152 0.
-11.5555 -244.964 0.
-102.011 -456.213 0.
-35.8557 -463.592 0.
89.5354 -171.698 0.
214.927 120.196 0.
174.446 66.6484 0.
40.3116 -247.852 0.
-93.8227 -562.353 0.
-21.1885 -454.817 0.
69.8087 -243.514 0.
-1516.7 -751.605 0.
21.8087 -255.162 0.
-63.9083 -455.306 0.
23.3633 -526.971 0.
60.4101 -441.657 0.
97.4571 -356.343 0.
-85.459 -363.229 0.
-45.5382 -270.071 0.
-5.61749 -176.913 0.
50.804 -159.648 0.
24.8148 -220.512 0.
-1.17429 -281.376 0.
403.314 18.7718 0.
481.414 201.909 0.
296.901 252.345 0.
281.564 216.844 0.
266.227 181.343 0.
162.912 122.079 0.
169.28 136.251 0.
175.648 150.422 0.
35.2154 57.9096 0.
0.109863 -24.4663 0.
-34.9956 -106.842 0.
-138.841 -133.829 0.
-118.526 -85.419 0.
870.597 376.615 0.
8.81612 -90.5256 0.
-42.0351 -209.375 0.
42.7538 -244.394 0.
42.5219 -244.75 0.
42.2898 -245.107 0.
-183.757 -283.037 0.
-110.694 -112.732 0.
-37.6312 57.5719 0.
376.724 143.56 0.
268.757 -108.192 0.
160.791 -359.943 0.
138.275 -162.561 0.
269.828 144.857 0.
173.315 325.408 0.
193.099 372.66 0.
212.882 419.913 0.
321.161 386.565 0.
157.687 6.41839 0.
-5.78577 -373.728 0.
81.2144 -435.728 0.
116.102 -354.262 0.
150.989 -272.796 0.
53.7536 -180.495 0.
133.153 4.19402 0.
143.134 359.066 0.
-265.197 82.7844 0.
-315.412 -35.5408 0.
128.653 86.6927 0.
150.098 136.953 0.
171.544 187.214 0.
1.79963 105.339 0.
-38.6956 11.0976 0.
-79.191 -83.1433 0.
221.042 -9.81852 0.
198.963 -60.5938 0.
176.883 -111.369 0.
-630.847 -396.705 0.
-593.123 -306.741 0.
356.648 169.052 0.
361.84 183.109 0.
367.032 197.166 0.
73.2553 58.3387 0.
41.5145 -15.1251 0.
9.77376 -88.5888 0.
526.006 118.491 0.
537.956 146.689 0.
549.906 174.887 0.
79.9673 -47.5416 0.
61.3368 -90.3868 0.
-374.063 -312.53 0.
244.553 16.2712 0.
276.874 92.1601 0.
-237.211 -106.962 0.
-297.894 -246.614 0.
-358.577 -386.266 0.
-116.535 -310.389 0.
-75.7666 -214.624 0.
-34.9979 -118.859 0.
376.498 17.0141 0.
322.968 -109.133 0.
269.438 -235.281 0.
-57.974 -277.736 0.
7.74287 -124.576 0.
-22.655 -46.0639 0.
-113.211 -257.196 0.
-203.766 -468.328 0.
-76.423 -449.384 0.
48.9154 -157.441 0.
174.254 134.503 0.
233.904 122.963 0.
99.6078 -191.296 0.
-34.6882 -505.556 0.
89.1631 -376.119 0.
180.361 -164.901 0.
159.577 -1.17576 0.
-237.906 -334.629 0.
-323.393 -534.848 0.
53.3892 -482.839 0.
90.4197 -397.531 0.
127.45 -312.222 0.
-7.57062 -298.545 0.
32.307 -205.2 0.
72.1845 -111.856 0.
-167.173 -221.569 0.
-193.03 -282.394 0.
-218.886 -343.218 0.
586.731 129.529 0.
664.929 312.404 0.
235.867 257.707 0.
220.641 222.128 0.
205.415 186.549 0.
292.288 209.315 0.
298.794 223.325 0.
305.3 237.336 0.
-180.877 -3.17502 0.
-215.814 -85.8025 0.
-250.75 -168.43 0.
-184.976 -121.449 0.
-164.498 -73.0984 0.
574.158 281.528 0.
200.985 23.0648 0.
150.185 -95.8804 0.
15.613 -224.161 0.
15.7001 -224.552 0.
15.7872 -224.943 0.
-234.627 -273.236 0.
-161.568 -102.847 0.
-88.5083 67.5421 0.
450.434 206.079 0.
342.473 -45.7021 0.
234.513 -297.483 0.
397.145 -19.0596 0.
528.677 288.366 0.
125.972 335.851 0.
145.606 383.232 0.
165.24 430.613 0.
270.864 396.242 0.
107.55 15.9457 0.
-55.7625 -364.35 0.
70.8163 -408.517 0.
105.671 -326.964 0.
140.526 -245.411 0.
45.3684 -153.132 0.
124.922 31.6413 0.
