# vtk DataFile Version 2.0
test grain
ASCII
DATASET UNSTRUCTURED_GRID
POINTS 5000 float
0.499836 0.00100199 0.
0.501837 0.00100188 0.
0.503838 0.00100178 0.
0.505839 0.00100167 0.
0.507839 0.00100154 0.
0.509838 0.00100141 0.
0.511838 0.00100116 0.
0.513839 0.00100072 0.
0.51584 0.00100029 0.
0.517842 0.00100033 0.
0.519842 0.00100066 0.
0.521843 0.00100098 0.
0.523843 0.00100103 0.
0.525842 0.00100102 0.
0.527842 0.00100106 0.
0.529841 0.00100164 0.
0.531841 0.00100221 0.
0.53384 0.00100231 0.
0.53584 0.00100127 0.
0.53784 0.00100023 0.
0.539841 0.00100002 0.
0.541841 0.00100059 0.
0.543841 0.00100116 0.
0.545841 0.00100135 0.
0.54784 0.00100138 0.
0.549839 0.00100142 0.
0.551836 0.00100176 0.
0.553834 0.00100211 0.
0.555831 0.00100233 0.
0.557828 0.00100209 0.
0.559826 0.00100185 0.
0.561823 0.00100185 0.
0.563819 0.00100217 0.
0.565816 0.00100249 0.
0.567812 0.00100199 0.
0.569808 0.001001 0.
0.571805 0.00100002 0.
0.573796 0.00100097 0.
0.575787 0.00100228 0.
0.577778 0.00100357 0.
0.579763 0.00100431 0.
0.581748 0.00100505 0.
0.583731 0.00100561 0.
0.585714 0.00100575 0.
0.587696 0.00100589 0.
0.589677 0.00100479 0.
0.591655 0.00100239 0.
0.593634 0.00100001 0.
0.595724 0.000999674 0.
0.59786 0.000999741 0.
0.600002 0.000999804 0.
0.602141 0.00099975 0.
0.604279 0.000999695 0.
0.60637 0.00100002 0.
0.608349 0.00100224 0.
0.610328 0.00100447 0.
0.612309 0.00100551 0.
0.614293 0.00100546 0.
0.616276 0.00100541 0.
0.618258 0.00100531 0.
0.620241 0.00100519 0.
0.622223 0.00100508 0.
0.624213 0.00100453 0.
0.626202 0.00100394 0.
0.628193 0.00100322 0.
0.630189 0.0010019 0.
0.632185 0.00100058 0.
0.634182 0.00100002 0.
0.636181 0.00100073 0.
0.638179 0.00100144 0.
0.640177 0.00100181 0.
0.642174 0.00100197 0.
0.644172 0.00100213 0.
0.646169 0.00100233 0.
0.648165 0.00100256 0.
0.650162 0.00100279 0.
0.652161 0.00100227 0.
0.654159 0.00100175 0.
0.656159 0.0010012 0.
0.658159 0.00100059 0.
0.660159 0.000999985 0.
0.66216 0.0010002 0.
0.664162 0.00100124 0.
0.666163 0.00100228 0.
0.668163 0.00100246 0.
0.670162 0.00100233 0.
0.67216 0.0010022 0.
0.674159 0.0010018 0.
0.676158 0.00100137 0.
0.678158 0.00100102 0.
0.680157 0.00100115 0.
0.682157 0.00100128 0.
0.684157 0.00100135 0.
0.686159 0.00100128 0.
0.688161 0.00100122 0.
0.690161 0.00100134 0.
0.692161 0.0010016 0.
0.694162 0.00100185 0.
0.696161 0.00100195 0.
0.698159 0.00100201 0.
0.499835 0.00300598 0.
0.501837 0.00300564 0.
0.503838 0.00300534 0.
0.505839 0.00300502 0.
0.507839 0.00300463 0.
0.509839 0.00300424 0.
0.511839 0.00300348 0.
0.51384 0.00300218 0.
0.515841 0.00300087 0.
0.517842 0.00300099 0.
0.519843 0.00300197 0.
0.521844 0.00300295 0.
0.523844 0.00300309 0.
0.525843 0.00300307 0.
0.527843 0.00300318 0.
0.529842 0.00300491 0.
0.531842 0.00300664 0.
0.533841 0.00300695 0.
0.535839 0.00300382 0.
0.537837 0.0030007 0.
0.539838 0.00300006 0.
0.541841 0.00300176 0.
0.543845 0.00300347 0.
0.545844 0.00300404 0.
0.547843 0.00300415 0.
0.549841 0.00300427 0.
0.551838 0.00300527 0.
0.553835 0.00300631 0.
0.555832 0.003007 0.
0.55783 0.00300628 0.
0.559827 0.00300556 0.
0.561824 0.00300557 0.
0.56382 0.00300652 0.
0.565817 0.00300747 0.
0.567813 0.00300596 0.
0.56981 0.00300301 0.
0.571807 0.00300006 0.
0.5738 0.00300292 0.
0.575791 0.00300685 0.
0.577783 0.00301073 0.
0.57977 0.00301295 0.
0.581758 0.00301517 0.
0.583743 0.00301683 0.
0.585724 0.00301725 0.
0.587705 0.00301767 0.
0.589687 0.00301433 0.
0.591668 0.00300713 0.
0.59365 0.00299995 0.
0.595736 0.00299898 0.
0.597867 0.0029992 0.
0.600001 0.00299941 0.
0.602134 0.00299923 0.
0.604266 0.00299904 0.
0.606353 0.00300001 0.
0.608335 0.00300669 0.
0.610317 0.00301339 0.
0.612298 0.00301653 0.
0.61428 0.00301638 0.
0.616262 0.00301623 0.
0.618248 0.00301593 0.
0.620234 0.00301558 0.
0.622221 0.00301523 0.
0.624211 0.00301359 0.
0.6262 0.00301182 0.
0.628191 0.00300965 0.
0.630186 0.00300569 0.
0.632181 0.00300173 0.
0.634178 0.00300007 0.
0.636178 0.00300219 0.
0.638177 0.00300431 0.
0.640176 0.00300545 0.
0.642173 0.00300592 0.
0.644171 0.0030064 0.
0.646167 0.003007 0.
0.648163 0.00300769 0.
0.650159 0.00300836 0.
0.652156 0.00300682 0.
0.654153 0.00300527 0.
0.656151 0.00300359 0.
0.658157 0.00300177 0.
0.660163 0.00299995 0.
0.662165 0.00300061 0.
0.664164 0.00300373 0.
0.666164 0.00300685 0.
0.668162 0.00300739 0.
0.670161 0.003007 0.
0.672159 0.0030066 0.
0.674158 0.00300541 0.
0.676157 0.00300411 0.
0.678156 0.00300306 0.
0.680157 0.00300345 0.
0.682157 0.00300384 0.
0.684158 0.00300404 0.
0.686159 0.00300384 0.
0.68816 0.00300364 0.
0.69016 0.00300402 0.
0.69216 0.00300479 0.
0.69416 0.00300556 0.
0.69616 0.00300586 0.
0.69816 0.00300604 0.
0.499835 0.00500995 0.
0.501837 0.00500939 0.
0.503838 0.00500888 0.
0.505839 0.00500839 0.
0.50784 0.00500772 0.
0.50984 0.00500707 0.
0.511841 0.0050058 0.
0.513841 0.00500363 0.
0.515841 0.00500145 0.
0.517842 0.00500165 0.
0.519843 0.00500328 0.
0.521844 0.00500491 0.
0.523844 0.00500514 0.
0.525844 0.00500511 0.
0.527844 0.00500529 0.
0.529843 0.00500817 0.
0.531843 0.00501105 0.
0.533842 0.00501157 0.
0.535838 0.00500639 0.
0.537834 0.0050012 0.
0.539835 0.0050001 0.
0.541842 0.00500295 0.
0.543848 0.0050058 0.
0.545848 0.00500673 0.
0.547845 0.00500692 0.
0.549843 0.00500712 0.
0.55184 0.00500876 0.
0.553836 0.00501051 0.
0.555833 0.00501165 0.
0.557831 0.00501045 0.
0.559828 0.00500926 0.
0.561825 0.00500929 0.
0.563822 0.00501087 0.
0.565818 0.00501246 0.
0.567815 0.00500993 0.
0.569812 0.00500502 0.
0.57181 0.0050001 0.
0.573803 0.00500488 0.
0.575795 0.00501142 0.
0.577788 0.00501788 0.
0.579778 0.00502158 0.
0.581768 0.00502528 0.
0.583755 0.00502801 0.
0.585735 0.0050287 0.
0.587714 0.00502943 0.
0.589697 0.00502381 0.
0.591681 0.00501177 0.
0.593666 0.00499982 0.
0.595749 0.00499825 0.
0.597874 0.00499893 0.
0.600002 0.00499997 0.
0.602127 0.00499899 0.
0.604252 0.00499835 0.
0.606336 0.00499993 0.
0.608321 0.00501106 0.
0.610305 0.00502224 0.
0.612288 0.0050275 0.
0.614268 0.00502726 0.
0.616249 0.00502702 0.
0.618237 0.00502652 0.
0.620228 0.00502595 0.
0.622218 0.00502539 0.
0.624208 0.00502264 0.
0.626198 0.0050197 0.
0.628189 0.00501608 0.
0.630183 0.00500948 0.
0.632177 0.00500288 0.
0.634173 0.00500011 0.
0.636174 0.00500365 0.
0.638176 0.00500718 0.
0.640175 0.00500909 0.
0.642172 0.00500987 0.
0.64417 0.00501066 0.
0.646166 0.00501166 0.
0.648161 0.00501281 0.
0.650157 0.00501393 0.
0.652151 0.00501136 0.
0.654146 0.0050088 0.
0.656144 0.00500599 0.
0.658155 0.00500296 0.
0.660166 0.00499992 0.
0.66217 0.00500106 0.
0.664167 0.00500624 0.
0.666164 0.00501141 0.
0.668162 0.00501231 0.
0.67016 0.00501166 0.
0.672158 0.00501101 0.
0.674157 0.00500901 0.
0.676155 0.00500686 0.
0.678155 0.00500511 0.
0.680156 0.00500576 0.
0.682157 0.0050064 0.
0.684158 0.00500671 0.
0.686158 0.00500638 0.
0.688159 0.00500605 0.
0.690159 0.00500671 0.
0.692159 0.00500799 0.
0.694159 0.00500927 0.
0.69616 0.00500976 0.
0.69816 0.00501007 0.
0.499838 0.00701366 0.
0.501839 0.00701287 0.
0.50384 0.00701217 0.
0.505841 0.00701152 0.
0.507841 0.00701109 0.
0.509842 0.00701066 0.
0.511842 0.00701026 0.
0.513842 0.00700989 0.
0.515843 0.00700952 0.
0.517843 0.0070097 0.
0.519844 0.00701023 0.
0.521844 0.00701077 0.
0.523844 0.00701132 0.
0.525845 0.00701183 0.
0.527845 0.0070124 0.
0.529844 0.00701405 0.
0.531844 0.00701569 0.
0.533843 0.00701696 0.
0.535841 0.00701721 0.
0.537839 0.00701746 0.
0.53984 0.007017 0.
0.541843 0.00701587 0.
0.543846 0.00701476 0.
0.545846 0.00701424 0.
0.547844 0.00701392 0.
0.549843 0.00701359 0.
0.551841 0.0070149 0.
0.553839 0.00701631 0.
0.555837 0.00701745 0.
0.557835 0.00701752 0.
0.559832 0.00701759 0.
0.56183 0.00701797 0.
0.563827 0.00701874 0.
0.565825 0.00701952 0.
0.567822 0.00701974 0.
0.569819 0.00701963 0.
0.571817 0.00701953 0.
0.57381 0.00702315 0.
0.575803 0.00702744 0.
0.577796 0.00703159 0.
0.579788 0.00703385 0.
0.58178 0.00703612 0.
0.583771 0.00703778 0.
0.585758 0.00703802 0.
0.587746 0.0070383 0.
0.589735 0.00702917 0.
0.591727 0.00701028 0.
0.593718 0.00699151 0.
0.59579 0.00700985 0.
0.597895 0.00704341 0.
0.600001 0.00707785 0.
0.602105 0.00704386 0.
0.604209 0.00701073 0.
0.606282 0.00699278 0.
0.608273 0.0070112 0.
0.610265 0.0070297 0.
0.612255 0.0070384 0.
0.614243 0.00703786 0.
0.616232 0.00703732 0.
0.618223 0.00703659 0.
0.620215 0.00703578 0.
0.622207 0.00703498 0.
0.6242 0.00703132 0.
0.626192 0.00702746 0.
0.628185 0.00702385 0.
0.63018 0.007022 0.
0.632175 0.00702017 0.
0.634172 0.00701909 0.
0.636171 0.00701902 0.
0.63817 0.00701897 0.
0.640169 0.00701915 0.
0.642167 0.00701955 0.
0.644164 0.00701994 0.
0.646162 0.00701968 0.
0.648159 0.00701934 0.
0.650156 0.00701908 0.
0.652154 0.0070193 0.
0.654151 0.00701953 0.
0.65615 0.00702007 0.
0.658155 0.00702163 0.
0.66016 0.0070232 0.
0.662162 0.00702348 0.
0.664161 0.00702225 0.
0.666159 0.00702103 0.
0.668158 0.00701955 0.
0.670157 0.00701805 0.
0.672156 0.00701656 0.
0.674156 0.00701457 0.
0.676156 0.00701252 0.
0.678155 0.00701077 0.
0.680156 0.00701068 0.
0.682156 0.00701059 0.
0.684157 0.00701059 0.
0.686157 0.00701068 0.
0.688158 0.00701076 0.
0.690158 0.00701123 0.
0.692158 0.00701192 0.
0.694159 0.00701262 0.
0.696159 0.00701387 0.
0.69816 0.00701522 0.
0.499841 0.00901725 0.
0.501841 0.00901635 0.
0.503842 0.00901546 0.
0.505842 0.00901466 0.
0.507843 0.00901446 0.
0.509843 0.00901425 0.
0.511844 0.00901472 0.
0.513844 0.00901614 0.
0.515845 0.00901758 0.
0.517845 0.00901774 0.
0.519844 0.00901718 0.
0.521844 0.00901662 0.
0.523845 0.00901749 0.
0.525845 0.00901855 0.
0.527846 0.0090195 0.
0.529846 0.00901992 0.
0.531845 0.00902034 0.
0.533845 0.00902236 0.
0.535845 0.00902804 0.
0.537844 0.00903373 0.
0.539844 0.00903389 0.
0.541844 0.0090288 0.
0.543844 0.00902373 0.
0.545844 0.00902176 0.
0.547843 0.00902092 0.
0.549843 0.00902008 0.
0.551842 0.00902103 0.
0.553841 0.0090221 0.
0.55584 0.00902325 0.
0.557838 0.00902459 0.
0.559836 0.00902592 0.
0.561835 0.00902665 0.
0.563833 0.00902662 0.
0.565832 0.00902659 0.
0.567829 0.00902955 0.
0.569826 0.00903424 0.
0.571823 0.00903896 0.
0.573818 0.00904142 0.
0.575811 0.00904346 0.
0.577805 0.0090453 0.
0.579798 0.00904614 0.
0.581792 0.00904698 0.
0.583786 0.00904752 0.
0.585782 0.00904732 0.
0.587778 0.00904714 0.
0.589774 0.00903432 0.
0.591772 0.00900854 0.
0.59377 0.0089829 0.
0.595831 0.0090224 0.
0.597916 0.00908838 0.
0.600001 0.00915572 0.
0.602084 0.00908921 0.
0.604167 0.00902405 0.
0.606227 0.00898534 0.
0.608225 0.0090111 0.
0.610224 0.00903696 0.
0.612222 0.00904931 0.
0.614218 0.00904846 0.
0.616215 0.00904761 0.
0.618209 0.00904665 0.
0.620203 0.0090456 0.
0.622196 0.00904456 0.
0.624191 0.00904002 0.
0.626186 0.00903525 0.
0.628181 0.0090316 0.
0.630178 0.00903451 0.
0.632174 0.00903744 0.
0.634171 0.00903806 0.
0.636168 0.0090344 0.
0.638165 0.00903076 0.
0.640163 0.00902924 0.
0.642161 0.00902923 0.
0.644159 0.00902922 0.
0.646158 0.00902771 0.
0.648157 0.00902589 0.
0.650156 0.00902421 0.
0.652156 0.00902723 0.
0.654156 0.00903026 0.
0.656156 0.00903416 0.
0.658155 0.0090403 0.
0.660154 0.00904646 0.
0.662154 0.00904593 0.
0.664154 0.00903828 0.
0.666154 0.00903066 0.
0.668154 0.00902678 0.
0.670154 0.00902445 0.
0.672155 0.00902212 0.
0.674155 0.00902013 0.
0.676156 0.00901819 0.
0.678156 0.00901642 0.
0.680156 0.00901559 0.
0.682156 0.00901477 0.
0.684156 0.00901447 0.
0.686156 0.00901498 0.
0.688156 0.00901548 0.
0.690157 0.00901575 0.
0.692157 0.00901586 0.
0.694158 0.00901597 0.
0.696158 0.00901798 0.
0.698159 0.00902038 0.
0.499843 0.0110207 0.
0.501843 0.0110197 0.
0.503843 0.0110187 0.
0.505843 0.0110177 0.
0.507844 0.0110176 0.
0.509844 0.0110175 0.
0.511845 0.0110182 0.
0.513845 0.0110202 0.
0.515846 0.0110222 0.
0.517846 0.0110223 0.
0.519845 0.0110214 0.
0.521845 0.0110205 0.
0.523845 0.0110214 0.
0.525846 0.0110227 0.
0.527847 0.0110238 0.
0.529847 0.0110239 0.
0.531846 0.0110241 0.
0.533846 0.0110263 0.
0.535847 0.0110334 0.
0.537848 0.0110405 0.
0.539848 0.0110409 0.
0.541846 0.0110349 0.
0.543845 0.011029 0.
0.545845 0.0110265 0.
0.547845 0.0110252 0.
0.549845 0.0110239 0.
0.551845 0.0110249 0.
0.553845 0.0110261 0.
0.555844 0.0110273 0.
0.557843 0.011029 0.
0.559842 0.0110306 0.
0.561841 0.0110315 0.
0.56384 0.0110316 0.
0.565839 0.0110317 0.
0.567837 0.0110354 0.
0.569835 0.0110413 0.
0.571833 0.0110472 0.
0.573828 0.0110495 0.
0.575824 0.0110512 0.
0.577819 0.0110526 0.
0.579816 0.0110521 0.
0.581813 0.0110515 0.
0.583811 0.0110507 0.
0.585812 0.0110492 0.
0.587814 0.0110476 0.
0.589816 0.011034 0.
0.591819 0.0110084 0.
0.593823 0.0109828 0.
0.595872 0.0110247 0.
0.597938 0.0110907 0.
0.600003 0.0111556 0.
0.602065 0.0110918 0.
0.604127 0.0110271 0.
0.606174 0.0109861 0.
0.608178 0.0110116 0.
0.610182 0.0110369 0.
0.612186 0.01105 0.
0.614188 0.0110507 0.
0.61619 0.0110514 0.
0.618188 0.011051 0.
0.620184 0.0110502 0.
0.62218 0.0110493 0.
0.624177 0.0110446 0.
0.626175 0.0110396 0.
0.628172 0.0110361 0.
0.63017 0.0110409 0.
0.632168 0.0110457 0.
0.634166 0.0110471 0.
0.636163 0.0110425 0.
0.63816 0.0110379 0.
0.640157 0.0110357 0.
0.642156 0.0110352 0.
0.644154 0.0110348 0.
0.646154 0.0110327 0.
0.648154 0.0110301 0.
0.650153 0.0110278 0.
0.652154 0.0110322 0.
0.654155 0.0110366 0.
0.656155 0.0110417 0.
0.658153 0.0110486 0.
0.66015 0.0110555 0.
0.662149 0.0110546 0.
0.66415 0.0110453 0.
0.666151 0.011036 0.
0.668151 0.0110313 0.
0.670152 0.0110284 0.
0.672153 0.0110255 0.
0.674154 0.0110236 0.
0.676155 0.0110218 0.
0.678156 0.0110201 0.
0.680155 0.0110193 0.
0.682155 0.0110185 0.
0.684155 0.0110181 0.
0.686155 0.0110185 0.
0.688155 0.0110189 0.
0.690155 0.0110191 0.
0.692156 0.0110193 0.
0.694156 0.0110194 0.
0.696157 0.0110218 0.
0.698158 0.0110247 0.
0.499845 0.0130241 0.
0.501844 0.013023 0.
0.503844 0.0130218 0.
0.505844 0.0130207 0.
0.507844 0.0130205 0.
0.509844 0.0130203 0.
0.511845 0.0130207 0.
0.513845 0.013022 0.
0.515846 0.0130233 0.
0.517846 0.0130234 0.
0.519846 0.0130229 0.
0.521846 0.0130223 0.
0.523847 0.0130231 0.
0.525847 0.0130242 0.
0.527847 0.0130252 0.
0.529848 0.013026 0.
0.531848 0.0130268 0.
0.533848 0.0130288 0.
0.535849 0.0130334 0.
0.537849 0.013038 0.
0.539849 0.0130383 0.
0.541849 0.0130345 0.
0.543849 0.0130307 0.
0.545849 0.0130284 0.
0.547849 0.0130268 0.
0.549849 0.0130251 0.
0.551849 0.0130265 0.
0.553849 0.0130281 0.
0.555849 0.0130297 0.
0.557849 0.0130307 0.
0.559848 0.0130317 0.
0.561848 0.0130327 0.
0.563847 0.0130337 0.
0.565847 0.0130346 0.
0.567846 0.0130374 0.
0.569845 0.0130411 0.
0.571844 0.0130448 0.
0.573843 0.0130479 0.
0.575841 0.0130509 0.
0.577839 0.0130535 0.
0.57984 0.0130518 0.
0.581841 0.01305 0.
0.583844 0.0130477 0.
0.585849 0.0130439 0.
0.587854 0.0130401 0.
0.58986 0.0130288 0.
0.591868 0.0130102 0.
0.593877 0.0129915 0.
0.595914 0.0130161 0.
0.597961 0.013055 0.
0.600008 0.0130932 0.
0.602049 0.0130564 0.
0.60409 0.0130191 0.
0.606123 0.0129955 0.
0.608132 0.0130129 0.
0.61014 0.0130302 0.
0.612147 0.0130409 0.
0.614152 0.0130449 0.
0.616157 0.0130489 0.
0.618159 0.0130499 0.
0.620159 0.0130496 0.
0.622159 0.0130494 0.
0.624159 0.0130452 0.
0.626158 0.0130406 0.
0.628158 0.0130374 0.
0.630157 0.0130414 0.
0.632157 0.0130454 0.
0.634156 0.0130467 0.
0.636155 0.0130436 0.
0.638153 0.0130404 0.
0.640152 0.0130385 0.
0.642151 0.0130376 0.
0.64415 0.0130366 0.
0.646149 0.0130345 0.
0.648149 0.0130321 0.
0.650149 0.0130299 0.
0.652149 0.0130343 0.
0.654149 0.0130386 0.
0.656149 0.0130429 0.
0.658149 0.0130471 0.
0.660148 0.0130512 0.
0.662148 0.0130502 0.
0.664149 0.0130437 0.
0.66615 0.0130371 0.
0.668151 0.013033 0.
0.670151 0.0130298 0.
0.672152 0.0130267 0.
0.674152 0.0130249 0.
0.676153 0.0130233 0.
0.678154 0.0130218 0.
0.680154 0.0130217 0.
0.682154 0.0130216 0.
0.684154 0.0130214 0.
0.686154 0.0130212 0.
0.688154 0.013021 0.
0.690154 0.0130214 0.
0.692154 0.0130222 0.
0.694154 0.013023 0.
0.696155 0.0130253 0.
0.698155 0.0130281 0.
0.499846 0.0150276 0.
0.501845 0.0150263 0.
0.503845 0.0150249 0.
0.505845 0.0150237 0.
0.507845 0.0150234 0.
0.509845 0.0150232 0.
0.511845 0.0150233 0.
0.513845 0.0150239 0.
0.515845 0.0150245 0.
0.517846 0.0150246 0.
0.519847 0.0150243 0.
0.521848 0.0150241 0.
0.523848 0.0150248 0.
0.525848 0.0150257 0.
0.527848 0.0150266 0.
0.529848 0.0150281 0.
0.531849 0.0150296 0.
0.53385 0.0150312 0.
0.53585 0.0150333 0.
0.537851 0.0150355 0.
0.539851 0.0150357 0.
0.541852 0.015034 0.
0.543853 0.0150323 0.
0.545853 0.0150304 0.
0.547853 0.0150283 0.
0.549853 0.0150263 0.
0.551853 0.0150282 0.
0.553854 0.0150302 0.
0.555854 0.015032 0.
0.557854 0.0150324 0.
0.559854 0.0150328 0.
0.561855 0.0150338 0.
0.563855 0.0150357 0.
0.565855 0.0150376 0.
0.567855 0.0150392 0.
0.569856 0.0150408 0.
0.571856 0.0150423 0.
0.573857 0.0150463 0.
0.575858 0.0150506 0.
0.577859 0.0150544 0.
0.579864 0.0150514 0.
0.58187 0.0150484 0.
0.583876 0.0150445 0.
0.585885 0.0150385 0.
0.587894 0.0150325 0.
0.589904 0.0150236 0.
0.591917 0.015012 0.
0.59393 0.0150004 0.
0.595955 0.0150069 0.
0.597984 0.0150192 0.
0.600012 0.0150314 0.
0.602033 0.0150211 0.
0.604054 0.0150107 0.
0.606073 0.015005 0.
0.608086 0.0150143 0.
0.610099 0.0150236 0.
0.612109 0.0150318 0.
0.614117 0.015039 0.
0.616125 0.0150462 0.
0.61813 0.0150487 0.
0.620134 0.015049 0.
0.622138 0.0150494 0.
0.62414 0.0150457 0.
0.626142 0.0150416 0.
0.628144 0.0150387 0.
0.630145 0.0150418 0.
0.632146 0.015045 0.
0.634147 0.0150463 0.
0.636147 0.0150446 0.
0.638147 0.0150429 0.
0.640147 0.0150413 0.
0.642146 0.0150399 0.
0.644145 0.0150385 0.
0.646145 0.0150364 0.
0.648145 0.0150341 0.
0.650145 0.0150321 0.
0.652144 0.0150363 0.
0.654144 0.0150405 0.
0.656143 0.015044 0.
0.658145 0.0150455 0.
0.660146 0.015047 0.
0.662147 0.0150459 0.
0.664148 0.015042 0.
0.666149 0.0150381 0.
0.66815 0.0150347 0.
0.67015 0.0150313 0.
0.67215 0.015028 0.
0.674151 0.0150263 0.
0.676152 0.0150248 0.
0.678152 0.0150236 0.
0.680152 0.0150242 0.
0.682152 0.0150247 0.
0.684152 0.0150247 0.
0.686153 0.0150239 0.
0.688153 0.0150231 0.
0.690153 0.0150237 0.
0.692152 0.0150251 0.
0.694152 0.0150265 0.
0.696152 0.0150289 0.
0.698152 0.0150314 0.
0.499847 0.0170301 0.
0.501847 0.0170291 0.
0.503847 0.0170279 0.
0.505847 0.0170269 0.
0.507847 0.0170263 0.
0.509847 0.0170258 0.
0.511847 0.0170254 0.
0.513847 0.0170255 0.
0.515847 0.0170255 0.
0.517848 0.0170254 0.
0.519848 0.0170253 0.
0.521849 0.0170253 0.
0.523849 0.0170263 0.
0.525849 0.0170274 0.
0.527849 0.0170286 0.
0.52985 0.0170297 0.
0.531851 0.0170309 0.
0.533852 0.0170322 0.
0.535852 0.0170337 0.
0.537853 0.0170352 0.
0.539854 0.0170353 0.
0.541855 0.0170339 0.
0.543856 0.0170326 0.
0.545857 0.017031 0.
0.547857 0.0170292 0.
0.549857 0.0170274 0.
0.551857 0.0170293 0.
0.553858 0.0170312 0.
0.555858 0.0170329 0.
0.557858 0.0170329 0.
0.559858 0.0170328 0.
0.561859 0.0170335 0.
0.56386 0.0170353 0.
0.56586 0.017037 0.
0.567861 0.0170388 0.
0.569863 0.0170405 0.
0.571864 0.0170422 0.
0.573867 0.0170453 0.
0.575869 0.0170485 0.
0.577871 0.0170512 0.
0.579877 0.0170476 0.
0.581883 0.017044 0.
0.58389 0.0170395 0.
0.585899 0.0170328 0.
0.587908 0.0170262 0.
0.589919 0.017018 0.
0.59193 0.0170083 0.
0.593942 0.0169987 0.
0.595963 0.0170026 0.
0.597986 0.0170108 0.
0.600009 0.017019 0.
0.602027 0.0170128 0.
0.604045 0.0170066 0.
0.606062 0.0170037 0.
0.608073 0.0170114 0.
0.610084 0.0170192 0.
0.612094 0.0170266 0.
0.614103 0.0170336 0.
0.616111 0.0170407 0.
0.618118 0.0170438 0.
0.620123 0.0170451 0.
0.622128 0.0170464 0.
0.624131 0.0170438 0.
0.626133 0.0170408 0.
0.628136 0.0170386 0.
0.630137 0.0170412 0.
0.632139 0.0170437 0.
0.63414 0.0170448 0.
0.636141 0.0170436 0.
0.638142 0.0170423 0.
0.640142 0.0170412 0.
0.642142 0.0170401 0.
0.644142 0.017039 0.
0.646142 0.0170375 0.
0.648142 0.0170357 0.
0.650142 0.0170342 0.
0.652141 0.0170375 0.
0.654141 0.0170407 0.
0.656141 0.0170434 0.
0.658143 0.0170445 0.
0.660144 0.0170456 0.
0.662145 0.0170447 0.
0.664147 0.0170417 0.
0.666148 0.0170387 0.
0.668149 0.017036 0.
0.670149 0.0170335 0.
0.672149 0.0170309 0.
0.67415 0.0170288 0.
0.67615 0.0170266 0.
0.67815 0.0170249 0.
0.680151 0.0170254 0.
0.682151 0.0170258 0.
0.684151 0.017026 0.
0.686151 0.0170259 0.
0.688151 0.0170259 0.
0.690151 0.0170266 0.
0.69215 0.0170278 0.
0.69415 0.0170289 0.
0.69615 0.0170312 0.
0.69815 0.0170337 0.
0.499848 0.0190327 0.
0.501848 0.0190319 0.
0.503849 0.019031 0.
0.505849 0.0190301 0.
0.507849 0.0190292 0.
0.509849 0.0190283 0.
0.511849 0.0190276 0.
0.513849 0.019027 0.
0.515849 0.0190265 0.
0.517849 0.0190263 0.
0.51985 0.0190264 0.
0.52185 0.0190264 0.
0.523851 0.0190277 0.
0.525851 0.0190291 0.
0.527851 0.0190305 0.
0.529852 0.0190314 0.
0.531853 0.0190323 0.
0.533854 0.0190331 0.
0.535855 0.0190341 0.
0.537856 0.019035 0.
0.539857 0.0190349 0.
0.541858 0.0190339 0.
0.543859 0.0190329 0.
0.54586 0.0190315 0.
0.547861 0.0190301 0.
0.549862 0.0190286 0.
0.551862 0.0190304 0.
0.553862 0.0190323 0.
0.555862 0.0190338 0.
0.557862 0.0190333 0.
0.559863 0.0190328 0.
0.561863 0.0190332 0.
0.563864 0.0190348 0.
0.565866 0.0190365 0.
0.567868 0.0190383 0.
0.56987 0.0190402 0.
0.571873 0.0190421 0.
0.573876 0.0190443 0.
0.57588 0.0190464 0.
0.577884 0.019048 0.
0.57989 0.0190438 0.
0.581896 0.0190396 0.
0.583904 0.0190344 0.
0.585913 0.0190272 0.
0.587923 0.0190199 0.
0.589933 0.0190124 0.
0.591943 0.0190047 0.
0.593954 0.018997 0.
0.59597 0.0189983 0.
0.597988 0.0190024 0.
0.600006 0.0190066 0.
0.602022 0.0190045 0.
0.604037 0.0190025 0.
0.606051 0.0190023 0.
0.60806 0.0190085 0.
0.610069 0.0190147 0.
0.612079 0.0190213 0.
0.614088 0.0190282 0.
0.616098 0.0190352 0.
0.618105 0.0190389 0.
0.620111 0.0190411 0.
0.622117 0.0190433 0.
0.624121 0.0190418 0.
0.626124 0.0190399 0.
0.628127 0.0190386 0.
0.63013 0.0190405 0.
0.632132 0.0190424 0.
0.634134 0.0190434 0.
0.636135 0.0190426 0.
0.638137 0.0190418 0.
0.640138 0.0190411 0.
0.642139 0.0190403 0.
0.644139 0.0190396 0.
0.646139 0.0190385 0.
0.648139 0.0190374 0.
0.650139 0.0190364 0.
0.652139 0.0190387 0.
0.654139 0.0190409 0.
0.656139 0.0190428 0.
0.658141 0.0190434 0.
0.660142 0.0190441 0.
0.662144 0.0190435 0.
0.664145 0.0190414 0.
0.666147 0.0190393 0.
0.668148 0.0190374 0.
0.670148 0.0190357 0.
0.672149 0.0190339 0.
0.674149 0.0190312 0.
0.676149 0.0190285 0.
0.678149 0.0190262 0.
0.680149 0.0190265 0.
0.68215 0.0190269 0.
0.68415 0.0190273 0.
0.686149 0.019028 0.
0.688149 0.0190287 0.
0.690149 0.0190295 0.
0.692148 0.0190304 0.
0.694148 0.0190314 0.
0.696148 0.0190336 0.
0.698148 0.0190361 0.
0.49985 0.021035 0.
0.50185 0.0210344 0.
0.50385 0.0210336 0.
0.505851 0.0210328 0.
0.507851 0.0210317 0.
0.509851 0.0210305 0.
0.511851 0.0210296 0.
0.513851 0.021029 0.
0.515851 0.0210283 0.
0.517851 0.0210281 0.
0.519852 0.021028 0.
0.521852 0.021028 0.
0.523853 0.021029 0.
0.525853 0.0210303 0.
0.527854 0.0210315 0.
0.529854 0.0210324 0.
0.531855 0.0210332 0.
0.533856 0.0210339 0.
0.535858 0.0210343 0.
0.537859 0.0210347 0.
0.53986 0.0210344 0.
0.541862 0.0210335 0.
0.543863 0.0210325 0.
0.545864 0.0210316 0.
0.547865 0.0210306 0.
0.549866 0.0210296 0.
0.551867 0.0210311 0.
0.553867 0.0210328 0.
0.555867 0.021034 0.
0.557868 0.0210333 0.
0.559869 0.0210326 0.
0.56187 0.0210327 0.
0.563871 0.0210341 0.
0.565873 0.0210355 0.
0.567875 0.021037 0.
0.569879 0.0210385 0.
0.571882 0.0210401 0.
0.573887 0.0210414 0.
0.575891 0.0210426 0.
0.577896 0.0210433 0.
0.579903 0.0210388 0.
0.581909 0.0210342 0.
0.583916 0.0210288 0.
0.585925 0.0210215 0.
0.587935 0.0210143 0.
0.589944 0.0210075 0.
0.591953 0.0210012 0.
0.593962 0.0209948 0.
0.595976 0.0209948 0.
0.59799 0.0209967 0.
0.600004 0.0209985 0.
0.602017 0.0209988 0.
0.604031 0.020999 0.
0.606043 0.0210004 0.
0.608051 0.0210054 0.
0.610059 0.0210104 0.
0.612067 0.0210162 0.
0.614076 0.0210229 0.
0.616085 0.0210297 0.
0.618093 0.0210338 0.
0.620099 0.0210367 0.
0.622105 0.0210396 0.
0.62411 0.0210389 0.
0.626114 0.0210378 0.
0.628118 0.0210371 0.
0.630121 0.0210388 0.
0.632124 0.0210405 0.
0.634126 0.0210415 0.
0.636128 0.0210412 0.
0.63813 0.0210409 0.
0.640132 0.0210406 0.
0.642133 0.0210404 0.
0.644134 0.0210401 0.
0.646134 0.0210394 0.
0.648134 0.0210386 0.
0.650134 0.0210378 0.
0.652135 0.0210392 0.
0.654135 0.0210406 0.
0.656136 0.0210417 0.
0.658138 0.0210423 0.
0.660139 0.021043 0.
0.662141 0.0210426 0.
0.664143 0.0210411 0.
0.666144 0.0210396 0.
0.668145 0.0210383 0.
0.670146 0.021037 0.
0.672146 0.0210357 0.
0.674146 0.0210331 0.
0.676146 0.0210304 0.
0.678146 0.0210281 0.
0.680147 0.0210283 0.
0.682147 0.0210286 0.
0.684148 0.0210291 0.
0.686147 0.0210301 0.
0.688147 0.0210311 0.
0.690147 0.021032 0.
0.692147 0.0210331 0.
0.694146 0.0210341 0.
0.696146 0.0210362 0.
0.698146 0.0210385 0.
0.499852 0.0230369 0.
0.501852 0.0230364 0.
0.503852 0.0230358 0.
0.505853 0.023035 0.
0.507853 0.0230337 0.
0.509853 0.0230323 0.
0.511854 0.0230314 0.
0.513854 0.0230312 0.
0.515854 0.023031 0.
0.517855 0.0230306 0.
0.519855 0.0230302 0.
0.521856 0.0230298 0.
0.523856 0.0230303 0.
0.525857 0.023031 0.
0.527857 0.0230316 0.
0.529858 0.0230327 0.
0.531859 0.0230337 0.
0.53386 0.0230344 0.
0.535861 0.0230344 0.
0.537863 0.0230344 0.
0.539864 0.0230338 0.
0.541866 0.0230327 0.
0.543868 0.0230316 0.
0.545869 0.0230311 0.
0.54787 0.0230308 0.
0.549872 0.0230305 0.
0.551872 0.0230315 0.
0.553873 0.0230327 0.
0.555874 0.0230335 0.
0.557876 0.0230328 0.
0.559877 0.0230322 0.
0.561879 0.0230321 0.
0.56388 0.023033 0.
0.565882 0.023034 0.
0.567885 0.0230348 0.
0.569888 0.0230355 0.
0.571892 0.0230363 0.
0.573897 0.0230368 0.
0.575903 0.0230372 0.
0.577909 0.0230372 0.
0.579915 0.0230326 0.
0.581921 0.023028 0.
0.583927 0.0230227 0.
0.585935 0.023016 0.
0.587943 0.0230093 0.
0.589951 0.0230033 0.
0.59196 0.0229977 0.
0.593968 0.0229922 0.
0.595979 0.022992 0.
0.597991 0.0229934 0.
0.600003 0.0229948 0.
0.602015 0.0229955 0.
0.604026 0.0229962 0.
0.606036 0.0229977 0.
0.608044 0.0230019 0.
0.610051 0.0230062 0.
0.612059 0.0230114 0.
0.614066 0.0230178 0.
0.616074 0.0230242 0.
0.61808 0.0230285 0.
0.620086 0.0230319 0.
0.622092 0.0230353 0.
0.624098 0.0230351 0.
0.626104 0.0230344 0.
0.628109 0.0230342 0.
0.630112 0.0230361 0.
0.632115 0.023038 0.
0.634117 0.0230393 0.
0.63612 0.0230395 0.
0.638123 0.0230397 0.
0.640124 0.0230399 0.
0.642126 0.0230402 0.
0.644127 0.0230405 0.
0.646128 0.02304 0.
0.648128 0.0230392 0.
0.650129 0.0230385 0.
0.65213 0.023039 0.
0.654131 0.0230396 0.
0.656132 0.0230402 0.
0.658134 0.0230411 0.
0.660136 0.023042 0.
0.662138 0.0230419 0.
0.664139 0.0230408 0.
0.666141 0.0230396 0.
0.668142 0.0230385 0.
0.670142 0.0230375 0.
0.672142 0.0230364 0.
0.674142 0.0230344 0.
0.676142 0.0230322 0.
0.678143 0.0230304 0.
0.680144 0.0230307 0.
0.682145 0.023031 0.
0.684145 0.0230315 0.
0.686144 0.0230323 0.
0.688144 0.0230331 0.
0.690144 0.0230343 0.
0.692145 0.0230357 0.
0.694145 0.0230372 0.
0.696145 0.0230391 0.
0.698145 0.0230411 0.
0.499854 0.0250389 0.
0.501854 0.0250385 0.
0.503854 0.0250379 0.
0.505855 0.0250372 0.
0.507855 0.0250356 0.
0.509855 0.0250341 0.
0.511856 0.0250332 0.
0.513857 0.0250334 0.
0.515858 0.0250336 0.
0.517858 0.0250332 0.
0.519858 0.0250324 0.
0.521859 0.0250316 0.
0.52386 0.0250316 0.
0.52586 0.0250317 0.
0.527861 0.0250318 0.
0.529862 0.025033 0.
0.531863 0.0250342 0.
0.533863 0.0250349 0.
0.535865 0.0250345 0.
0.537867 0.0250341 0.
0.539869 0.0250332 0.
0.54187 0.025032 0.
0.543872 0.0250308 0.
0.545874 0.0250307 0.
0.547875 0.025031 0.
0.549877 0.0250313 0.
0.551878 0.0250319 0.
0.553879 0.0250326 0.
0.555881 0.025033 0.
0.557883 0.0250323 0.
0.559885 0.0250317 0.
0.561887 0.0250315 0.
0.563889 0.025032 0.
0.565892 0.0250325 0.
0.567894 0.0250326 0.
0.569898 0.0250325 0.
0.571901 0.0250324 0.
0.573907 0.0250321 0.
0.575914 0.0250318 0.
0.577921 0.0250311 0.
0.579927 0.0250265 0.
0.581932 0.0250218 0.
0.583938 0.0250166 0.
0.585945 0.0250104 0.
0.587952 0.0250043 0.
0.589959 0.024999 0.
0.591966 0.0249943 0.
0.593973 0.0249896 0.
0.595983 0.0249893 0.
0.597993 0.0249902 0.
0.600003 0.0249911 0.
0.602012 0.0249922 0.
0.604021 0.0249934 0.
0.60603 0.024995 0.
0.608037 0.0249985 0.
0.610044 0.0250019 0.
0.612051 0.0250066 0.
0.614057 0.0250127 0.
0.616063 0.0250187 0.
0.618068 0.0250233 0.
0.620074 0.0250272 0.
0.62208 0.0250311 0.
0.624087 0.0250313 0.
0.626093 0.0250311 0.
0.6281 0.0250313 0.
0.630103 0.0250334 0.
0.632106 0.0250355 0.
0.634109 0.0250371 0.
0.636112 0.0250378 0.
0.638115 0.0250384 0.
0.640117 0.0250392 0.
0.642118 0.0250401 0.
0.64412 0.0250409 0.
0.646121 0.0250406 0.
0.648122 0.0250399 0.
0.650123 0.0250392 0.
0.652125 0.0250389 0.
0.654127 0.0250386 0.
0.656129 0.0250388 0.
0.658131 0.0250399 0.
0.660133 0.0250411 0.
0.662134 0.0250412 0.
0.664136 0.0250404 0.
0.666137 0.0250396 0.
0.668138 0.0250388 0.
0.670138 0.025038 0.
0.672138 0.0250372 0.
0.674139 0.0250356 0.
0.676139 0.025034 0.
0.678139 0.0250327 0.
0.680141 0.025033 0.
0.682142 0.0250333 0.
0.684142 0.0250338 0.
0.686142 0.0250345 0.
0.688141 0.0250352 0.
0.690142 0.0250366 0.
0.692143 0.0250384 0.
0.694144 0.0250402 0.
0.696144 0.0250419 0.
0.698144 0.0250436 0.
0.499856 0.0270413 0.
0.501856 0.0270405 0.
0.503856 0.0270393 0.
0.505857 0.0270381 0.
0.507857 0.0270367 0.
0.509858 0.0270353 0.
0.511858 0.0270343 0.
0.513859 0.0270341 0.
0.51586 0.0270338 0.
0.517861 0.0270334 0.
0.519861 0.0270328 0.
0.521862 0.0270323 0.
0.523863 0.0270324 0.
0.525864 0.0270327 0.
0.527864 0.0270329 0.
0.529865 0.0270334 0.
0.531866 0.027034 0.
0.533867 0.0270342 0.
0.535869 0.0270338 0.
0.53787 0.0270333 0.
0.539872 0.0270327 0.
0.541874 0.027032 0.
0.543876 0.0270313 0.
0.545877 0.0270307 0.
0.547878 0.0270301 0.
0.549879 0.0270294 0.
0.551881 0.0270303 0.
0.553883 0.0270312 0.
0.555885 0.0270317 0.
0.557887 0.0270311 0.
0.559889 0.0270305 0.
0.561892 0.0270302 0.
0.563894 0.0270303 0.
0.565897 0.0270304 0.
0.5679 0.02703 0.
0.569904 0.0270292 0.
0.571908 0.0270285 0.
0.573914 0.0270283 0.
0.57592 0.0270281 0.
0.577926 0.0270276 0.
0.579932 0.0270229 0.
0.581938 0.0270182 0.
0.583944 0.0270131 0.
0.58595 0.0270072 0.
0.587957 0.0270013 0.
0.589963 0.0269965 0.
0.59197 0.0269927 0.
0.593976 0.0269889 0.
0.595984 0.0269883 0.
0.597993 0.0269887 0.
0.600002 0.0269891 0.
0.60201 0.0269902 0.
0.604019 0.0269913 0.
0.606027 0.0269929 0.
0.608033 0.0269964 0.
0.610039 0.0269999 0.
0.612045 0.0270042 0.
0.614051 0.0270095 0.
0.616056 0.0270147 0.
0.618062 0.0270191 0.
0.620068 0.0270231 0.
0.622074 0.0270271 0.
0.624081 0.0270279 0.
0.626087 0.0270282 0.
0.628093 0.0270289 0.
0.630096 0.027031 0.
0.6321 0.0270332 0.
0.634103 0.0270349 0.
0.636106 0.0270359 0.
0.638109 0.027037 0.
0.640112 0.0270378 0.
0.642114 0.0270386 0.
0.644116 0.0270394 0.
0.646118 0.0270392 0.
0.648119 0.0270387 0.
0.650121 0.0270382 0.
0.652122 0.0270383 0.
0.654124 0.0270384 0.
0.656126 0.0270387 0.
0.658128 0.0270395 0.
0.66013 0.0270403 0.
0.662131 0.0270406 0.
0.664133 0.0270402 0.
0.666134 0.0270399 0.
0.668135 0.0270392 0.
0.670136 0.0270384 0.
0.672136 0.0270376 0.
0.674136 0.0270361 0.
0.676137 0.0270345 0.
0.678138 0.0270331 0.
0.680138 0.0270338 0.
0.682139 0.0270345 0.
0.684139 0.0270352 0.
0.68614 0.027036 0.
0.68814 0.0270368 0.
0.69014 0.0270382 0.
0.692141 0.0270401 0.
0.694141 0.027042 0.
0.696141 0.0270441 0.
0.698142 0.0270461 0.
0.499858 0.0290439 0.
0.501858 0.0290424 0.
0.503858 0.0290406 0.
0.505859 0.0290389 0.
0.507859 0.0290377 0.
0.50986 0.0290365 0.
0.511861 0.0290355 0.
0.513862 0.0290348 0.
0.515863 0.0290341 0.
0.517863 0.0290336 0.
0.519864 0.0290333 0.
0.521865 0.029033 0.
0.523866 0.0290333 0.
0.525867 0.0290337 0.
0.527867 0.029034 0.
0.529869 0.0290339 0.
0.53187 0.0290338 0.
0.533872 0.0290335 0.
0.535873 0.029033 0.
0.537874 0.0290325 0.
0.539875 0.0290322 0.
0.541877 0.029032 0.
0.543879 0.0290318 0.
0.54588 0.0290307 0.
0.547881 0.0290291 0.
0.549882 0.0290276 0.
0.551884 0.0290286 0.
0.553886 0.0290297 0.
0.555888 0.0290305 0.
0.557891 0.0290299 0.
0.559893 0.0290293 0.
0.561896 0.0290289 0.
0.563899 0.0290286 0.
0.565902 0.0290284 0.
0.567905 0.0290274 0.
0.56991 0.029026 0.
0.571914 0.0290246 0.
0.57392 0.0290244 0.
0.575926 0.0290244 0.
0.577932 0.029024 0.
0.579938 0.0290193 0.
0.581944 0.0290146 0.
0.58395 0.0290096 0.
0.585956 0.0290039 0.
0.587961 0.0289982 0.
0.589967 0.028994 0.
0.591973 0.0289911 0.
0.593979 0.0289881 0.
0.595986 0.0289873 0.
0.597993 0.0289872 0.
0.600001 0.0289871 0.
0.602009 0.0289882 0.
0.604017 0.0289893 0.
0.606024 0.0289909 0.
0.608029 0.0289944 0.
0.610034 0.0289979 0.
0.61204 0.0290019 0.
0.614045 0.0290063 0.
0.61605 0.0290107 0.
0.618056 0.0290149 0.
0.620062 0.0290191 0.
0.622069 0.0290232 0.
0.624075 0.0290245 0.
0.626081 0.0290254 0.
0.628086 0.0290265 0.
0.63009 0.0290286 0.
0.632094 0.0290308 0.
0.634098 0.0290327 0.
0.636101 0.0290341 0.
0.638104 0.0290355 0.
0.640107 0.0290365 0.
0.64211 0.0290372 0.
0.644113 0.0290378 0.
0.646115 0.0290378 0.
0.648117 0.0290375 0.
0.650119 0.0290372 0.
0.65212 0.0290377 0.
0.654121 0.0290382 0.
0.656122 0.0290387 0.
0.658125 0.0290391 0.
0.660127 0.0290396 0.
0.662129 0.0290399 0.
0.66413 0.02904 0.
0.666131 0.0290402 0.
0.668132 0.0290396 0.
0.670133 0.0290388 0.
0.672134 0.029038 0.
0.674134 0.0290365 0.
0.676135 0.0290349 0.
0.678136 0.0290336 0.
0.680136 0.0290346 0.
0.682136 0.0290357 0.
0.684137 0.0290367 0.
0.686138 0.0290375 0.
0.688138 0.0290383 0.
0.690139 0.0290398 0.
0.692138 0.0290419 0.
0.694138 0.0290439 0.
0.696138 0.0290462 0.
0.698139 0.0290487 0.
0.49986 0.0310463 0.
0.501861 0.0310444 0.
0.503861 0.0310423 0.
0.505861 0.0310404 0.
0.507862 0.031039 0.
0.509863 0.0310376 0.
0.511864 0.0310365 0.
0.513864 0.0310356 0.
0.515865 0.0310347 0.
0.517866 0.0310342 0.
0.519867 0.0310338 0.
0.521868 0.0310335 0.
0.523869 0.0310339 0.
0.52587 0.0310344 0.
0.527871 0.0310347 0.
0.529873 0.0310341 0.
0.531874 0.0310334 0.
0.533876 0.0310328 0.
0.535877 0.0310324 0.
0.537878 0.0310319 0.
0.539879 0.0310316 0.
0.541881 0.0310315 0.
0.543883 0.0310315 0.
0.545884 0.0310301 0.
0.547885 0.0310283 0.
0.549886 0.0310266 0.
0.551888 0.0310274 0.
0.553891 0.0310283 0.
0.555893 0.031029 0.
0.557896 0.0310284 0.
0.559898 0.0310277 0.
0.561901 0.0310272 0.
0.563904 0.0310266 0.
0.565907 0.031026 0.
0.567911 0.0310246 0.
0.569915 0.0310228 0.
0.57192 0.031021 0.
0.573925 0.0310207 0.
0.575931 0.0310207 0.
0.577937 0.0310202 0.
0.579943 0.0310156 0.
0.581949 0.031011 0.
0.583954 0.0310062 0.
0.58596 0.0310009 0.
0.587965 0.0309956 0.
0.58997 0.0309919 0.
0.591975 0.0309896 0.
0.59398 0.0309872 0.
0.595987 0.0309863 0.
0.597994 0.0309857 0.
0.600001 0.0309852 0.
0.602008 0.0309864 0.
0.604015 0.0309876 0.
0.606022 0.0309893 0.
0.608026 0.0309928 0.
0.610031 0.0309963 0.
0.612035 0.031 0.
0.61404 0.0310038 0.
0.616046 0.0310076 0.
0.618051 0.0310116 0.
0.620057 0.0310157 0.
0.622063 0.0310198 0.
0.624069 0.0310213 0.
0.626075 0.0310224 0.
0.62808 0.0310237 0.
0.630084 0.0310259 0.
0.632088 0.0310281 0.
0.634092 0.0310302 0.
0.636095 0.0310319 0.
0.638098 0.0310336 0.
0.640102 0.0310348 0.
0.642105 0.0310355 0.
0.644107 0.0310362 0.
0.64611 0.0310364 0.
0.648113 0.0310363 0.
0.650115 0.0310362 0.
0.652116 0.0310368 0.
0.654117 0.0310374 0.
0.656118 0.031038 0.
0.658121 0.0310383 0.
0.660123 0.0310386 0.
0.662125 0.031039 0.
0.664126 0.0310394 0.
0.666128 0.0310398 0.
0.668129 0.0310395 0.
0.67013 0.031039 0.
0.67213 0.0310384 0.
0.674131 0.0310371 0.
0.676132 0.0310356 0.
0.678133 0.0310345 0.
0.680133 0.0310358 0.
0.682133 0.031037 0.
0.684134 0.0310381 0.
0.686135 0.0310388 0.
0.688136 0.0310396 0.
0.690136 0.0310413 0.
0.692136 0.0310436 0.
0.694135 0.0310459 0.
0.696135 0.0310482 0.
0.698136 0.0310505 0.
0.499864 0.0330486 0.
0.501864 0.0330465 0.
0.503864 0.0330445 0.
0.505865 0.0330425 0.
0.507865 0.0330407 0.
0.509866 0.0330389 0.
0.511867 0.0330374 0.
0.513867 0.0330366 0.
0.515868 0.0330358 0.
0.517869 0.0330352 0.
0.51987 0.0330345 0.
0.521872 0.0330339 0.
0.523873 0.0330342 0.
0.525874 0.0330347 0.
0.527876 0.0330351 0.
0.529877 0.033034 0.
0.531878 0.033033 0.
0.53388 0.0330321 0.
0.535881 0.0330317 0.
0.537882 0.0330313 0.
0.539884 0.0330309 0.
0.541885 0.0330305 0.
0.543887 0.0330302 0.
0.545889 0.0330291 0.
0.54789 0.0330277 0.
0.549892 0.0330263 0.
0.551894 0.0330266 0.
0.553897 0.033027 0.
0.555899 0.0330272 0.
0.557902 0.0330265 0.
0.559904 0.0330258 0.
0.561907 0.033025 0.
0.56391 0.0330241 0.
0.565913 0.0330232 0.
0.567917 0.0330216 0.
0.569921 0.0330197 0.
0.571925 0.0330178 0.
0.57393 0.0330172 0.
0.575936 0.0330169 0.
0.577942 0.0330163 0.
0.579947 0.0330119 0.
0.581952 0.0330075 0.
0.583957 0.0330029 0.
0.585962 0.0329982 0.
0.587967 0.0329935 0.
0.589972 0.0329903 0.
0.591976 0.0329883 0.
0.593981 0.0329863 0.
0.595987 0.0329851 0.
0.597994 0.0329841 0.
0.6 0.0329832 0.
0.602007 0.0329848 0.
0.604014 0.0329863 0.
0.60602 0.0329883 0.
0.608024 0.0329916 0.
0.610028 0.032995 0.
0.612033 0.0329984 0.
0.614038 0.033002 0.
0.616042 0.0330055 0.
0.618047 0.0330093 0.
0.620052 0.0330131 0.
0.622057 0.0330169 0.
0.624063 0.0330183 0.
0.626068 0.0330194 0.
0.628074 0.0330207 0.
0.630078 0.0330229 0.
0.632082 0.0330251 0.
0.634086 0.0330273 0.
0.636089 0.0330293 0.
0.638093 0.0330314 0.
0.640096 0.0330328 0.
0.642098 0.0330337 0.
0.644101 0.0330346 0.
0.646104 0.0330349 0.
0.648107 0.0330351 0.
0.65011 0.0330353 0.
0.652111 0.0330357 0.
0.654112 0.0330362 0.
0.656113 0.0330366 0.
0.658115 0.033037 0.
0.660118 0.0330374 0.
0.66212 0.0330378 0.
0.664121 0.0330383 0.
0.666123 0.0330388 0.
0.668124 0.0330389 0.
0.670125 0.0330389 0.
0.672126 0.0330389 0.
0.674128 0.0330377 0.
0.676129 0.0330365 0.
0.67813 0.0330357 0.
0.68013 0.0330371 0.
0.68213 0.0330385 0.
0.684131 0.0330396 0.
0.686131 0.0330401 0.
0.688132 0.0330406 0.
0.690132 0.0330425 0.
0.692133 0.0330452 0.
0.694133 0.0330479 0.
0.696132 0.0330498 0.
0.698132 0.0330516 0.
0.499867 0.035051 0.
0.501867 0.0350485 0.
0.503867 0.0350466 0.
0.505868 0.0350446 0.
0.507868 0.0350423 0.
0.509869 0.0350401 0.
0.51187 0.0350384 0.
0.513871 0.0350377 0.
0.515871 0.0350369 0.
0.517872 0.0350361 0.
0.519873 0.0350352 0.
0.521875 0.0350343 0.
0.523876 0.0350346 0.
0.525878 0.0350351 0.
0.52788 0.0350354 0.
0.529881 0.035034 0.
0.531883 0.0350325 0.
0.533884 0.0350314 0.
0.535885 0.0350311 0.
0.537886 0.0350307 0.
0.539888 0.0350302 0.
0.54189 0.0350296 0.
0.543892 0.0350289 0.
0.545894 0.035028 0.
0.547896 0.035027 0.
0.549897 0.035026 0.
0.5519 0.0350258 0.
0.553903 0.0350257 0.
0.555905 0.0350254 0.
0.557908 0.0350246 0.
0.55991 0.0350238 0.
0.561913 0.0350229 0.
0.563916 0.0350216 0.
0.565919 0.0350204 0.
0.567923 0.0350186 0.
0.569926 0.0350166 0.
0.57193 0.0350146 0.
0.573935 0.0350138 0.
0.575941 0.0350133 0.
0.577947 0.0350124 0.
0.579951 0.0350081 0.
0.581956 0.0350039 0.
0.58396 0.0349997 0.
0.585965 0.0349956 0.
0.587969 0.0349914 0.
0.589973 0.0349887 0.
0.591977 0.034987 0.
0.593981 0.0349854 0.
0.595987 0.0349839 0.
0.597994 0.0349825 0.
0.6 0.0349812 0.
0.602006 0.0349831 0.
0.604012 0.0349851 0.
0.606018 0.0349872 0.
0.608022 0.0349905 0.
0.610026 0.0349937 0.
0.61203 0.0349969 0.
0.614035 0.0350002 0.
0.616039 0.0350035 0.
0.618043 0.0350069 0.
0.620047 0.0350104 0.
0.622051 0.0350139 0.
0.624057 0.0350153 0.
0.626062 0.0350164 0.
0.628068 0.0350177 0.
0.630072 0.0350199 0.
0.632076 0.0350221 0.
0.63408 0.0350244 0.
0.636084 0.0350268 0.
0.638087 0.0350292 0.
0.64009 0.0350308 0.
0.642092 0.0350319 0.
0.644095 0.0350329 0.
0.646098 0.0350335 0.
0.648102 0.035034 0.
0.650105 0.0350343 0.
0.652106 0.0350346 0.
0.654107 0.0350349 0.
0.656108 0.0350353 0.
0.65811 0.0350358 0.
0.660113 0.0350362 0.
0.662115 0.0350367 0.
0.664117 0.0350373 0.
0.666119 0.0350378 0.
0.66812 0.0350383 0.
0.670121 0.0350388 0.
0.672122 0.0350393 0.
0.674124 0.0350384 0.
0.676125 0.0350375 0.
0.678127 0.0350369 0.
0.680127 0.0350385 0.
0.682127 0.03504 0.
0.684127 0.035041 0.
0.686128 0.0350413 0.
0.688128 0.0350416 0.
0.690129 0.0350437 0.
0.692129 0.0350468 0.
0.69413 0.0350499 0.
0.696129 0.0350514 0.
0.698129 0.0350527 0.
0.499871 0.0370516 0.
0.501871 0.0370493 0.
0.503872 0.0370473 0.
0.505872 0.0370453 0.
0.507872 0.0370433 0.
0.509873 0.0370413 0.
0.511873 0.0370397 0.
0.513874 0.0370388 0.
0.515875 0.0370378 0.
0.517876 0.0370369 0.
0.519877 0.0370359 0.
0.521878 0.0370348 0.
0.52388 0.0370347 0.
0.525882 0.0370348 0.
0.527884 0.0370347 0.
0.529885 0.0370335 0.
0.531886 0.0370322 0.
0.533887 0.0370312 0.
0.535888 0.0370305 0.
0.53789 0.0370298 0.
0.539892 0.037029 0.
0.541894 0.0370281 0.
0.543895 0.0370272 0.
0.545897 0.0370265 0.
0.547899 0.0370257 0.
0.549901 0.037025 0.
0.551904 0.0370247 0.
0.553906 0.0370244 0.
0.555909 0.037024 0.
0.557912 0.0370229 0.
0.559914 0.0370218 0.
0.561917 0.0370206 0.
0.563921 0.0370192 0.
0.565925 0.0370178 0.
0.567928 0.037016 0.
0.569931 0.0370141 0.
0.571934 0.0370122 0.
0.573939 0.037011 0.
0.575945 0.03701 0.
0.57795 0.0370087 0.
0.579954 0.0370051 0.
0.581959 0.0370015 0.
0.583963 0.0369979 0.
0.585967 0.036994 0.
0.587971 0.0369901 0.
0.589975 0.0369873 0.
0.591979 0.0369854 0.
0.593983 0.0369836 0.
0.595988 0.0369823 0.
0.597994 0.0369813 0.
0.6 0.0369802 0.
0.602005 0.0369821 0.
0.604011 0.036984 0.
0.606016 0.0369862 0.
0.60802 0.0369893 0.
0.610024 0.0369925 0.
0.612029 0.0369957 0.
0.614033 0.036999 0.
0.616037 0.0370023 0.
0.618041 0.0370054 0.
0.620045 0.0370083 0.
0.622049 0.0370112 0.
0.624054 0.0370128 0.
0.626059 0.0370142 0.
0.628064 0.0370157 0.
0.630068 0.0370179 0.
0.632072 0.03702 0.
0.634076 0.0370222 0.
0.636079 0.0370245 0.
0.638083 0.0370268 0.
0.640086 0.0370287 0.
0.642089 0.0370304 0.
0.644092 0.037032 0.
0.646095 0.0370324 0.
0.648098 0.0370325 0.
0.650102 0.0370326 0.
0.652103 0.037033 0.
0.654104 0.0370333 0.
0.656106 0.0370337 0.
0.658108 0.0370345 0.
0.66011 0.0370353 0.
0.662112 0.0370359 0.
0.664114 0.0370364 0.
0.666115 0.0370368 0.
0.668117 0.0370375 0.
0.670118 0.0370383 0.
0.672119 0.037039 0.
0.674121 0.0370383 0.
0.676122 0.0370375 0.
0.678123 0.037037 0.
0.680124 0.0370384 0.
0.682124 0.0370399 0.
0.684125 0.0370411 0.
0.686125 0.0370421 0.
0.688125 0.0370432 0.
0.690126 0.0370453 0.
0.692126 0.0370481 0.
0.694126 0.037051 0.
0.696126 0.0370527 0.
0.698126 0.0370542 0.
0.499875 0.0390523 0.
0.501875 0.0390501 0.
0.503876 0.039048 0.
0.505876 0.039046 0.
0.507876 0.0390442 0.
0.509876 0.0390424 0.
0.511877 0.039041 0.
0.513877 0.0390399 0.
0.515878 0.0390388 0.
0.517879 0.0390377 0.
0.51988 0.0390365 0.
0.521882 0.0390354 0.
0.523884 0.0390349 0.
0.525885 0.0390344 0.
0.527887 0.0390339 0.
0.529888 0.039033 0.
0.531889 0.039032 0.
0.53389 0.039031 0.
0.535892 0.0390299 0.
0.537893 0.0390288 0.
0.539895 0.0390277 0.
0.541897 0.0390267 0.
0.543899 0.0390256 0.
0.545901 0.0390249 0.
0.547903 0.0390245 0.
0.549906 0.039024 0.
0.551908 0.0390236 0.
0.55391 0.0390231 0.
0.555913 0.0390225 0.
0.557915 0.0390212 0.
0.559918 0.0390198 0.
0.561921 0.0390184 0.
0.563926 0.0390168 0.
0.56593 0.0390152 0.
0.567933 0.0390134 0.
0.569936 0.0390116 0.
0.571938 0.0390098 0.
0.573943 0.0390082 0.
0.575948 0.0390066 0.
0.577953 0.0390049 0.
0.579958 0.039002 0.
0.581962 0.0389991 0.
0.583966 0.038996 0.
0.585969 0.0389924 0.
0.587973 0.0389887 0.
0.589976 0.0389859 0.
0.59198 0.0389839 0.
0.593984 0.0389818 0.
0.595989 0.0389807 0.
0.597994 0.03898 0.
0.6 0.0389793 0.
0.602005 0.0389811 0.
0.60401 0.0389829 0.
0.606014 0.0389851 0.
0.608019 0.0389882 0.
0.610023 0.0389913 0.
0.612027 0.0389945 0.
0.61403 0.0389978 0.
0.616034 0.0390012 0.
0.618038 0.0390038 0.
0.620042 0.0390061 0.
0.622047 0.0390084 0.
0.624051 0.0390102 0.
0.626056 0.039012 0.
0.62806 0.0390137 0.
0.630064 0.0390158 0.
0.632067 0.0390179 0.
0.634071 0.0390201 0.
0.636075 0.0390223 0.
0.638079 0.0390244 0.
0.640082 0.0390266 0.
0.642085 0.0390288 0.
0.644089 0.039031 0.
0.646092 0.0390313 0.
0.648095 0.0390311 0.
0.650098 0.0390309 0.
0.6521 0.0390313 0.
0.654101 0.0390317 0.
0.656103 0.0390322 0.
0.658105 0.0390333 0.
0.660107 0.0390343 0.
0.662109 0.0390351 0.
0.664111 0.0390354 0.
0.666112 0.0390358 0.
0.668113 0.0390367 0.
0.670115 0.0390377 0.
0.672116 0.0390388 0.
0.674118 0.0390382 0.
0.676119 0.0390374 0.
0.67812 0.039037 0.
0.680121 0.0390384 0.
0.682121 0.0390397 0.
0.684122 0.0390412 0.
0.686122 0.039043 0.
0.688122 0.0390447 0.
0.690122 0.0390469 0.
0.692122 0.0390494 0.
0.694122 0.039052 0.
0.696123 0.0390539 0.
0.698124 0.0390557 0.
0.499879 0.0410534 0.
0.501879 0.0410513 0.
0.50388 0.0410492 0.
0.50588 0.0410471 0.
0.50788 0.0410453 0.
0.50988 0.0410434 0.
0.51188 0.0410418 0.
0.513881 0.0410406 0.
0.515882 0.0410393 0.
0.517883 0.041038 0.
0.519884 0.0410365 0.
0.521885 0.0410351 0.
0.523887 0.0410344 0.
0.525889 0.0410339 0.
0.52789 0.0410333 0.
0.529891 0.0410324 0.
0.531892 0.0410314 0.
0.533894 0.0410304 0.
0.535895 0.0410292 0.
0.537897 0.041028 0.
0.539899 0.0410269 0.
0.541901 0.0410257 0.
0.543903 0.0410246 0.
0.545905 0.0410239 0.
0.547907 0.0410233 0.
0.54991 0.0410228 0.
0.551912 0.0410223 0.
0.553914 0.0410218 0.
0.555917 0.0410211 0.
0.557919 0.0410195 0.
0.559922 0.041018 0.
0.561926 0.0410163 0.
0.56393 0.0410146 0.
0.565934 0.0410129 0.
0.567937 0.0410112 0.
0.56994 0.0410094 0.
0.571942 0.0410077 0.
0.573947 0.0410058 0.
0.575952 0.0410038 0.
0.577957 0.0410018 0.
0.579961 0.0409992 0.
0.581965 0.0409966 0.
0.583968 0.0409938 0.
0.585972 0.0409907 0.
0.587975 0.0409876 0.
0.589978 0.040985 0.
0.591982 0.0409827 0.
0.593985 0.0409804 0.
0.59599 0.0409796 0.
0.597995 0.0409791 0.
0.6 0.0409787 0.
0.602005 0.0409804 0.
0.604009 0.0409821 0.
0.606013 0.0409841 0.
0.608017 0.0409871 0.
0.610022 0.0409901 0.
0.612025 0.0409932 0.
0.614028 0.0409965 0.
0.616032 0.0409997 0.
0.618036 0.0410022 0.
0.62004 0.0410042 0.
0.622044 0.0410063 0.
0.624048 0.0410081 0.
0.626053 0.0410099 0.
0.628057 0.0410117 0.
0.63006 0.0410138 0.
0.632064 0.0410159 0.
0.634067 0.0410181 0.
0.636071 0.04102 0.
0.638075 0.041022 0.
0.640078 0.0410243 0.
0.642081 0.0410268 0.
0.644084 0.0410293 0.
0.646088 0.0410297 0.
0.648091 0.0410295 0.
0.650094 0.0410293 0.
0.652096 0.0410298 0.
0.654098 0.0410302 0.
0.656099 0.0410308 0.
0.658102 0.0410321 0.
0.660104 0.0410333 0.
0.662105 0.0410342 0.
0.664107 0.0410348 0.
0.666108 0.0410353 0.
0.66811 0.0410363 0.
0.670111 0.0410375 0.
0.672113 0.0410386 0.
0.674114 0.0410382 0.
0.676115 0.0410377 0.
0.678116 0.0410375 0.
0.680117 0.0410389 0.
0.682118 0.0410404 0.
0.684119 0.041042 0.
0.686119 0.0410439 0.
0.688119 0.0410458 0.
0.690119 0.041048 0.
0.692119 0.0410505 0.
0.694119 0.041053 0.
0.69612 0.0410552 0.
0.698121 0.0410575 0.
0.499884 0.0430549 0.
0.501884 0.0430528 0.
0.503884 0.0430508 0.
0.505884 0.0430488 0.
0.507884 0.0430465 0.
0.509884 0.0430443 0.
0.511885 0.0430423 0.
0.513885 0.0430409 0.
0.515886 0.0430395 0.
0.517886 0.0430378 0.
0.519887 0.0430359 0.
0.521888 0.043034 0.
0.52389 0.0430335 0.
0.525891 0.0430332 0.
0.527893 0.0430329 0.
0.529894 0.0430317 0.
0.531896 0.0430305 0.
0.533897 0.0430294 0.
0.535899 0.0430284 0.
0.537901 0.0430274 0.
0.539903 0.0430264 0.
0.541905 0.0430253 0.
0.543907 0.0430242 0.
0.545909 0.0430232 0.
0.547911 0.0430223 0.
0.549914 0.0430213 0.
0.551916 0.0430209 0.
0.553918 0.0430204 0.
0.555921 0.0430197 0.
0.557924 0.043018 0.
0.559927 0.0430162 0.
0.56193 0.0430145 0.
0.563933 0.0430128 0.
0.565937 0.043011 0.
0.56794 0.0430093 0.
0.569943 0.0430076 0.
0.571946 0.0430059 0.
0.57395 0.0430037 0.
0.575955 0.0430015 0.
0.57796 0.0429992 0.
0.579963 0.0429965 0.
0.581967 0.0429938 0.
0.58397 0.0429913 0.
0.585974 0.042989 0.
0.587977 0.0429868 0.
0.58998 0.0429844 0.
0.591984 0.042982 0.
0.593987 0.0429795 0.
0.595991 0.0429788 0.
0.597996 0.0429787 0.
0.600001 0.0429785 0.
0.602005 0.0429799 0.
0.604009 0.0429814 0.
0.606013 0.0429832 0.
0.608016 0.0429861 0.
0.610019 0.0429891 0.
0.612023 0.042992 0.
0.614026 0.042995 0.
0.61603 0.0429979 0.
0.618034 0.0430004 0.
0.620037 0.0430026 0.
0.622041 0.0430049 0.
0.624045 0.0430064 0.
0.626049 0.0430079 0.
0.628053 0.0430094 0.
0.630057 0.0430118 0.
0.63206 0.0430141 0.
0.634064 0.0430162 0.
0.636067 0.0430178 0.
0.63807 0.0430194 0.
0.640073 0.0430217 0.
0.642076 0.0430243 0.
0.644079 0.0430269 0.
0.646082 0.0430276 0.
0.648086 0.0430277 0.
0.650089 0.0430279 0.
0.652091 0.0430284 0.
0.654093 0.0430289 0.
0.656095 0.0430296 0.
0.658097 0.0430308 0.
0.660099 0.0430321 0.
0.6621 0.0430332 0.
0.664102 0.0430343 0.
0.666104 0.0430353 0.
0.668105 0.0430363 0.
0.670107 0.0430374 0.
0.672109 0.0430385 0.
0.67411 0.0430384 0.
0.676111 0.0430383 0.
0.678112 0.0430384 0.
0.680113 0.0430401 0.
0.682114 0.0430418 0.
0.684115 0.0430435 0.
0.686116 0.043045 0.
0.688117 0.0430465 0.
0.690117 0.0430487 0.
0.692117 0.0430514 0.
0.694117 0.043054 0.
0.696118 0.0430567 0.
0.698118 0.0430594 0.
0.499889 0.0450566 0.
0.501888 0.0450543 0.
0.503887 0.0450524 0.
0.505887 0.0450503 0.
0.507888 0.0450477 0.
0.509889 0.0450451 0.
0.511889 0.0450429 0.
0.51389 0.0450413 0.
0.51589 0.0450397 0.
0.51789 0.0450377 0.
0.519891 0.0450353 0.
0.521891 0.045033 0.
0.523893 0.0450326 0.
0.525894 0.0450326 0.
0.527895 0.0450325 0.
0.529897 0.0450311 0.
0.531899 0.0450297 0.
0.533901 0.0450284 0.
0.535903 0.0450276 0.
0.537905 0.0450267 0.
0.539907 0.0450259 0.
0.541909 0.0450249 0.
0.543911 0.0450238 0.
0.545913 0.0450226 0.
0.547915 0.0450212 0.
0.549917 0.0450199 0.
0.55192 0.0450194 0.
0.553923 0.045019 0.
0.555925 0.0450183 0.
0.557928 0.0450164 0.
0.559931 0.0450145 0.
0.561934 0.0450127 0.
0.563936 0.0450109 0.
0.565939 0.0450091 0.
0.567942 0.0450074 0.
0.569946 0.0450057 0.
0.571949 0.0450041 0.
0.573954 0.0450017 0.
0.575959 0.0449992 0.
0.577963 0.0449967 0.
0.579966 0.0449939 0.
0.581969 0.0449911 0.
0.583972 0.0449887 0.
0.585976 0.0449873 0.
0.587979 0.0449859 0.
0.589983 0.0449839 0.
0.591986 0.0449813 0.
0.593989 0.0449786 0.
0.595993 0.0449781 0.
0.597997 0.0449782 0.
0.600002 0.0449783 0.
0.602006 0.0449795 0.
0.604009 0.0449807 0.
0.606013 0.0449823 0.
0.608015 0.0449852 0.
0.610017 0.044988 0.
0.61202 0.0449908 0.
0.614024 0.0449934 0.
0.616028 0.0449961 0.
0.618032 0.0449986 0.
0.620035 0.0450011 0.
0.622038 0.0450035 0.
0.624042 0.0450047 0.
0.626046 0.0450059 0.
0.62805 0.0450072 0.
0.630054 0.0450097 0.
0.632057 0.0450123 0.
0.634061 0.0450144 0.
0.636063 0.0450157 0.
0.638066 0.045017 0.
0.640069 0.0450191 0.
0.642071 0.0450218 0.
0.644073 0.0450245 0.
0.646077 0.0450254 0.
0.648081 0.0450259 0.
0.650085 0.0450264 0.
0.652087 0.045027 0.
0.654089 0.0450276 0.
0.656091 0.0450283 0.
0.658092 0.0450296 0.
0.660094 0.0450309 0.
0.662096 0.0450323 0.
0.664097 0.0450338 0.
0.666099 0.0450353 0.
0.668101 0.0450364 0.
0.670103 0.0450373 0.
0.672105 0.0450383 0.
0.674106 0.0450386 0.
0.676107 0.0450388 0.
0.678108 0.0450393 0.
0.680109 0.0450413 0.
0.682111 0.0450432 0.
0.684112 0.0450449 0.
0.686113 0.045046 0.
0.688114 0.0450472 0.
0.690114 0.0450494 0.
0.692115 0.0450522 0.
0.694115 0.045055 0.
0.696115 0.0450581 0.
0.698115 0.0450613 0.
0.49989 0.0470576 0.
0.50189 0.0470552 0.
0.50389 0.0470529 0.
0.50589 0.0470506 0.
0.50789 0.0470481 0.
0.509891 0.0470457 0.
0.511892 0.0470434 0.
0.513892 0.0470414 0.
0.515893 0.0470394 0.
0.517894 0.0470373 0.
0.519895 0.047035 0.
0.521895 0.0470327 0.
0.523896 0.0470322 0.
0.525898 0.047032 0.
0.527899 0.0470317 0.
0.529901 0.0470301 0.
0.531902 0.0470284 0.
0.533904 0.0470271 0.
0.535906 0.0470264 0.
0.537908 0.0470258 0.
0.53991 0.0470248 0.
0.541912 0.0470235 0.
0.543914 0.0470222 0.
0.545916 0.047021 0.
0.547918 0.0470198 0.
0.54992 0.0470186 0.
0.551923 0.0470179 0.
0.553926 0.0470171 0.
0.555928 0.0470161 0.
0.557931 0.0470143 0.
0.559934 0.0470124 0.
0.561936 0.0470106 0.
0.563939 0.047009 0.
0.565942 0.0470074 0.
0.567945 0.0470056 0.
0.569949 0.0470037 0.
0.571952 0.0470018 0.
0.573956 0.0469994 0.
0.57596 0.0469969 0.
0.577965 0.0469944 0.
0.579968 0.046992 0.
0.58197 0.0469895 0.
0.583974 0.0469874 0.
0.585977 0.0469861 0.
0.58798 0.0469847 0.
0.589983 0.0469829 0.
0.591985 0.0469806 0.
0.593988 0.0469782 0.
0.595992 0.0469776 0.
0.597996 0.0469775 0.
0.600001 0.0469774 0.
0.602004 0.046979 0.
0.604008 0.0469806 0.
0.606012 0.0469824 0.
0.608014 0.0469847 0.
0.610017 0.046987 0.
0.61202 0.0469893 0.
0.614023 0.0469917 0.
0.616026 0.0469941 0.
0.61803 0.0469965 0.
0.620033 0.0469989 0.
0.622036 0.0470013 0.
0.62404 0.0470027 0.
0.626044 0.047004 0.
0.628048 0.0470055 0.
0.630052 0.0470078 0.
0.632055 0.0470102 0.
0.634058 0.0470123 0.
0.636061 0.0470141 0.
0.638064 0.0470158 0.
0.640066 0.0470179 0.
0.642069 0.0470203 0.
0.644071 0.0470227 0.
0.646074 0.0470235 0.
0.648078 0.0470239 0.
0.650081 0.0470244 0.
0.652083 0.0470255 0.
0.654085 0.0470267 0.
0.656087 0.0470278 0.
0.658089 0.0470289 0.
0.660091 0.04703 0.
0.662093 0.0470312 0.
0.664095 0.0470326 0.
0.666096 0.0470339 0.
0.668098 0.0470352 0.
0.670099 0.0470366 0.
0.672101 0.0470379 0.
0.674102 0.0470386 0.
0.676103 0.0470392 0.
0.678105 0.04704 0.
0.680106 0.0470419 0.
0.682107 0.0470437 0.
0.684108 0.0470454 0.
0.686109 0.0470469 0.
0.68811 0.0470484 0.
0.69011 0.0470507 0.
0.69211 0.0470536 0.
0.694111 0.0470564 0.
0.696111 0.0470596 0.
0.698111 0.0470629 0.
0.499892 0.0490588 0.
0.501892 0.0490561 0.
0.503893 0.0490534 0.
0.505893 0.0490508 0.
0.507893 0.0490486 0.
0.509893 0.0490463 0.
0.511894 0.049044 0.
0.513895 0.0490415 0.
0.515897 0.0490391 0.
0.517898 0.0490368 0.
0.519898 0.0490346 0.
0.521899 0.0490325 0.
0.5239 0.0490318 0.
0.525901 0.0490314 0.
0.527902 0.0490309 0.
0.529904 0.0490291 0.
0.531906 0.0490272 0.
0.533908 0.0490258 0.
0.535909 0.0490253 0.
0.537911 0.0490248 0.
0.539913 0.0490238 0.
0.541915 0.0490221 0.
0.543918 0.0490205 0.
0.54592 0.0490194 0.
0.547921 0.0490184 0.
0.549923 0.0490174 0.
0.551926 0.0490163 0.
0.553929 0.0490152 0.
0.555932 0.0490139 0.
0.557934 0.0490121 0.
0.559936 0.0490102 0.
0.561939 0.0490085 0.
0.563942 0.0490071 0.
0.565944 0.0490056 0.
0.567948 0.0490038 0.
0.569951 0.0490016 0.
0.571955 0.0489995 0.
0.573959 0.0489971 0.
0.575962 0.0489947 0.
0.577966 0.0489922 0.
0.579969 0.0489901 0.
0.581972 0.0489879 0.
0.583975 0.048986 0.
0.585977 0.0489848 0.
0.58798 0.0489835 0.
0.589982 0.0489819 0.
0.591985 0.0489798 0.
0.593987 0.0489778 0.
0.595991 0.0489771 0.
0.597995 0.0489768 0.
0.599999 0.0489765 0.
0.602003 0.0489785 0.
0.604007 0.0489805 0.
0.60601 0.0489825 0.
0.608013 0.0489842 0.
0.610016 0.0489859 0.
0.612019 0.0489878 0.
0.614022 0.0489899 0.
0.616024 0.048992 0.
0.618027 0.0489944 0.
0.620031 0.0489967 0.
0.622034 0.0489991 0.
0.624038 0.0490007 0.
0.626043 0.0490022 0.
0.628047 0.0490038 0.
0.63005 0.0490059 0.
0.632053 0.0490081 0.
0.634056 0.0490102 0.
0.636059 0.0490124 0.
0.638061 0.0490147 0.
0.640064 0.0490168 0.
0.642066 0.0490188 0.
0.644069 0.0490208 0.
0.646072 0.0490215 0.
0.648075 0.0490219 0.
0.650077 0.0490224 0.
0.652079 0.0490241 0.
0.654081 0.0490258 0.
0.656083 0.0490273 0.
0.658085 0.0490282 0.
0.660088 0.0490291 0.
0.66209 0.0490301 0.
0.664092 0.0490313 0.
0.666094 0.0490325 0.
0.668095 0.0490341 0.
0.670096 0.0490358 0.
0.672097 0.0490375 0.
0.674098 0.0490386 0.
0.6761 0.0490397 0.
0.678101 0.0490408 0.
0.680102 0.0490425 0.
0.682103 0.0490443 0.
0.684104 0.049046 0.
0.686105 0.0490478 0.
0.688105 0.0490496 0.
0.690106 0.049052 0.
0.692106 0.049055 0.
0.694107 0.0490579 0.
0.696106 0.0490612 0.
0.698106 0.0490645 0.
0.499895 0.0510598 0.
0.501895 0.0510569 0.
0.503896 0.0510541 0.
0.505896 0.0510514 0.
0.507896 0.051049 0.
0.509896 0.0510467 0.
0.511897 0.0510442 0.
0.513899 0.0510416 0.
0.5159 0.051039 0.
0.517901 0.0510368 0.
0.519902 0.0510346 0.
0.521903 0.0510325 0.
0.523904 0.0510316 0.
0.525905 0.0510308 0.
0.527906 0.05103 0.
0.529908 0.0510282 0.
0.53191 0.0510263 0.
0.533911 0.0510248 0.
0.535913 0.0510243 0.
0.537915 0.0510238 0.
0.539916 0.0510227 0.
0.541919 0.0510209 0.
0.543921 0.0510191 0.
0.545923 0.051018 0.
0.547924 0.051017 0.
0.549925 0.0510161 0.
0.551929 0.0510147 0.
0.553932 0.0510133 0.
0.555935 0.0510119 0.
0.557937 0.0510101 0.
0.559939 0.0510084 0.
0.561942 0.0510068 0.
0.563945 0.0510054 0.
0.565947 0.0510039 0.
0.56795 0.051002 0.
0.569954 0.0509999 0.
0.571957 0.0509977 0.
0.573961 0.0509953 0.
0.575964 0.0509929 0.
0.577967 0.0509905 0.
0.57997 0.0509883 0.
0.581973 0.0509861 0.
0.583976 0.0509843 0.
0.585978 0.0509833 0.
0.58798 0.0509824 0.
0.589982 0.0509809 0.
0.591985 0.0509791 0.
0.593988 0.0509772 0.
0.595991 0.0509765 0.
0.597995 0.0509761 0.
0.599999 0.0509756 0.
0.602003 0.0509778 0.
0.604006 0.0509799 0.
0.60601 0.0509819 0.
0.608013 0.0509833 0.
0.610016 0.0509847 0.
0.612019 0.0509863 0.
0.614021 0.0509883 0.
0.616024 0.0509903 0.
0.618026 0.0509925 0.
0.62003 0.0509946 0.
0.622033 0.0509967 0.
0.624037 0.0509986 0.
0.626041 0.0510003 0.
0.628044 0.0510022 0.
0.630047 0.0510042 0.
0.63205 0.0510062 0.
0.634053 0.0510083 0.
0.636056 0.0510108 0.
0.638058 0.0510133 0.
0.640061 0.0510153 0.
0.642064 0.0510171 0.
0.644066 0.0510189 0.
0.646069 0.0510197 0.
0.648072 0.0510203 0.
0.650074 0.0510209 0.
0.652076 0.0510227 0.
0.654078 0.0510244 0.
0.65608 0.0510259 0.
0.658082 0.051027 0.
0.660085 0.051028 0.
0.662087 0.0510292 0.
0.664089 0.0510305 0.
0.666091 0.0510319 0.
0.668092 0.0510335 0.
0.670093 0.0510354 0.
0.672093 0.0510373 0.
0.674095 0.0510386 0.
0.676097 0.0510398 0.
0.678098 0.051041 0.
0.680099 0.0510428 0.
0.682099 0.0510445 0.
0.6841 0.0510463 0.
0.686101 0.0510483 0.
0.688101 0.0510502 0.
0.690102 0.0510528 0.
0.692102 0.0510559 0.
0.694103 0.0510589 0.
0.696102 0.0510624 0.
0.698102 0.051066 0.
0.499899 0.0530608 0.
0.501899 0.0530578 0.
0.5039 0.053055 0.
0.5059 0.0530522 0.
0.507901 0.0530495 0.
0.509901 0.0530468 0.
0.511901 0.0530441 0.
0.513902 0.0530417 0.
0.515903 0.0530393 0.
0.517904 0.0530371 0.
0.519905 0.0530349 0.
0.521906 0.0530328 0.
0.523907 0.0530315 0.
0.525909 0.0530303 0.
0.52791 0.053029 0.
0.529912 0.0530274 0.
0.531913 0.0530257 0.
0.533915 0.0530243 0.
0.535917 0.0530235 0.
0.537918 0.0530227 0.
0.53992 0.0530215 0.
0.541922 0.0530198 0.
0.543924 0.0530181 0.
0.545925 0.0530169 0.
0.547927 0.0530157 0.
0.549928 0.0530145 0.
0.551931 0.053013 0.
0.553935 0.0530115 0.
0.555938 0.05301 0.
0.55794 0.0530085 0.
0.559942 0.053007 0.
0.561945 0.0530054 0.
0.563948 0.0530038 0.
0.56595 0.0530022 0.
0.567953 0.0530004 0.
0.569956 0.0529983 0.
0.571958 0.0529963 0.
0.573962 0.052994 0.
0.575965 0.0529917 0.
0.577968 0.0529893 0.
0.579971 0.0529866 0.
0.581974 0.052984 0.
0.583976 0.0529821 0.
0.585978 0.0529817 0.
0.587981 0.0529813 0.
0.589983 0.0529801 0.
0.591986 0.0529782 0.
0.593989 0.0529763 0.
0.595992 0.0529756 0.
0.597996 0.0529753 0.
0.6 0.0529749 0.
0.602003 0.0529769 0.
0.604006 0.0529788 0.
0.60601 0.0529807 0.
0.608013 0.0529819 0.
0.610016 0.0529833 0.
0.612019 0.0529849 0.
0.614021 0.052987 0.
0.616024 0.052989 0.
0.618026 0.0529908 0.
0.620029 0.0529925 0.
0.622032 0.0529941 0.
0.624035 0.0529963 0.
0.626038 0.0529985 0.
0.628042 0.0530007 0.
0.630045 0.0530026 0.
0.632047 0.0530046 0.
0.63405 0.0530067 0.
0.636053 0.0530091 0.
0.638055 0.0530115 0.
0.640058 0.0530135 0.
0.642061 0.0530152 0.
0.644063 0.0530169 0.
0.646066 0.053018 0.
0.648069 0.0530189 0.
0.650072 0.0530199 0.
0.652073 0.0530212 0.
0.654075 0.0530225 0.
0.656077 0.0530239 0.
0.65808 0.0530253 0.
0.660082 0.0530267 0.
0.662084 0.0530283 0.
0.664086 0.0530301 0.
0.666087 0.0530318 0.
0.668088 0.0530336 0.
0.670089 0.0530354 0.
0.67209 0.0530372 0.
0.674092 0.0530384 0.
0.676094 0.0530397 0.
0.678096 0.0530409 0.
0.680096 0.0530427 0.
0.682097 0.0530445 0.
0.684097 0.0530464 0.
0.686097 0.0530484 0.
0.688098 0.0530503 0.
0.690098 0.0530531 0.
0.692098 0.0530564 0.
0.694099 0.0530596 0.
0.696099 0.0530633 0.
0.698098 0.0530671 0.
0.499903 0.0550617 0.
0.501903 0.0550586 0.
0.503904 0.0550559 0.
0.505905 0.0550531 0.
0.507905 0.05505 0.
0.509905 0.0550469 0.
0.511905 0.0550441 0.
0.513906 0.0550418 0.
0.515906 0.0550395 0.
0.517907 0.0550374 0.
0.519908 0.0550352 0.
0.521909 0.0550331 0.
0.523911 0.0550314 0.
0.525913 0.0550298 0.
0.527914 0.0550281 0.
0.529916 0.0550266 0.
0.531917 0.0550251 0.
0.533919 0.0550237 0.
0.53592 0.0550227 0.
0.537922 0.0550217 0.
0.539924 0.0550204 0.
0.541925 0.0550187 0.
0.543927 0.0550171 0.
0.545928 0.0550157 0.
0.547929 0.0550144 0.
0.549931 0.055013 0.
0.551934 0.0550114 0.
0.553937 0.0550097 0.
0.555941 0.0550082 0.
0.557943 0.0550068 0.
0.559945 0.0550055 0.
0.561948 0.055004 0.
0.563951 0.0550023 0.
0.565954 0.0550005 0.
0.567956 0.0549987 0.
0.569958 0.0549968 0.
0.571959 0.054995 0.
0.573963 0.0549927 0.
0.575966 0.0549904 0.
0.57797 0.0549881 0.
0.579972 0.054985 0.
0.581974 0.0549819 0.
0.583976 0.0549798 0.
0.585979 0.05498 0.
0.587981 0.0549801 0.
0.589984 0.0549792 0.
0.591987 0.0549774 0.
0.59399 0.0549755 0.
0.595993 0.0549749 0.
0.597997 0.0549745 0.
0.6 0.0549741 0.
0.602003 0.0549759 0.
0.604006 0.0549777 0.
0.606009 0.0549794 0.
0.608012 0.0549806 0.
0.610015 0.0549818 0.
0.612018 0.0549835 0.
0.614021 0.0549856 0.
0.616024 0.0549877 0.
0.618026 0.0549892 0.
0.620028 0.0549903 0.
0.62203 0.0549915 0.
0.624033 0.054994 0.
0.626036 0.0549967 0.
0.628039 0.0549992 0.
0.630042 0.0550011 0.
0.632045 0.0550029 0.
0.634047 0.055005 0.
0.63605 0.0550074 0.
0.638052 0.0550098 0.
0.640055 0.0550118 0.
0.642058 0.0550133 0.
0.64406 0.0550149 0.
0.646063 0.0550163 0.
0.648066 0.0550176 0.
0.650069 0.0550189 0.
0.652071 0.0550198 0.
0.654072 0.0550207 0.
0.656074 0.0550218 0.
0.658077 0.0550236 0.
0.660079 0.0550255 0.
0.662081 0.0550274 0.
0.664082 0.0550296 0.
0.666084 0.0550318 0.
0.668085 0.0550337 0.
0.670086 0.0550354 0.
0.672087 0.0550371 0.
0.674089 0.0550383 0.
0.676091 0.0550395 0.
0.678093 0.0550408 0.
0.680093 0.0550427 0.
0.682094 0.0550446 0.
0.684094 0.0550466 0.
0.686094 0.0550485 0.
0.688094 0.0550505 0.
0.690094 0.0550533 0.
0.692095 0.0550569 0.
0.694095 0.0550604 0.
0.696095 0.0550643 0.
0.698095 0.0550683 0.
0.499906 0.0570624 0.
0.501907 0.0570593 0.
0.503907 0.0570564 0.
0.505908 0.0570535 0.
0.507908 0.0570502 0.
0.509908 0.0570469 0.
0.511909 0.057044 0.
0.513909 0.0570419 0.
0.515909 0.0570398 0.
0.51791 0.0570376 0.
0.519912 0.0570354 0.
0.521913 0.0570331 0.
0.523914 0.0570313 0.
0.525916 0.0570295 0.
0.527917 0.0570278 0.
0.529919 0.0570262 0.
0.53192 0.0570247 0.
0.533922 0.0570232 0.
0.535924 0.057022 0.
0.537925 0.0570208 0.
0.539927 0.0570194 0.
0.541928 0.0570177 0.
0.543929 0.0570161 0.
0.545931 0.0570144 0.
0.547932 0.0570128 0.
0.549934 0.0570111 0.
0.551937 0.0570094 0.
0.55394 0.0570078 0.
0.555943 0.0570062 0.
0.557945 0.0570053 0.
0.559948 0.0570044 0.
0.561951 0.057003 0.
0.563953 0.0570009 0.
0.565956 0.0569989 0.
0.567958 0.056997 0.
0.56996 0.0569953 0.
0.571962 0.0569935 0.
0.573965 0.0569911 0.
0.575969 0.0569887 0.
0.577972 0.0569863 0.
0.579974 0.0569838 0.
0.581976 0.0569812 0.
0.583978 0.0569794 0.
0.58598 0.0569791 0.
0.587982 0.0569789 0.
0.589985 0.0569779 0.
0.591988 0.0569762 0.
0.593991 0.0569745 0.
0.595994 0.0569741 0.
0.597997 0.0569741 0.
0.6 0.056974 0.
0.602003 0.0569757 0.
0.604006 0.0569775 0.
0.606009 0.056979 0.
0.608012 0.05698 0.
0.610015 0.056981 0.
0.612018 0.0569825 0.
0.61402 0.0569845 0.
0.616023 0.0569866 0.
0.618025 0.0569883 0.
0.620027 0.0569898 0.
0.622029 0.0569913 0.
0.624032 0.0569934 0.
0.626034 0.0569955 0.
0.628037 0.0569977 0.
0.63004 0.0569998 0.
0.632042 0.057002 0.
0.634045 0.0570041 0.
0.636047 0.0570063 0.
0.63805 0.0570085 0.
0.640052 0.0570103 0.
0.642055 0.057012 0.
0.644057 0.0570136 0.
0.64606 0.0570148 0.
0.648063 0.0570158 0.
0.650065 0.0570169 0.
0.652067 0.0570181 0.
0.654069 0.0570194 0.
0.656071 0.0570208 0.
0.658073 0.0570228 0.
0.660075 0.0570247 0.
0.662077 0.0570268 0.
0.664078 0.0570291 0.
0.66608 0.0570313 0.
0.668081 0.0570333 0.
0.670083 0.0570352 0.
0.672084 0.057037 0.
0.674086 0.0570381 0.
0.676087 0.0570392 0.
0.678089 0.0570404 0.
0.68009 0.0570428 0.
0.68209 0.0570453 0.
0.68409 0.0570475 0.
0.68609 0.0570494 0.
0.68809 0.0570512 0.
0.690091 0.0570541 0.
0.692091 0.0570575 0.
0.694091 0.057061 0.
0.696092 0.0570645 0.
0.698092 0.0570681 0.
0.499909 0.059063 0.
0.50191 0.0590599 0.
0.50391 0.059057 0.
0.505911 0.0590539 0.
0.507911 0.0590504 0.
0.509912 0.0590469 0.
0.511912 0.059044 0.
0.513912 0.059042 0.
0.515913 0.0590401 0.
0.517914 0.0590379 0.
0.519915 0.0590354 0.
0.521916 0.059033 0.
0.523917 0.0590312 0.
0.525919 0.0590293 0.
0.52792 0.0590275 0.
0.529922 0.0590259 0.
0.531924 0.0590243 0.
0.533926 0.0590227 0.
0.535927 0.0590213 0.
0.537929 0.0590199 0.
0.53993 0.0590184 0.
0.541931 0.0590167 0.
0.543932 0.059015 0.
0.545933 0.0590131 0.
0.547935 0.0590111 0.
0.549937 0.0590092 0.
0.55194 0.0590075 0.
0.553942 0.0590058 0.
0.555945 0.0590043 0.
0.557948 0.0590038 0.
0.55995 0.0590033 0.
0.561953 0.059002 0.
0.563956 0.0589996 0.
0.565958 0.0589973 0.
0.567961 0.0589954 0.
0.569963 0.0589937 0.
0.571965 0.058992 0.
0.573968 0.0589896 0.
0.575971 0.0589871 0.
0.577974 0.0589846 0.
0.579975 0.0589825 0.
0.581977 0.0589805 0.
0.583979 0.0589789 0.
0.585981 0.0589783 0.
0.587983 0.0589776 0.
0.589986 0.0589765 0.
0.591989 0.058975 0.
0.593991 0.0589734 0.
0.595994 0.0589733 0.
0.597997 0.0589736 0.
0.6 0.0589739 0.
0.602003 0.0589756 0.
0.604006 0.0589772 0.
0.606009 0.0589786 0.
0.608011 0.0589794 0.
0.610014 0.0589802 0.
0.612017 0.0589815 0.
0.614019 0.0589835 0.
0.616021 0.0589855 0.
0.618024 0.0589874 0.
0.620026 0.0589893 0.
0.622028 0.0589912 0.
0.62403 0.0589928 0.
0.626033 0.0589944 0.
0.628035 0.0589961 0.
0.630038 0.0589985 0.
0.63204 0.059001 0.
0.634042 0.0590032 0.
0.636045 0.0590051 0.
0.638048 0.059007 0.
0.64005 0.0590088 0.
0.642052 0.0590106 0.
0.644054 0.0590123 0.
0.646056 0.0590133 0.
0.648059 0.059014 0.
0.650062 0.0590148 0.
0.652064 0.0590165 0.
0.654066 0.0590181 0.
0.656067 0.0590198 0.
0.658069 0.0590219 0.
0.660071 0.059024 0.
0.662073 0.0590262 0.
0.664074 0.0590285 0.
0.666076 0.0590307 0.
0.668078 0.0590329 0.
0.67008 0.0590349 0.
0.672081 0.059037 0.
0.674082 0.059038 0.
0.676084 0.0590389 0.
0.678085 0.0590401 0.
0.680086 0.059043 0.
0.682087 0.0590459 0.
0.684087 0.0590484 0.
0.686087 0.0590502 0.
0.688087 0.059052 0.
0.690087 0.0590548 0.
0.692088 0.0590582 0.
0.694088 0.0590617 0.
0.696088 0.0590648 0.
0.698089 0.0590679 0.
0.499913 0.0610636 0.
0.501913 0.0610605 0.
0.503914 0.0610574 0.
0.505914 0.0610543 0.
0.507915 0.0610507 0.
0.509915 0.0610472 0.
0.511916 0.0610442 0.
0.513916 0.0610421 0.
0.515916 0.0610399 0.
0.517917 0.0610376 0.
0.519918 0.0610353 0.
0.521919 0.0610329 0.
0.523921 0.0610309 0.
0.525922 0.061029 0.
0.527924 0.0610271 0.
0.529925 0.0610256 0.
0.531927 0.0610241 0.
0.533929 0.0610225 0.
0.53593 0.0610207 0.
0.537931 0.061019 0.
0.539932 0.0610174 0.
0.541933 0.0610158 0.
0.543935 0.0610142 0.
0.545936 0.0610121 0.
0.547938 0.0610099 0.
0.54994 0.0610077 0.
0.551942 0.0610061 0.
0.553944 0.0610044 0.
0.555947 0.0610029 0.
0.55795 0.0610023 0.
0.559953 0.0610018 0.
0.561955 0.0610005 0.
0.563958 0.0609983 0.
0.56596 0.0609961 0.
0.567962 0.0609942 0.
0.569964 0.0609925 0.
0.571966 0.0609908 0.
0.573969 0.0609884 0.
0.575972 0.0609859 0.
0.577975 0.0609834 0.
0.579977 0.0609817 0.
0.581978 0.06098 0.
0.58398 0.0609786 0.
0.585982 0.0609775 0.
0.587984 0.0609765 0.
0.589986 0.0609754 0.
0.591989 0.0609741 0.
0.593991 0.0609727 0.
0.595994 0.0609726 0.
0.597997 0.0609728 0.
0.600001 0.060973 0.
0.602003 0.0609749 0.
0.604006 0.0609767 0.
0.606009 0.0609782 0.
0.608012 0.060979 0.
0.610014 0.0609798 0.
0.612016 0.060981 0.
0.614018 0.0609828 0.
0.61602 0.0609845 0.
0.618022 0.0609866 0.
0.620024 0.0609888 0.
0.622026 0.060991 0.
0.624029 0.0609923 0.
0.626031 0.0609935 0.
0.628034 0.0609949 0.
0.630036 0.0609973 0.
0.632038 0.0609997 0.
0.63404 0.0610019 0.
0.636043 0.0610038 0.
0.638045 0.0610058 0.
0.640047 0.0610076 0.
0.642049 0.0610092 0.
0.644051 0.0610108 0.
0.646053 0.0610118 0.
0.648056 0.0610125 0.
0.650059 0.0610133 0.
0.652061 0.0610151 0.
0.654062 0.0610169 0.
0.656064 0.0610188 0.
0.658066 0.0610211 0.
0.660068 0.0610234 0.
0.662069 0.0610256 0.
0.664071 0.0610279 0.
0.666073 0.0610301 0.
0.668075 0.0610323 0.
0.670076 0.0610345 0.
0.672078 0.0610367 0.
0.674079 0.0610377 0.
0.67608 0.0610387 0.
0.678081 0.0610399 0.
0.680082 0.0610432 0.
0.682083 0.0610465 0.
0.684083 0.0610493 0.
0.686083 0.061051 0.
0.688083 0.0610528 0.
0.690084 0.0610555 0.
0.692084 0.0610588 0.
0.694084 0.0610621 0.
0.696085 0.0610651 0.
0.698085 0.0610681 0.
0.499917 0.0630644 0.
0.501917 0.0630609 0.
0.503918 0.0630577 0.
0.505918 0.0630546 0.
0.507918 0.0630512 0.
0.509919 0.0630477 0.
0.511919 0.0630446 0.
0.51392 0.0630419 0.
0.515921 0.0630393 0.
0.517921 0.063037 0.
0.519922 0.0630348 0.
0.521923 0.0630327 0.
0.523925 0.0630306 0.
0.525926 0.0630285 0.
0.527928 0.0630265 0.
0.529929 0.0630253 0.
0.53193 0.063024 0.
0.533931 0.0630225 0.
0.535932 0.0630202 0.
0.537933 0.063018 0.
0.539934 0.0630163 0.
0.541936 0.063015 0.
0.543938 0.0630136 0.
0.545939 0.0630115 0.
0.54794 0.0630091 0.
0.549941 0.0630067 0.
0.551944 0.0630051 0.
0.553947 0.0630036 0.
0.55595 0.0630021 0.
0.557952 0.063001 0.
0.559955 0.0629999 0.
0.561957 0.0629985 0.
0.563959 0.0629969 0.
0.565962 0.0629953 0.
0.567964 0.0629935 0.
0.569965 0.0629918 0.
0.571967 0.06299 0.
0.57397 0.0629876 0.
0.575972 0.0629852 0.
0.577975 0.0629829 0.
0.579977 0.0629814 0.
0.581979 0.0629798 0.
0.583981 0.0629783 0.
0.585983 0.062977 0.
0.587985 0.0629756 0.
0.589986 0.0629744 0.
0.591988 0.0629734 0.
0.59399 0.0629724 0.
0.595993 0.0629719 0.
0.597997 0.0629716 0.
0.6 0.0629713 0.
0.602004 0.0629736 0.
0.604007 0.0629758 0.
0.60601 0.0629778 0.
0.608012 0.0629788 0.
0.610015 0.0629799 0.
0.612016 0.062981 0.
0.614018 0.0629823 0.
0.616019 0.0629835 0.
0.618021 0.0629857 0.
0.620023 0.0629882 0.
0.622024 0.0629908 0.
0.624027 0.062992 0.
0.62603 0.0629931 0.
0.628032 0.0629942 0.
0.630034 0.0629961 0.
0.632036 0.062998 0.
0.634039 0.063 0.
0.636041 0.0630024 0.
0.638043 0.0630047 0.
0.640045 0.0630065 0.
0.642047 0.0630078 0.
0.644049 0.0630092 0.
0.646051 0.0630103 0.
0.648054 0.0630113 0.
0.650056 0.0630124 0.
0.652058 0.0630141 0.
0.654059 0.0630159 0.
0.656061 0.0630178 0.
0.658063 0.0630203 0.
0.660065 0.0630227 0.
0.662067 0.063025 0.
0.664068 0.0630272 0.
0.66607 0.0630293 0.
0.668071 0.0630315 0.
0.670073 0.0630338 0.
0.672075 0.0630361 0.
0.674076 0.0630374 0.
0.676077 0.0630385 0.
0.678078 0.06304 0.
0.680079 0.0630436 0.
0.682079 0.0630472 0.
0.684079 0.06305 0.
0.68608 0.0630518 0.
0.68808 0.0630535 0.
0.690081 0.0630561 0.
0.692081 0.0630592 0.
0.69408 0.0630624 0.
0.69608 0.0630655 0.
0.69808 0.0630685 0.
0.499921 0.0650648 0.
0.501921 0.0650613 0.
0.503921 0.0650581 0.
0.505922 0.0650549 0.
0.507922 0.0650516 0.
0.509922 0.0650483 0.
0.511922 0.065045 0.
0.513924 0.0650418 0.
0.515925 0.0650386 0.
0.517926 0.0650363 0.
0.519926 0.0650344 0.
0.521927 0.0650325 0.
0.523928 0.0650303 0.
0.52593 0.0650281 0.
0.527932 0.0650259 0.
0.529932 0.065025 0.
0.531932 0.065024 0.
0.533933 0.0650224 0.
0.535934 0.0650197 0.
0.537935 0.065017 0.
0.539937 0.0650152 0.
0.541939 0.0650142 0.
0.543942 0.0650131 0.
0.545943 0.0650109 0.
0.547943 0.0650083 0.
0.549943 0.0650057 0.
0.551946 0.0650042 0.
0.553949 0.0650027 0.
0.555952 0.0650012 0.
0.557955 0.0649996 0.
0.559957 0.0649979 0.
0.561959 0.0649966 0.
0.563961 0.0649955 0.
0.565963 0.0649945 0.
0.567965 0.0649929 0.
0.569966 0.064991 0.
0.571968 0.0649892 0.
0.573971 0.0649869 0.
0.575973 0.0649845 0.
0.577975 0.0649823 0.
0.579978 0.064981 0.
0.58198 0.0649796 0.
0.583983 0.0649781 0.
0.585984 0.0649764 0.
0.587985 0.0649746 0.
0.589986 0.0649734 0.
0.591987 0.0649727 0.
0.593988 0.064972 0.
0.595992 0.0649712 0.
0.597996 0.0649704 0.
0.6 0.0649696 0.
0.602004 0.0649723 0.
0.604008 0.064975 0.
0.606011 0.0649774 0.
0.608013 0.0649786 0.
0.610015 0.0649799 0.
0.612016 0.0649809 0.
0.614017 0.0649818 0.
0.616018 0.0649826 0.
0.618019 0.0649848 0.
0.620021 0.0649877 0.
0.622023 0.0649906 0.
0.624025 0.0649917 0.
0.626028 0.0649926 0.
0.628031 0.0649936 0.
0.630033 0.0649949 0.
0.632035 0.0649963 0.
0.634037 0.0649981 0.
0.636039 0.0650009 0.
0.638041 0.0650037 0.
0.640043 0.0650054 0.
0.642045 0.0650065 0.
0.644047 0.0650075 0.
0.646049 0.0650088 0.
0.648051 0.0650101 0.
0.650053 0.0650115 0.
0.652055 0.0650132 0.
0.654056 0.0650149 0.
0.656058 0.0650168 0.
0.65806 0.0650194 0.
0.660063 0.065022 0.
0.662064 0.0650244 0.
0.664066 0.0650265 0.
0.666067 0.0650285 0.
0.668068 0.0650308 0.
0.67007 0.0650332 0.
0.672071 0.0650356 0.
0.674073 0.065037 0.
0.676074 0.0650384 0.
0.678075 0.0650401 0.
0.680075 0.0650439 0.
0.682075 0.0650478 0.
0.684076 0.0650508 0.
0.686077 0.0650525 0.
0.688077 0.0650542 0.
0.690077 0.0650567 0.
0.692077 0.0650597 0.
0.694076 0.0650627 0.
0.696076 0.0650658 0.
0.698076 0.065069 0.
0.499924 0.0670655 0.
0.501924 0.0670619 0.
0.503924 0.0670585 0.
0.505924 0.0670551 0.
0.507925 0.0670515 0.
0.509925 0.0670479 0.
0.511926 0.0670446 0.
0.513927 0.0670416 0.
0.515928 0.0670386 0.
0.517928 0.0670363 0.
0.519929 0.0670343 0.
0.52193 0.0670323 0.
0.523931 0.0670304 0.
0.525933 0.0670284 0.
0.527934 0.0670265 0.
0.529934 0.067025 0.
0.531935 0.0670235 0.
0.533935 0.0670216 0.
0.535936 0.0670191 0.
0.537938 0.0670165 0.
0.539939 0.0670148 0.
0.541941 0.0670137 0.
0.543943 0.0670126 0.
0.545944 0.0670103 0.
0.547945 0.0670076 0.
0.549947 0.0670049 0.
0.551949 0.0670032 0.
0.553952 0.0670015 0.
0.555954 0.0669999 0.
0.557956 0.0669983 0.
0.559958 0.0669967 0.
0.56196 0.0669954 0.
0.563962 0.0669943 0.
0.565964 0.0669931 0.
0.567966 0.0669917 0.
0.569967 0.06699 0.
0.571969 0.0669883 0.
0.573972 0.0669861 0.
0.575974 0.0669837 0.
0.577976 0.0669815 0.
0.579979 0.0669803 0.
0.581981 0.066979 0.
0.583983 0.0669776 0.
0.585984 0.0669758 0.
0.587986 0.066974 0.
0.589987 0.0669727 0.
0.591989 0.0669718 0.
0.59399 0.0669709 0.
0.595993 0.0669705 0.
0.597997 0.0669701 0.
0.6 0.0669698 0.
0.602004 0.066972 0.
0.604008 0.0669741 0.
0.606011 0.0669761 0.
0.608013 0.0669776 0.
0.610014 0.066979 0.
0.612016 0.0669803 0.
0.614017 0.0669813 0.
0.616018 0.0669824 0.
0.618019 0.0669843 0.
0.620021 0.0669867 0.
0.622022 0.0669891 0.
0.624025 0.0669902 0.
0.626027 0.0669911 0.
0.628029 0.0669922 0.
0.630031 0.0669939 0.
0.632033 0.0669955 0.
0.634036 0.0669975 0.
0.636038 0.0669998 0.
0.63804 0.0670022 0.
0.640042 0.0670038 0.
0.642044 0.0670049 0.
0.644045 0.0670059 0.
0.646047 0.0670074 0.
0.648049 0.0670089 0.
0.650051 0.0670104 0.
0.652053 0.0670125 0.
0.654054 0.0670145 0.
0.656055 0.0670166 0.
0.658057 0.067019 0.
0.660059 0.0670213 0.
0.662061 0.0670236 0.
0.664062 0.0670259 0.
0.666063 0.0670282 0.
0.668064 0.0670306 0.
0.670066 0.067033 0.
0.672067 0.0670354 0.
0.674068 0.0670369 0.
0.676069 0.0670384 0.
0.678071 0.0670402 0.
0.680071 0.0670436 0.
0.682071 0.067047 0.
0.684072 0.0670499 0.
0.686073 0.0670521 0.
0.688074 0.0670543 0.
0.690074 0.0670569 0.
0.692074 0.0670598 0.
0.694073 0.0670628 0.
0.696073 0.0670659 0.
0.698073 0.0670691 0.
0.499925 0.0690658 0.
0.501926 0.0690624 0.
0.503927 0.0690589 0.
0.505927 0.0690553 0.
0.507928 0.0690514 0.
0.509929 0.0690475 0.
0.51193 0.0690441 0.
0.51393 0.0690413 0.
0.515931 0.0690386 0.
0.517931 0.0690363 0.
0.519932 0.0690342 0.
0.521933 0.0690321 0.
0.523934 0.0690304 0.
0.525935 0.0690288 0.
0.527936 0.0690271 0.
0.529936 0.069025 0.
0.531937 0.069023 0.
0.533937 0.0690208 0.
0.535939 0.0690184 0.
0.537941 0.069016 0.
0.539942 0.0690143 0.
0.541943 0.0690132 0.
0.543944 0.0690121 0.
0.545946 0.0690096 0.
0.547948 0.0690068 0.
0.54995 0.0690041 0.
0.551952 0.0690022 0.
0.553954 0.0690003 0.
0.555956 0.0689986 0.
0.557958 0.068997 0.
0.559959 0.0689955 0.
0.561961 0.0689942 0.
0.563963 0.068993 0.
0.565965 0.0689918 0.
0.567967 0.0689905 0.
0.569968 0.0689889 0.
0.57197 0.0689874 0.
0.573972 0.0689852 0.
0.575975 0.0689829 0.
0.577977 0.0689807 0.
0.579979 0.0689796 0.
0.581981 0.0689785 0.
0.583983 0.0689771 0.
0.585985 0.0689752 0.
0.587987 0.0689733 0.
0.589988 0.0689719 0.
0.59199 0.0689708 0.
0.593992 0.0689697 0.
0.595995 0.0689697 0.
0.597998 0.0689699 0.
0.6 0.06897 0.
0.602004 0.0689716 0.
0.604007 0.0689733 0.
0.60601 0.0689749 0.
0.608012 0.0689765 0.
0.610014 0.0689781 0.
0.612015 0.0689796 0.
0.614017 0.0689809 0.
0.616018 0.0689822 0.
0.618019 0.0689838 0.
0.620021 0.0689857 0.
0.622022 0.0689875 0.
0.624024 0.0689886 0.
0.626026 0.0689897 0.
0.628028 0.0689908 0.
0.63003 0.0689928 0.
0.632032 0.0689948 0.
0.634034 0.0689968 0.
0.636037 0.0689988 0.
0.638039 0.0690008 0.
0.640041 0.0690022 0.
0.642042 0.0690033 0.
0.644044 0.0690044 0.
0.646046 0.069006 0.
0.648047 0.0690077 0.
0.650049 0.0690094 0.
0.652051 0.0690118 0.
0.654052 0.0690142 0.
0.656053 0.0690164 0.
0.658054 0.0690185 0.
0.660056 0.0690206 0.
0.662057 0.0690229 0.
0.664058 0.0690254 0.
0.66606 0.0690279 0.
0.668061 0.0690303 0.
0.670062 0.0690328 0.
0.672062 0.0690352 0.
0.674064 0.0690369 0.
0.676065 0.0690384 0.
0.678066 0.0690402 0.
0.680067 0.0690432 0.
0.682068 0.0690462 0.
0.684068 0.069049 0.
0.686069 0.0690517 0.
0.68807 0.0690544 0.
0.69007 0.0690571 0.
0.69207 0.06906 0.
0.694071 0.0690629 0.
0.696071 0.069066 0.
0.698071 0.0690691 0.
0.499929 0.0710655 0.
0.501929 0.0710625 0.
0.50393 0.0710592 0.
0.505931 0.0710558 0.
0.507931 0.0710517 0.
0.509932 0.0710476 0.
0.511933 0.0710441 0.
0.513933 0.0710412 0.
0.515934 0.0710384 0.
0.517934 0.071036 0.
0.519935 0.0710339 0.
0.521936 0.0710318 0.
0.523937 0.0710303 0.
0.525938 0.0710289 0.
0.527938 0.0710274 0.
0.529939 0.071025 0.
0.531939 0.0710226 0.
0.53394 0.0710202 0.
0.535942 0.0710178 0.
0.537944 0.0710155 0.
0.539945 0.0710138 0.
0.541946 0.0710125 0.
0.543946 0.0710112 0.
0.545948 0.0710088 0.
0.547951 0.0710061 0.
0.549953 0.0710033 0.
0.551955 0.0710014 0.
0.553956 0.0709994 0.
0.555958 0.0709976 0.
0.557959 0.0709961 0.
0.559961 0.0709946 0.
0.561963 0.0709932 0.
0.563964 0.0709918 0.
0.565966 0.0709904 0.
0.567968 0.0709891 0.
0.56997 0.0709877 0.
0.571971 0.0709864 0.
0.573974 0.0709844 0.
0.575976 0.0709822 0.
0.577979 0.0709802 0.
0.57998 0.0709789 0.
0.581982 0.0709777 0.
0.583984 0.0709762 0.
0.585986 0.0709744 0.
0.587987 0.0709726 0.
0.589989 0.0709712 0.
0.591991 0.0709703 0.
0.593993 0.0709693 0.
0.595996 0.0709693 0.
0.597998 0.0709695 0.
0.6 0.0709698 0.
0.602003 0.0709712 0.
0.604006 0.0709727 0.
0.606009 0.0709741 0.
0.608011 0.0709756 0.
0.610013 0.0709771 0.
0.612014 0.0709786 0.
0.614016 0.0709801 0.
0.616017 0.0709815 0.
0.618018 0.070983 0.
0.62002 0.0709845 0.
0.622021 0.0709861 0.
0.624023 0.0709873 0.
0.626025 0.0709884 0.
0.628026 0.0709897 0.
0.630028 0.0709917 0.
0.63203 0.0709938 0.
0.634033 0.0709958 0.
0.636035 0.0709977 0.
0.638037 0.0709996 0.
0.640039 0.0710011 0.
0.64204 0.0710022 0.
0.644041 0.0710034 0.
0.646043 0.0710051 0.
0.648045 0.071007 0.
0.650047 0.0710088 0.
0.652048 0.0710112 0.
0.654049 0.0710136 0.
0.65605 0.0710159 0.
0.658051 0.0710179 0.
0.660053 0.0710199 0.
0.662054 0.0710222 0.
0.664055 0.0710246 0.
0.666056 0.0710271 0.
0.668057 0.0710296 0.
0.670058 0.0710323 0.
0.672059 0.071035 0.
0.67406 0.0710367 0.
0.676061 0.0710384 0.
0.678062 0.0710402 0.
0.680063 0.071043 0.
0.682064 0.0710458 0.
0.684065 0.0710486 0.
0.686065 0.0710514 0.
0.688066 0.0710543 0.
0.690066 0.0710572 0.
0.692067 0.0710601 0.
0.694067 0.071063 0.
0.696067 0.0710662 0.
0.698067 0.0710695 0.
0.499933 0.0730648 0.
0.501934 0.0730622 0.
0.503934 0.0730594 0.
0.505934 0.0730564 0.
0.507935 0.0730523 0.
0.509935 0.0730482 0.
0.511935 0.0730445 0.
0.513936 0.0730412 0.
0.515937 0.073038 0.
0.517937 0.0730354 0.
0.519938 0.0730334 0.
0.521938 0.0730313 0.
0.523939 0.07303 0.
0.52594 0.0730288 0.
0.527941 0.0730275 0.
0.529942 0.0730249 0.
0.531943 0.0730222 0.
0.533944 0.0730197 0.
0.535945 0.0730174 0.
0.537946 0.0730151 0.
0.539947 0.0730132 0.
0.541948 0.0730116 0.
0.543949 0.07301 0.
0.545951 0.0730077 0.
0.547953 0.0730052 0.
0.549955 0.0730027 0.
0.551957 0.0730007 0.
0.553958 0.0729988 0.
0.55596 0.072997 0.
0.557961 0.0729955 0.
0.559963 0.0729941 0.
0.561964 0.0729925 0.
0.563966 0.0729906 0.
0.565968 0.0729888 0.
0.56797 0.0729874 0.
0.569971 0.0729863 0.
0.571973 0.0729852 0.
0.573975 0.0729834 0.
0.575978 0.0729816 0.
0.57798 0.0729798 0.
0.579982 0.0729782 0.
0.581984 0.0729767 0.
0.583985 0.0729751 0.
0.585987 0.0729734 0.
0.587988 0.0729718 0.
0.58999 0.0729707 0.
0.591992 0.0729701 0.
0.593994 0.0729696 0.
0.595996 0.0729693 0.
0.597998 0.0729692 0.
0.6 0.072969 0.
0.602003 0.0729707 0.
0.604005 0.0729724 0.
0.606007 0.0729739 0.
0.608009 0.072975 0.
0.610011 0.0729761 0.
0.612013 0.0729774 0.
0.614014 0.0729789 0.
0.616015 0.0729803 0.
0.618017 0.0729818 0.
0.620018 0.0729833 0.
0.622019 0.0729847 0.
0.624021 0.0729861 0.
0.626023 0.0729874 0.
0.628025 0.0729888 0.
0.630027 0.0729907 0.
0.632029 0.0729925 0.
0.634031 0.0729945 0.
0.636032 0.0729966 0.
0.638034 0.0729986 0.
0.640035 0.0730003 0.
0.642036 0.0730016 0.
0.644038 0.073003 0.
0.646039 0.0730048 0.
0.648041 0.0730067 0.
0.650043 0.0730087 0.
0.652044 0.0730108 0.
0.654045 0.0730129 0.
0.656046 0.073015 0.
0.658048 0.0730171 0.
0.66005 0.0730192 0.
0.662051 0.0730214 0.
0.664052 0.0730236 0.
0.666052 0.0730258 0.
0.668053 0.0730286 0.
0.670055 0.0730316 0.
0.672056 0.0730346 0.
0.674057 0.0730365 0.
0.676057 0.0730383 0.
0.678058 0.0730403 0.
0.680059 0.073043 0.
0.68206 0.0730457 0.
0.684061 0.0730485 0.
0.686062 0.0730513 0.
0.688062 0.0730541 0.
0.690063 0.0730571 0.
0.692063 0.0730601 0.
0.694063 0.0730632 0.
0.696063 0.0730667 0.
0.698063 0.0730704 0.
0.499937 0.0750637 0.
0.501938 0.0750619 0.
0.503938 0.0750597 0.
0.505938 0.0750571 0.
0.507938 0.075053 0.
0.509938 0.0750489 0.
0.511938 0.0750449 0.
0.513939 0.0750412 0.
0.51594 0.0750375 0.
0.51794 0.0750349 0.
0.51994 0.0750328 0.
0.52194 0.0750308 0.
0.523941 0.0750296 0.
0.525943 0.0750286 0.
0.527944 0.0750275 0.
0.529946 0.0750247 0.
0.531947 0.0750219 0.
0.533948 0.0750192 0.
0.535949 0.0750169 0.
0.537949 0.0750146 0.
0.53995 0.0750126 0.
0.541951 0.0750107 0.
0.543952 0.0750088 0.
0.545954 0.0750067 0.
0.547956 0.0750044 0.
0.549957 0.075002 0.
0.551959 0.075 0.
0.55396 0.0749981 0.
0.555962 0.0749963 0.
0.557963 0.0749949 0.
0.559964 0.0749935 0.
0.561966 0.0749917 0.
0.563968 0.0749895 0.
0.565969 0.0749872 0.
0.567971 0.0749858 0.
0.569973 0.0749849 0.
0.571975 0.074984 0.
0.573977 0.0749825 0.
0.57598 0.074981 0.
0.577982 0.0749794 0.
0.579983 0.0749775 0.
0.581985 0.0749757 0.
0.583986 0.0749739 0.
0.585988 0.0749725 0.
0.587989 0.074971 0.
0.589991 0.0749702 0.
0.591993 0.07497 0.
0.593994 0.0749698 0.
0.595996 0.0749693 0.
0.597998 0.0749688 0.
0.6 0.0749683 0.
0.602002 0.0749702 0.
0.604004 0.074972 0.
0.606006 0.0749737 0.
0.608008 0.0749744 0.
0.610009 0.0749752 0.
0.612011 0.0749762 0.
0.614012 0.0749777 0.
0.616013 0.0749792 0.
0.618015 0.0749806 0.
0.620016 0.074982 0.
0.622018 0.0749834 0.
0.62402 0.0749849 0.
0.626022 0.0749864 0.
0.628023 0.0749879 0.
0.630025 0.0749896 0.
0.632027 0.0749912 0.
0.634029 0.0749931 0.
0.63603 0.0749954 0.
0.63803 0.0749977 0.
0.640031 0.0749996 0.
0.642033 0.0750011 0.
0.644035 0.0750026 0.
0.646036 0.0750045 0.
0.648037 0.0750065 0.
0.650039 0.0750085 0.
0.65204 0.0750103 0.
0.654041 0.0750121 0.
0.656043 0.0750141 0.
0.658045 0.0750163 0.
0.660047 0.0750186 0.
0.662048 0.0750207 0.
0.664049 0.0750227 0.
0.666049 0.0750246 0.
0.66805 0.0750275 0.
0.670051 0.0750308 0.
0.672052 0.0750342 0.
0.674053 0.0750363 0.
0.676054 0.0750383 0.
0.678054 0.0750403 0.
0.680055 0.075043 0.
0.682056 0.0750456 0.
0.684057 0.0750483 0.
0.686058 0.0750511 0.
0.688059 0.0750539 0.
0.690059 0.075057 0.
0.692059 0.0750602 0.
0.694059 0.0750634 0.
0.696059 0.0750672 0.
0.698059 0.0750711 0.
0.49994 0.0770644 0.
0.50194 0.077062 0.
0.503941 0.0770594 0.
0.505941 0.0770565 0.
0.507942 0.0770528 0.
0.509942 0.0770491 0.
0.511942 0.0770454 0.
0.513943 0.0770418 0.
0.515943 0.0770381 0.
0.517943 0.0770355 0.
0.519943 0.0770334 0.
0.521943 0.0770313 0.
0.523944 0.0770297 0.
0.525946 0.0770282 0.
0.527947 0.0770265 0.
0.529948 0.0770238 0.
0.53195 0.077021 0.
0.533951 0.0770185 0.
0.535952 0.0770166 0.
0.537952 0.0770146 0.
0.539953 0.0770125 0.
0.541954 0.0770102 0.
0.543956 0.0770079 0.
0.545957 0.0770057 0.
0.547959 0.0770035 0.
0.54996 0.0770013 0.
0.551962 0.0769995 0.
0.553963 0.0769977 0.
0.555964 0.0769959 0.
0.557966 0.0769942 0.
0.559967 0.0769925 0.
0.561969 0.0769906 0.
0.56397 0.0769886 0.
0.565972 0.0769865 0.
0.567973 0.076985 0.
0.569975 0.0769836 0.
0.571976 0.0769822 0.
0.573978 0.0769808 0.
0.57598 0.0769794 0.
0.577983 0.076978 0.
0.579984 0.0769765 0.
0.581985 0.0769749 0.
0.583987 0.0769735 0.
0.585989 0.0769722 0.
0.58799 0.0769709 0.
0.589992 0.07697 0.
0.591994 0.0769695 0.
0.593995 0.076969 0.
0.595997 0.0769689 0.
0.597999 0.0769689 0.
0.6 0.076969 0.
0.602002 0.0769702 0.
0.604004 0.0769714 0.
0.606005 0.0769725 0.
0.608007 0.0769736 0.
0.610009 0.0769747 0.
0.61201 0.0769758 0.
0.614011 0.0769769 0.
0.616012 0.076978 0.
0.618014 0.0769795 0.
0.620015 0.0769812 0.
0.622017 0.0769829 0.
0.624019 0.0769842 0.
0.626021 0.0769854 0.
0.628023 0.0769867 0.
0.630025 0.0769885 0.
0.632026 0.0769903 0.
0.634028 0.0769923 0.
0.636028 0.0769947 0.
0.638029 0.0769971 0.
0.64003 0.076999 0.
0.642031 0.0770005 0.
0.644032 0.077002 0.
0.646033 0.077004 0.
0.648035 0.0770061 0.
0.650036 0.0770082 0.
0.652037 0.0770099 0.
0.654039 0.0770116 0.
0.65604 0.0770135 0.
0.658042 0.0770158 0.
0.660044 0.0770182 0.
0.662045 0.0770203 0.
0.664045 0.0770222 0.
0.666046 0.0770241 0.
0.668047 0.0770269 0.
0.670048 0.0770302 0.
0.672049 0.0770335 0.
0.67405 0.0770359 0.
0.67605 0.0770381 0.
0.678051 0.0770403 0.
0.680052 0.0770428 0.
0.682053 0.0770454 0.
0.684054 0.077048 0.
0.686054 0.0770508 0.
0.688055 0.0770537 0.
0.690055 0.0770568 0.
0.692055 0.0770601 0.
0.694056 0.0770634 0.
0.696055 0.077067 0.
0.698055 0.0770708 0.
0.499943 0.0790652 0.
0.501943 0.0790622 0.
0.503944 0.0790591 0.
0.505945 0.0790558 0.
0.507945 0.0790525 0.
0.509946 0.0790493 0.
0.511946 0.0790459 0.
0.513946 0.0790423 0.
0.515947 0.0790388 0.
0.517946 0.0790361 0.
0.519946 0.079034 0.
0.521946 0.0790318 0.
0.523947 0.0790298 0.
0.525949 0.0790277 0.
0.52795 0.0790256 0.
0.529951 0.0790228 0.
0.531952 0.0790201 0.
0.533954 0.0790177 0.
0.535955 0.0790162 0.
0.537956 0.0790146 0.
0.539957 0.0790124 0.
0.541958 0.0790097 0.
0.543959 0.079007 0.
0.54596 0.0790047 0.
0.547961 0.0790026 0.
0.549963 0.0790005 0.
0.551964 0.0789989 0.
0.553966 0.0789972 0.
0.555967 0.0789955 0.
0.557969 0.0789935 0.
0.55997 0.0789915 0.
0.561972 0.0789895 0.
0.563973 0.0789877 0.
0.565974 0.0789859 0.
0.567975 0.0789841 0.
0.569976 0.0789822 0.
0.571978 0.0789804 0.
0.57398 0.0789791 0.
0.575981 0.0789778 0.
0.577983 0.0789766 0.
0.579984 0.0789754 0.
0.581986 0.0789742 0.
0.583987 0.078973 0.
0.585989 0.0789719 0.
0.587991 0.0789708 0.
0.589993 0.0789698 0.
0.591994 0.078969 0.
0.593996 0.0789681 0.
0.595998 0.0789684 0.
0.597999 0.0789691 0.
0.6 0.0789697 0.
0.602002 0.0789702 0.
0.604003 0.0789707 0.
0.606005 0.0789714 0.
0.608006 0.0789728 0.
0.610008 0.0789742 0.
0.612009 0.0789753 0.
0.61401 0.0789761 0.
0.616011 0.0789768 0.
0.618013 0.0789784 0.
0.620014 0.0789805 0.
0.622016 0.0789825 0.
0.624018 0.0789835 0.
0.626021 0.0789845 0.
0.628023 0.0789856 0.
0.630024 0.0789875 0.
0.632025 0.0789894 0.
0.634026 0.0789916 0.
0.636027 0.078994 0.
0.638028 0.0789964 0.
0.640028 0.0789983 0.
0.642029 0.0789999 0.
0.644029 0.0790015 0.
0.64603 0.0790036 0.
0.648032 0.0790057 0.
0.650033 0.0790078 0.
0.652035 0.0790095 0.
0.654036 0.0790111 0.
0.656038 0.0790129 0.
0.658039 0.0790153 0.
0.660041 0.0790178 0.
0.662042 0.0790199 0.
0.664042 0.0790217 0.
0.666042 0.0790235 0.
0.668043 0.0790263 0.
0.670045 0.0790296 0.
0.672046 0.0790329 0.
0.674046 0.0790354 0.
0.676047 0.0790379 0.
0.678047 0.0790402 0.
0.680048 0.0790427 0.
0.68205 0.0790451 0.
0.684051 0.0790477 0.
0.686051 0.0790506 0.
0.688052 0.0790534 0.
0.690052 0.0790566 0.
0.692052 0.07906 0.
0.694052 0.0790633 0.
0.696051 0.0790669 0.
0.69805 0.0790705 0.
0.499946 0.0810657 0.
0.501946 0.0810622 0.
0.503947 0.0810588 0.
0.505947 0.0810554 0.
0.507948 0.0810523 0.
0.509949 0.0810492 0.
0.51195 0.081046 0.
0.51395 0.0810427 0.
0.51595 0.0810393 0.
0.51795 0.0810366 0.
0.51995 0.0810342 0.
0.52195 0.0810318 0.
0.523951 0.0810294 0.
0.525952 0.081027 0.
0.527953 0.0810245 0.
0.529954 0.0810219 0.
0.531956 0.0810192 0.
0.533957 0.081017 0.
0.535958 0.0810156 0.
0.537959 0.0810143 0.
0.53996 0.0810121 0.
0.541961 0.0810093 0.
0.543962 0.0810064 0.
0.545963 0.0810043 0.
0.547964 0.0810023 0.
0.549965 0.0810003 0.
0.551966 0.0809985 0.
0.553968 0.0809967 0.
0.555969 0.0809948 0.
0.557971 0.0809928 0.
0.559972 0.0809908 0.
0.561974 0.080989 0.
0.563974 0.0809873 0.
0.565975 0.0809857 0.
0.567977 0.0809837 0.
0.569978 0.0809817 0.
0.57198 0.0809796 0.
0.573981 0.0809782 0.
0.575982 0.0809769 0.
0.577984 0.0809756 0.
0.579985 0.0809746 0.
0.581987 0.0809737 0.
0.583988 0.0809727 0.
0.58599 0.0809717 0.
0.587992 0.0809706 0.
0.589993 0.0809696 0.
0.591995 0.0809686 0.
0.593996 0.0809676 0.
0.595998 0.0809681 0.
0.597999 0.080969 0.
0.600001 0.0809698 0.
0.602002 0.0809699 0.
0.604003 0.0809699 0.
0.606005 0.0809702 0.
0.608006 0.080972 0.
0.610007 0.0809737 0.
0.612008 0.0809749 0.
0.614009 0.0809754 0.
0.61601 0.0809759 0.
0.618012 0.0809775 0.
0.620014 0.0809796 0.
0.622015 0.0809817 0.
0.624018 0.0809827 0.
0.62602 0.0809837 0.
0.628022 0.0809848 0.
0.630023 0.0809868 0.
0.632024 0.0809889 0.
0.634024 0.080991 0.
0.636025 0.0809934 0.
0.638026 0.0809958 0.
0.640027 0.0809978 0.
0.642027 0.0809995 0.
0.644028 0.0810011 0.
0.646029 0.0810031 0.
0.64803 0.0810051 0.
0.650031 0.0810071 0.
0.652032 0.0810089 0.
0.654034 0.0810106 0.
0.656035 0.0810124 0.
0.658036 0.0810148 0.
0.660038 0.0810171 0.
0.662039 0.0810193 0.
0.664039 0.0810211 0.
0.666039 0.081023 0.
0.66804 0.0810258 0.
0.670041 0.0810292 0.
0.672042 0.0810325 0.
0.674043 0.081035 0.
0.676044 0.0810374 0.
0.678044 0.0810397 0.
0.680045 0.0810422 0.
0.682047 0.0810447 0.
0.684047 0.0810474 0.
0.686048 0.0810504 0.
0.688048 0.0810533 0.
0.690048 0.0810566 0.
0.692048 0.08106 0.
0.694048 0.0810635 0.
0.696048 0.0810669 0.
0.698047 0.0810703 0.
0.499949 0.0830653 0.
0.501949 0.083062 0.
0.50395 0.0830586 0.
0.50595 0.0830553 0.
0.507951 0.0830521 0.
0.509952 0.0830489 0.
0.511952 0.0830458 0.
0.513953 0.0830428 0.
0.515953 0.0830398 0.
0.517953 0.0830369 0.
0.519954 0.0830341 0.
0.521954 0.0830313 0.
0.523955 0.0830287 0.
0.525955 0.0830261 0.
0.527956 0.0830234 0.
0.529958 0.0830208 0.
0.531959 0.0830183 0.
0.53396 0.0830161 0.
0.535961 0.0830148 0.
0.537962 0.0830135 0.
0.539963 0.0830115 0.
0.541963 0.0830089 0.
0.543964 0.0830063 0.
0.545965 0.0830043 0.
0.547966 0.0830025 0.
0.549967 0.0830006 0.
0.551968 0.0829984 0.
0.55397 0.0829961 0.
0.555971 0.0829939 0.
0.557972 0.0829922 0.
0.559974 0.0829906 0.
0.561975 0.082989 0.
0.563976 0.0829874 0.
0.565977 0.0829859 0.
0.567978 0.082984 0.
0.569979 0.0829818 0.
0.571981 0.0829797 0.
0.573982 0.0829781 0.
0.575983 0.0829765 0.
0.577984 0.082975 0.
0.579986 0.0829743 0.
0.581988 0.0829735 0.
0.58399 0.0829726 0.
0.585991 0.0829714 0.
0.587992 0.0829703 0.
0.589994 0.0829692 0.
0.591995 0.0829682 0.
0.593997 0.0829673 0.
0.595998 0.0829677 0.
0.597999 0.0829686 0.
0.6 0.0829695 0.
0.602002 0.0829692 0.
0.604003 0.0829688 0.
0.606005 0.0829691 0.
0.608006 0.0829711 0.
0.610007 0.0829731 0.
0.612008 0.0829744 0.
0.614009 0.0829748 0.
0.61601 0.0829753 0.
0.618012 0.0829766 0.
0.620013 0.0829785 0.
0.622015 0.0829804 0.
0.624017 0.0829818 0.
0.626019 0.0829831 0.
0.62802 0.0829845 0.
0.630021 0.0829866 0.
0.632021 0.0829886 0.
0.634022 0.0829907 0.
0.636024 0.082993 0.
0.638025 0.0829953 0.
0.640026 0.0829973 0.
0.642027 0.0829991 0.
0.644027 0.0830009 0.
0.646028 0.0830026 0.
0.648029 0.0830044 0.
0.65003 0.0830061 0.
0.652031 0.0830081 0.
0.654031 0.0830101 0.
0.656032 0.083012 0.
0.658033 0.0830141 0.
0.660035 0.0830162 0.
0.662035 0.0830183 0.
0.664036 0.0830203 0.
0.666036 0.0830224 0.
0.668037 0.0830254 0.
0.670038 0.0830288 0.
0.672038 0.0830322 0.
0.67404 0.0830345 0.
0.676041 0.0830366 0.
0.678042 0.0830388 0.
0.680043 0.0830415 0.
0.682044 0.0830441 0.
0.684044 0.083047 0.
0.686045 0.0830502 0.
0.688045 0.0830534 0.
0.690045 0.0830568 0.
0.692045 0.0830603 0.
0.694045 0.0830639 0.
0.696045 0.083067 0.
0.698045 0.08307 0.
0.499952 0.0850649 0.
0.501952 0.0850618 0.
0.503952 0.0850585 0.
0.505952 0.0850551 0.
0.507953 0.0850518 0.
0.509954 0.0850485 0.
0.511955 0.0850456 0.
0.513956 0.0850429 0.
0.515956 0.0850403 0.
0.517957 0.0850373 0.
0.519958 0.0850341 0.
0.521958 0.0850309 0.
0.523959 0.085028 0.
0.525959 0.0850251 0.
0.52796 0.0850223 0.
0.529961 0.0850198 0.
0.531962 0.0850173 0.
0.533964 0.0850152 0.
0.535965 0.085014 0.
0.537966 0.0850128 0.
0.539966 0.085011 0.
0.541966 0.0850086 0.
0.543966 0.0850061 0.
0.545967 0.0850043 0.
0.547968 0.0850026 0.
0.549969 0.085001 0.
0.55197 0.0849982 0.
0.553972 0.0849955 0.
0.555973 0.084993 0.
0.557974 0.0849917 0.
0.559975 0.0849904 0.
0.561976 0.084989 0.
0.563977 0.0849875 0.
0.565978 0.0849861 0.
0.56798 0.0849842 0.
0.569981 0.084982 0.
0.571982 0.0849799 0.
0.573983 0.084978 0.
0.575984 0.0849762 0.
0.577985 0.0849745 0.
0.579987 0.0849739 0.
0.581989 0.0849733 0.
0.583991 0.0849725 0.
0.585992 0.0849712 0.
0.587993 0.08497 0.
0.589994 0.0849689 0.
0.591996 0.0849679 0.
0.593997 0.084967 0.
0.595998 0.0849674 0.
0.597999 0.0849682 0.
0.6 0.0849691 0.
0.602002 0.0849685 0.
0.604003 0.0849678 0.
0.606005 0.0849679 0.
0.608005 0.0849702 0.
0.610006 0.0849725 0.
0.612007 0.084974 0.
0.614008 0.0849743 0.
0.616009 0.0849746 0.
0.618011 0.0849758 0.
0.620013 0.0849774 0.
0.622015 0.0849791 0.
0.624016 0.0849808 0.
0.626017 0.0849825 0.
0.628018 0.0849843 0.
0.630019 0.0849863 0.
0.632019 0.0849883 0.
0.63402 0.0849903 0.
0.636022 0.0849926 0.
0.638023 0.0849948 0.
0.640025 0.0849968 0.
0.642026 0.0849988 0.
0.644027 0.0850007 0.
0.646027 0.0850022 0.
0.648028 0.0850036 0.
0.650028 0.085005 0.
0.652029 0.0850073 0.
0.654029 0.0850096 0.
0.65603 0.0850117 0.
0.658031 0.0850135 0.
0.660031 0.0850152 0.
0.662032 0.0850173 0.
0.664033 0.0850196 0.
0.666033 0.0850219 0.
0.668034 0.085025 0.
0.670034 0.0850285 0.
0.672034 0.085032 0.
0.674036 0.085034 0.
0.676038 0.0850358 0.
0.67804 0.0850378 0.
0.68004 0.0850407 0.
0.682041 0.0850436 0.
0.684041 0.0850467 0.
0.686042 0.08505 0.
0.688042 0.0850534 0.
0.690042 0.0850569 0.
0.692042 0.0850606 0.
0.694043 0.0850643 0.
0.696043 0.0850671 0.
0.698043 0.0850698 0.
0.499955 0.0870646 0.
0.501956 0.0870616 0.
0.503956 0.0870586 0.
0.505956 0.0870554 0.
0.507957 0.0870518 0.
0.509957 0.0870483 0.
0.511958 0.0870452 0.
0.513959 0.0870427 0.
0.51596 0.0870402 0.
0.51796 0.0870373 0.
0.519961 0.0870342 0.
0.521961 0.087031 0.
0.523962 0.0870281 0.
0.525962 0.0870251 0.
0.527963 0.0870222 0.
0.529964 0.0870197 0.
0.531965 0.0870172 0.
0.533966 0.0870151 0.
0.535967 0.0870139 0.
0.537967 0.0870126 0.
0.539968 0.0870108 0.
0.541968 0.0870084 0.
0.543969 0.087006 0.
0.545969 0.087004 0.
0.54797 0.0870021 0.
0.549971 0.0870002 0.
0.551973 0.0869977 0.
0.553974 0.0869951 0.
0.555975 0.0869927 0.
0.557976 0.0869912 0.
0.559977 0.0869897 0.
0.561978 0.0869881 0.
0.563979 0.0869864 0.
0.565981 0.0869847 0.
0.567982 0.0869829 0.
0.569983 0.0869812 0.
0.571984 0.0869794 0.
0.573985 0.0869776 0.
0.575986 0.0869759 0.
0.577987 0.0869742 0.
0.579988 0.0869736 0.
0.58199 0.0869729 0.
0.583991 0.0869721 0.
0.585992 0.0869708 0.
0.587993 0.0869695 0.
0.589995 0.0869685 0.
0.591996 0.0869678 0.
0.593997 0.0869671 0.
0.595998 0.0869672 0.
0.597999 0.0869675 0.
0.600001 0.0869679 0.
0.602002 0.0869678 0.
0.604003 0.0869678 0.
0.606005 0.0869681 0.
0.608005 0.0869699 0.
0.610006 0.0869717 0.
0.612007 0.0869731 0.
0.614008 0.086974 0.
0.616009 0.086975 0.
0.61801 0.0869762 0.
0.620012 0.0869775 0.
0.622013 0.0869789 0.
0.624014 0.0869805 0.
0.626015 0.0869821 0.
0.628016 0.0869838 0.
0.630017 0.0869858 0.
0.632017 0.0869877 0.
0.634018 0.0869897 0.
0.63602 0.0869918 0.
0.638021 0.0869939 0.
0.640022 0.0869958 0.
0.642023 0.0869977 0.
0.644024 0.0869995 0.
0.646025 0.0870012 0.
0.648025 0.0870027 0.
0.650026 0.0870043 0.
0.652027 0.0870067 0.
0.654027 0.087009 0.
0.656028 0.0870112 0.
0.658028 0.0870133 0.
0.660029 0.0870153 0.
0.66203 0.0870174 0.
0.66403 0.0870196 0.
0.666031 0.0870218 0.
0.668032 0.0870248 0.
0.670032 0.0870283 0.
0.672033 0.0870318 0.
0.674034 0.0870337 0.
0.676035 0.0870355 0.
0.678037 0.0870374 0.
0.680037 0.0870405 0.
0.682038 0.0870435 0.
0.684038 0.0870467 0.
0.686039 0.0870501 0.
0.688039 0.0870536 0.
0.690039 0.0870571 0.
0.692039 0.0870607 0.
0.694039 0.0870642 0.
0.696039 0.0870673 0.
0.698039 0.0870703 0.
0.499959 0.0890642 0.
0.501959 0.0890615 0.
0.503959 0.0890587 0.
0.505959 0.0890557 0.
0.50796 0.0890519 0.
0.509961 0.089048 0.
0.511961 0.0890448 0.
0.513962 0.0890424 0.
0.515963 0.08904 0.
0.517964 0.0890372 0.
0.519964 0.0890342 0.
0.521964 0.0890312 0.
0.523965 0.0890282 0.
0.525965 0.0890251 0.
0.527966 0.0890221 0.
0.529966 0.0890196 0.
0.531967 0.0890171 0.
0.533968 0.089015 0.
0.535968 0.0890137 0.
0.537969 0.0890124 0.
0.53997 0.0890106 0.
0.54197 0.0890083 0.
0.543971 0.0890059 0.
0.545972 0.0890038 0.
0.547973 0.0890016 0.
0.549974 0.0889995 0.
0.551975 0.0889971 0.
0.553976 0.0889946 0.
0.555977 0.0889924 0.
0.557978 0.0889907 0.
0.559979 0.0889891 0.
0.56198 0.0889873 0.
0.563981 0.0889853 0.
0.565983 0.0889832 0.
0.567984 0.0889816 0.
0.569984 0.0889803 0.
0.571985 0.0889789 0.
0.573986 0.0889773 0.
0.575987 0.0889756 0.
0.577988 0.088974 0.
0.579989 0.0889733 0.
0.58199 0.0889726 0.
0.583991 0.0889717 0.
0.585992 0.0889704 0.
0.587993 0.0889691 0.
0.589995 0.0889682 0.
0.591996 0.0889677 0.
0.593997 0.0889672 0.
0.595998 0.088967 0.
0.598 0.0889668 0.
0.600001 0.0889666 0.
0.602002 0.0889672 0.
0.604003 0.0889677 0.
0.606005 0.0889684 0.
0.608006 0.0889696 0.
0.610006 0.0889708 0.
0.612007 0.0889722 0.
0.614008 0.0889738 0.
0.616008 0.0889753 0.
0.618009 0.0889766 0.
0.62001 0.0889776 0.
0.622011 0.0889787 0.
0.624012 0.0889801 0.
0.626013 0.0889817 0.
0.628015 0.0889833 0.
0.630015 0.0889852 0.
0.632015 0.0889872 0.
0.634016 0.0889891 0.
0.636017 0.088991 0.
0.638019 0.088993 0.
0.64002 0.0889948 0.
0.64202 0.0889966 0.
0.644021 0.0889983 0.
0.646022 0.0890001 0.
0.648023 0.0890019 0.
0.650024 0.0890037 0.
0.652025 0.0890061 0.
0.654025 0.0890084 0.
0.656026 0.0890108 0.
0.658026 0.0890131 0.
0.660027 0.0890153 0.
0.662027 0.0890175 0.
0.664028 0.0890196 0.
0.666029 0.0890216 0.
0.66803 0.0890246 0.
0.67003 0.0890281 0.
0.672031 0.0890316 0.
0.674032 0.0890335 0.
0.676032 0.0890351 0.
0.678033 0.089037 0.
0.680034 0.0890402 0.
0.682035 0.0890434 0.
0.684036 0.0890467 0.
0.686036 0.0890502 0.
0.688036 0.0890538 0.
0.690036 0.0890573 0.
0.692035 0.0890608 0.
0.694035 0.0890642 0.
0.696034 0.0890675 0.
0.698035 0.0890708 0.
0.499962 0.0910638 0.
0.501962 0.0910612 0.
0.503963 0.0910586 0.
0.505963 0.0910557 0.
0.507964 0.091052 0.
0.509964 0.0910483 0.
0.511965 0.0910449 0.
0.513966 0.0910421 0.
0.515966 0.0910393 0.
0.517967 0.0910365 0.
0.519967 0.0910337 0.
0.521967 0.0910309 0.
0.523968 0.091028 0.
0.525968 0.0910249 0.
0.527969 0.0910219 0.
0.529969 0.0910194 0.
0.53197 0.0910169 0.
0.53397 0.0910148 0.
0.535971 0.0910135 0.
0.537972 0.0910123 0.
0.539972 0.0910105 0.
0.541973 0.0910083 0.
0.543974 0.0910061 0.
0.545974 0.0910037 0.
0.547975 0.0910013 0.
0.549976 0.0909989 0.
0.551977 0.0909967 0.
0.553978 0.0909944 0.
0.555979 0.0909922 0.
0.55798 0.0909903 0.
0.559981 0.0909884 0.
0.561982 0.0909865 0.
0.563983 0.0909845 0.
0.565985 0.0909826 0.
0.567985 0.0909811 0.
0.569986 0.0909799 0.
0.571986 0.0909786 0.
0.573987 0.0909771 0.
0.575988 0.0909755 0.
0.577989 0.090974 0.
0.57999 0.090973 0.
0.581991 0.0909721 0.
0.583992 0.0909711 0.
0.585993 0.0909699 0.
0.587994 0.0909688 0.
0.589995 0.090968 0.
0.591996 0.0909675 0.
0.593997 0.090967 0.
0.595998 0.0909667 0.
0.598 0.0909663 0.
0.600001 0.0909659 0.
0.602002 0.0909667 0.
0.604003 0.0909675 0.
0.606004 0.0909684 0.
0.608005 0.0909695 0.
0.610006 0.0909706 0.
0.612007 0.0909719 0.
0.614007 0.0909736 0.
0.616008 0.0909753 0.
0.618008 0.0909766 0.
0.620008 0.0909776 0.
0.622009 0.0909786 0.
0.62401 0.09098 0.
0.626012 0.0909814 0.
0.628013 0.090983 0.
0.630013 0.0909848 0.
0.632014 0.0909867 0.
0.634014 0.0909886 0.
0.636016 0.0909905 0.
0.638017 0.0909924 0.
0.640018 0.0909943 0.
0.642018 0.0909961 0.
0.644018 0.090998 0.
0.646019 0.0909997 0.
0.648021 0.0910014 0.
0.650022 0.0910032 0.
0.652022 0.0910055 0.
0.654023 0.0910078 0.
0.656023 0.0910101 0.
0.658024 0.0910125 0.
0.660024 0.0910149 0.
0.662025 0.0910171 0.
0.664026 0.0910193 0.
0.666026 0.0910215 0.
0.668027 0.0910246 0.
0.670028 0.0910281 0.
0.672029 0.0910317 0.
0.674029 0.0910334 0.
0.676029 0.091035 0.
0.67803 0.0910367 0.
0.680031 0.0910398 0.
0.682031 0.0910429 0.
0.684032 0.0910462 0.
0.686032 0.09105 0.
0.688032 0.0910537 0.
0.690032 0.0910573 0.
0.692032 0.0910608 0.
0.694031 0.0910643 0.
0.696031 0.0910676 0.
0.698031 0.091071 0.
0.499965 0.093064 0.
0.501966 0.0930609 0.
0.503967 0.0930583 0.
0.505968 0.0930555 0.
0.507968 0.0930523 0.
0.509968 0.093049 0.
0.511968 0.0930455 0.
0.513968 0.0930418 0.
0.515969 0.093038 0.
0.51797 0.0930351 0.
0.51997 0.0930327 0.
0.52197 0.0930302 0.
0.523971 0.0930274 0.
0.525971 0.0930244 0.
0.527971 0.0930215 0.
0.529972 0.0930191 0.
0.531973 0.0930166 0.
0.533973 0.0930146 0.
0.535974 0.0930134 0.
0.537975 0.0930122 0.
0.539976 0.0930105 0.
0.541976 0.0930084 0.
0.543977 0.0930063 0.
0.545977 0.0930038 0.
0.547978 0.0930011 0.
0.549979 0.0929984 0.
0.55198 0.0929963 0.
0.553981 0.0929943 0.
0.555982 0.0929922 0.
0.557982 0.0929899 0.
0.559983 0.0929876 0.
0.561984 0.0929856 0.
0.563985 0.0929842 0.
0.565986 0.0929827 0.
0.567987 0.0929813 0.
0.569987 0.0929799 0.
0.571987 0.0929786 0.
0.573988 0.0929771 0.
0.575989 0.0929756 0.
0.57799 0.0929742 0.
0.579991 0.0929728 0.
0.581992 0.0929714 0.
0.583993 0.0929702 0.
0.585993 0.0929694 0.
0.587994 0.0929687 0.
0.589995 0.0929679 0.
0.591996 0.0929672 0.
0.593997 0.0929665 0.
0.595998 0.0929661 0.
0.598 0.0929658 0.
0.600001 0.0929656 0.
0.602002 0.0929664 0.
0.604003 0.0929672 0.
0.606004 0.0929682 0.
0.608004 0.0929696 0.
0.610005 0.0929711 0.
0.612005 0.0929724 0.
0.614006 0.0929737 0.
0.616006 0.0929749 0.
0.618007 0.0929762 0.
0.620007 0.0929774 0.
0.622008 0.0929787 0.
0.624009 0.09298 0.
0.62601 0.0929814 0.
0.628011 0.0929828 0.
0.630011 0.0929846 0.
0.632012 0.0929863 0.
0.634013 0.0929882 0.
0.636014 0.0929902 0.
0.638015 0.0929922 0.
0.640016 0.0929943 0.
0.642016 0.0929964 0.
0.644016 0.0929985 0.
0.646017 0.093 0.
0.648018 0.0930013 0.
0.650019 0.0930027 0.
0.65202 0.0930049 0.
0.65402 0.093007 0.
0.65602 0.0930092 0.
0.658021 0.0930115 0.
0.660022 0.0930138 0.
0.662023 0.0930163 0.
0.664023 0.0930188 0.
0.666023 0.0930213 0.
0.668024 0.0930246 0.
0.670024 0.0930283 0.
0.672025 0.093032 0.
0.674026 0.0930336 0.
0.676026 0.093035 0.
0.678027 0.0930365 0.
0.680027 0.0930393 0.
0.682028 0.0930421 0.
0.684028 0.0930453 0.
0.686028 0.0930493 0.
0.688029 0.0930533 0.
0.690029 0.0930571 0.
0.692029 0.0930608 0.
0.694029 0.0930645 0.
0.696029 0.0930677 0.
0.698029 0.0930709 0.
0.499969 0.0950633 0.
0.50197 0.0950606 0.
0.503971 0.095058 0.
0.505972 0.0950553 0.
0.507972 0.0950525 0.
0.509971 0.0950497 0.
0.511971 0.0950461 0.
0.513971 0.0950414 0.
0.515972 0.0950368 0.
0.517972 0.0950338 0.
0.519973 0.0950316 0.
0.521973 0.0950295 0.
0.523974 0.0950267 0.
0.525974 0.0950239 0.
0.527974 0.0950212 0.
0.529975 0.0950187 0.
0.531975 0.0950163 0.
0.533976 0.0950143 0.
0.535977 0.0950132 0.
0.537978 0.0950121 0.
0.539979 0.0950105 0.
0.541979 0.0950086 0.
0.54398 0.0950066 0.
0.54598 0.0950039 0.
0.547981 0.0950009 0.
0.549982 0.0949978 0.
0.551983 0.0949961 0.
0.553984 0.0949943 0.
0.555984 0.0949922 0.
0.557985 0.0949895 0.
0.559985 0.0949868 0.
0.561986 0.0949848 0.
0.563987 0.0949838 0.
0.565988 0.0949828 0.
0.567988 0.0949815 0.
0.569988 0.09498 0.
0.571987 0.0949785 0.
0.573988 0.0949771 0.
0.57599 0.0949758 0.
0.577991 0.0949744 0.
0.579992 0.0949726 0.
0.581993 0.0949707 0.
0.583993 0.0949693 0.
0.585994 0.094969 0.
0.587995 0.0949686 0.
0.589995 0.0949678 0.
0.591996 0.0949668 0.
0.593998 0.0949659 0.
0.595998 0.0949656 0.
0.597999 0.0949654 0.
0.6 0.0949653 0.
0.602001 0.0949661 0.
0.604003 0.0949669 0.
0.606004 0.0949679 0.
0.608004 0.0949697 0.
0.610004 0.0949715 0.
0.612004 0.0949729 0.
0.614004 0.0949737 0.
0.616005 0.0949745 0.
0.618005 0.0949758 0.
0.620006 0.0949772 0.
0.622007 0.0949787 0.
0.624007 0.09498 0.
0.626008 0.0949813 0.
0.628009 0.0949827 0.
0.630009 0.0949844 0.
0.63201 0.094986 0.
0.634011 0.0949878 0.
0.636012 0.0949899 0.
0.638013 0.094992 0.
0.640014 0.0949943 0.
0.642014 0.0949966 0.
0.644014 0.094999 0.
0.646015 0.0950002 0.
0.648016 0.0950012 0.
0.650017 0.0950022 0.
0.652017 0.0950042 0.
0.654017 0.0950063 0.
0.656018 0.0950083 0.
0.658019 0.0950106 0.
0.66002 0.0950128 0.
0.66202 0.0950154 0.
0.66402 0.0950182 0.
0.66602 0.0950211 0.
0.66802 0.0950246 0.
0.670021 0.0950285 0.
0.672022 0.0950323 0.
0.674022 0.0950338 0.
0.676023 0.0950349 0.
0.678023 0.0950363 0.
0.680023 0.0950388 0.
0.682024 0.0950414 0.
0.684024 0.0950444 0.
0.686025 0.0950487 0.
0.688025 0.0950529 0.
0.690026 0.095057 0.
0.692026 0.0950608 0.
0.694026 0.0950647 0.
0.696026 0.0950679 0.
0.698026 0.0950708 0.
0.499974 0.0970643 0.
0.501975 0.0970611 0.
0.503975 0.0970578 0.
0.505975 0.0970546 0.
0.507975 0.0970518 0.
0.509975 0.0970491 0.
0.511975 0.0970457 0.
0.513975 0.0970415 0.
0.515975 0.0970372 0.
0.517975 0.0970341 0.
0.519976 0.0970315 0.
0.521976 0.0970289 0.
0.523976 0.0970264 0.
0.525977 0.097024 0.
0.527977 0.0970215 0.
0.529977 0.097019 0.
0.531978 0.0970165 0.
0.533978 0.0970145 0.
0.535979 0.0970134 0.
0.53798 0.0970124 0.
0.539981 0.0970108 0.
0.541982 0.0970086 0.
0.543983 0.0970065 0.
0.545984 0.0970037 0.
0.547984 0.0970008 0.
0.549985 0.0969978 0.
0.551985 0.0969957 0.
0.553986 0.0969937 0.
0.555986 0.0969915 0.
0.557986 0.0969892 0.
0.559987 0.0969869 0.
0.561988 0.0969851 0.
0.563988 0.0969839 0.
0.565989 0.0969827 0.
0.567989 0.0969812 0.
0.56999 0.0969794 0.
0.57199 0.0969777 0.
0.573991 0.0969765 0.
0.575991 0.0969754 0.
0.577992 0.0969742 0.
0.579993 0.0969727 0.
0.581994 0.0969711 0.
0.583994 0.0969698 0.
0.585994 0.096969 0.
0.587995 0.0969683 0.
0.589995 0.0969675 0.
0.591996 0.0969667 0.
0.593997 0.0969659 0.
0.595998 0.0969657 0.
0.597999 0.0969656 0.
0.6 0.0969655 0.
0.602001 0.0969662 0.
0.604002 0.096967 0.
0.606002 0.0969679 0.
0.608002 0.0969696 0.
0.610003 0.0969713 0.
0.612003 0.0969726 0.
0.614003 0.0969734 0.
0.616004 0.0969743 0.
0.618005 0.0969756 0.
0.620005 0.0969771 0.
0.622006 0.0969786 0.
0.624006 0.0969798 0.
0.626006 0.096981 0.
0.628007 0.0969822 0.
0.630007 0.0969841 0.
0.632008 0.096986 0.
0.634009 0.0969879 0.
0.63601 0.09699 0.
0.63801 0.096992 0.
0.640011 0.096994 0.
0.642011 0.096996 0.
0.644012 0.096998 0.
0.646013 0.0969994 0.
0.648014 0.0970007 0.
0.650015 0.0970021 0.
0.652016 0.0970041 0.
0.654016 0.097006 0.
0.656016 0.0970081 0.
0.658016 0.0970104 0.
0.660016 0.0970128 0.
0.662017 0.0970153 0.
0.664017 0.0970181 0.
0.666017 0.0970208 0.
0.668018 0.0970242 0.
0.670018 0.0970281 0.
0.672019 0.0970319 0.
0.67402 0.0970335 0.
0.676021 0.0970349 0.
0.678022 0.0970365 0.
0.680022 0.0970392 0.
0.682021 0.0970419 0.
0.684021 0.0970449 0.
0.686021 0.0970487 0.
0.688022 0.0970526 0.
0.690022 0.0970564 0.
0.692023 0.0970603 0.
0.694023 0.0970641 0.
0.696024 0.0970678 0.
0.698024 0.0970714 0.
0.49998 0.0990653 0.
0.50198 0.0990616 0.
0.503979 0.0990575 0.
0.505978 0.0990538 0.
0.507979 0.0990511 0.
0.50998 0.0990484 0.
0.51198 0.0990453 0.
0.513979 0.0990415 0.
0.515978 0.0990377 0.
0.517978 0.0990344 0.
0.519979 0.0990314 0.
0.521979 0.0990284 0.
0.523979 0.0990261 0.
0.525979 0.099024 0.
0.52798 0.0990219 0.
0.52998 0.0990193 0.
0.53198 0.0990166 0.
0.53398 0.0990146 0.
0.535981 0.0990136 0.
0.537982 0.0990126 0.
0.539983 0.099011 0.
0.541985 0.0990087 0.
0.543986 0.0990064 0.
0.545987 0.0990036 0.
0.547987 0.0990007 0.
0.549987 0.0989977 0.
0.551987 0.0989954 0.
0.553987 0.098993 0.
0.555988 0.0989908 0.
0.557988 0.0989889 0.
0.559989 0.098987 0.
0.56199 0.0989854 0.
0.56399 0.098984 0.
0.56599 0.0989826 0.
0.567991 0.0989808 0.
0.569992 0.0989789 0.
0.571993 0.0989769 0.
0.573993 0.0989759 0.
0.575993 0.098975 0.
0.577994 0.098974 0.
0.579994 0.0989727 0.
0.581995 0.0989715 0.
0.583995 0.0989703 0.
0.585995 0.0989691 0.
0.587995 0.098968 0.
0.589995 0.0989672 0.
0.591996 0.0989666 0.
0.593997 0.098966 0.
0.595997 0.0989659 0.
0.597998 0.0989658 0.
0.599999 0.0989657 0.
0.602 0.0989664 0.
0.604001 0.098967 0.
0.606001 0.0989679 0.
0.608001 0.0989694 0.
0.610001 0.098971 0.
0.612001 0.0989722 0.
0.614002 0.0989732 0.
0.616003 0.0989742 0.
0.618004 0.0989755 0.
0.620005 0.0989771 0.
0.622005 0.0989786 0.
0.624005 0.0989796 0.
0.626005 0.0989806 0.
0.628005 0.0989817 0.
0.630005 0.0989838 0.
0.632006 0.098986 0.
0.634006 0.0989881 0.
0.636007 0.0989901 0.
0.638008 0.0989921 0.
0.640008 0.0989938 0.
0.642009 0.0989954 0.
0.64401 0.0989969 0.
0.646011 0.0989986 0.
0.648012 0.0990002 0.
0.650014 0.0990019 0.
0.652014 0.0990038 0.
0.654014 0.0990058 0.
0.656014 0.0990078 0.
0.658014 0.0990103 0.
0.660013 0.0990128 0.
0.662013 0.0990153 0.
0.664014 0.0990179 0.
0.666015 0.0990205 0.
0.668015 0.0990239 0.
0.670015 0.0990276 0.
0.672016 0.0990314 0.
0.674017 0.0990333 0.
0.676019 0.0990349 0.
0.67802 0.0990368 0.
0.68002 0.0990396 0.
0.682019 0.0990423 0.
0.684019 0.0990453 0.
0.686018 0.0990488 0.
0.688018 0.0990522 0.
0.690018 0.0990559 0.
0.692019 0.0990597 0.
0.694021 0.0990635 0.
0.696021 0.0990677 0.
0.698021 0.0990719 0.
CELLS 5000 10000
1 0
1 1
1 2
1 3
1 4
1 5
1 6
1 7
1 8
1 9
1 10
1 11
1 12
1 13
1 14
1 15
1 16
1 17
1 18
1 19
1 20
1 21
1 22
1 23
1 24
1 25
1 26
1 27
1 28
1 29
1 30
1 31
1 32
1 33
1 34
1 35
1 36
1 37
1 38
1 39
1 40
1 41
1 42
1 43
1 44
1 45
1 46
1 47
1 48
1 49
1 50
1 51
1 52
1 53
1 54
1 55
1 56
1 57
1 58
1 59
1 60
1 61
1 62
1 63
1 64
1 65
1 66
1 67
1 68
1 69
1 70
1 71
1 72
1 73
1 74
1 75
1 76
1 77
1 78
1 79
1 80
1 81
1 82
1 83
1 84
1 85
1 86
1 87
1 88
1 89
1 90
1 91
1 92
1 93
1 94
1 95
1 96
1 97
1 98
1 99
1 100
1 101
1 102
1 103
1 104
1 105
1 106
1 107
1 108
1 109
1 110
1 111
1 112
1 113
1 114
1 115
1 116
1 117
1 118
1 119
1 120
1 121
1 122
1 123
1 124
1 125
1 126
1 127
1 128
1 129
1 130
1 131
1 132
1 133
1 134
1 135
1 136
1 137
1 138
1 139
1 140
1 141
1 142
1 143
1 144
1 145
1 146
1 147
1 148
1 149
1 150
1 151
1 152
1 153
1 154
1 155
1 156
1 157
1 158
1 159
1 160
1 161
1 162
1 163
1 164
1 165
1 166
1 167
1 168
1 169
1 170
1 171
1 172
1 173
1 174
1 175
1 176
1 177
1 178
1 179
1 180
1 181
1 182
1 183
1 184
1 185
1 186
1 187
1 188
1 189
1 190
1 191
1 192
1 193
1 194
1 195
1 196
1 197
1 198
1 199
1 200
1 201
1 202
1 203
1 204
1 205
1 206
1 207
1 208
1 209
1 210
1 211
1 212
1 213
1 214
1 215
1 216
1 217
1 218
1 219
1 220
1 221
1 222
1 223
1 224
1 225
1 226
1 227
1 228
1 229
1 230
1 231
1 232
1 233
1 234
1 235
1 236
1 237
1 238
1 239
1 240
1 241
1 242
1 243
1 244
1 245
1 246
1 247
1 248
1 249
1 250
1 251
1 252
1 253
1 254
1 255
1 256
1 257
1 258
1 259
1 260
1 261
1 262
1 263
1 264
1 265
1 266
1 267
1 268
1 269
1 270
1 271
1 272
1 273
1 274
1 275
1 276
1 277
1 278
1 279
1 280
1 281
1 282
1 283
1 284
1 285
1 286
1 287
1 288
1 289
1 290
1 291
1 292
1 293
1 294
1 295
1 296
1 297
1 298
1 299
1 300
1 301
1 302
1 303
1 304
1 305
1 306
1 307
1 308
1 309
1 310
1 311
1 312
1 313
1 314
1 315
1 316
1 317
1 318
1 319
1 320
1 321
1 322
1 323
1 324
1 325
1 326
1 327
1 328
1 329
1 330
1 331
1 332
1 333
1 334
1 335
1 336
1 337
1 338
1 339
1 340
1 341
1 342
1 343
1 344
1 345
1 346
1 347
1 348
1 349
1 350
1 351
1 352
1 353
1 354
1 355
1 356
1 357
1 358
1 359
1 360
1 361
1 362
1 363
1 364
1 365
1 366
1 367
1 368
1 369
1 370
1 371
1 372
1 373
1 374
1 375
1 376
1 377
1 378
1 379
1 380
1 381
1 382
1 383
1 384
1 385
1 386
1 387
1 388
1 389
1 390
1 391
1 392
1 393
1 394
1 395
1 396
1 397
1 398
1 399
1 400
1 401
1 402
1 403
1 404
1 405
1 406
1 407
1 408
1 409
1 410
1 411
1 412
1 413
1 414
1 415
1 416
1 417
1 418
1 419
1 420
1 421
1 422
1 423
1 424
1 425
1 426
1 427
1 428
1 429
1 430
1 431
1 432
1 433
1 434
1 435
1 436
1 437
1 438
1 439
1 440
1 441
1 442
1 443
1 444
1 445
1 446
1 447
1 448
1 449
1 450
1 451
1 452
1 453
1 454
1 455
1 456
1 457
1 458
1 459
1 460
1 461
1 462
1 463
1 464
1 465
1 466
1 467
1 468
1 469
1 470
1 471
1 472
1 473
1 474
1 475
1 476
1 477
1 478
1 479
1 480
1 481
1 482
1 483
1 484
1 485
1 486
1 487
1 488
1 489
1 490
1 491
1 492
1 493
1 494
1 495
1 496
1 497
1 498
1 499
1 500
1 501
1 502
1 503
1 504
1 505
1 506
1 507
1 508
1 509
1 510
1 511
1 512
1 513
1 514
1 515
1 516
1 517
1 518
1 519
1 520
1 521
1 522
1 523
1 524
1 525
1 526
1 527
1 528
1 529
1 530
1 531
1 532
1 533
1 534
1 535
1 536
1 537
1 538
1 539
1 540
1 541
1 542
1 543
1 544
1 545
1 546
1 547
1 548
1 549
1 550
1 551
1 552
1 553
1 554
1 555
1 556
1 557
1 558
1 559
1 560
1 561
1 562
1 563
1 564
1 565
1 566
1 567
1 568
1 569
1 570
1 571
1 572
1 573
1 574
1 575
1 576
1 577
1 578
1 579
1 580
1 581
1 582
1 583
1 584
1 585
1 586
1 587
1 588
1 589
1 590
1 591
1 592
1 593
1 594
1 595
1 596
1 597
1 598
1 599
1 600
1 601
1 602
1 603
1 604
1 605
1 606
1 607
1 608
1 609
1 610
1 611
1 612
1 613
1 614
1 615
1 616
1 617
1 618
1 619
1 620
1 621
1 622
1 623
1 624
1 625
1 626
1 627
1 628
1 629
1 630
1 631
1 632
1 633
1 634
1 635
1 636
1 637
1 638
1 639
1 640
1 641
1 642
1 643
1 644
1 645
1 646
1 647
1 648
1 649
1 650
1 651
1 652
1 653
1 654
1 655
1 656
1 657
1 658
1 659
1 660
1 661
1 662
1 663
1 664
1 665
1 666
1 667
1 668
1 669
1 670
1 671
1 672
1 673
1 674
1 675
1 676
1 677
1 678
1 679
1 680
1 681
1 682
1 683
1 684
1 685
1 686
1 687
1 688
1 689
1 690
1 691
1 692
1 693
1 694
1 695
1 696
1 697
1 698
1 699
1 700
1 701
1 702
1 703
1 704
1 705
1 706
1 707
1 708
1 709
1 710
1 711
1 712
1 713
1 714
1 715
1 716
1 717
1 718
1 719
1 720
1 721
1 722
1 723
1 724
1 725
1 726
1 727
1 728
1 729
1 730
1 731
1 732
1 733
1 734
1 735
1 736
1 737
1 738
1 739
1 740
1 741
1 742
1 743
1 744
1 745
1 746
1 747
1 748
1 749
1 750
1 751
1 752
1 753
1 754
1 755
1 756
1 757
1 758
1 759
1 760
1 761
1 762
1 763
1 764
1 765
1 766
1 767
1 768
1 769
1 770
1 771
1 772
1 773
1 774
1 775
1 776
1 777
1 778
1 779
1 780
1 781
1 782
1 783
1 784
1 785
1 786
1 787
1 788
1 789
1 790
1 791
1 792
1 793
1 794
1 795
1 796
1 797
1 798
1 799
1 800
1 801
1 802
1 803
1 804
1 805
1 806
1 807
1 808
1 809
1 810
1 811
1 812
1 813
1 814
1 815
1 816
1 817
1 818
1 819
1 820
1 821
1 822
1 823
1 824
1 825
1 826
1 827
1 828
1 829
1 830
1 831
1 832
1 833
1 834
1 835
1 836
1 837
1 838
1 839
1 840
1 841
1 842
1 843
1 844
1 845
1 846
1 847
1 848
1 849
1 850
1 851
1 852
1 853
1 854
1 855
1 856
1 857
1 858
1 859
1 860
1 861
1 862
1 863
1 864
1 865
1 866
1 867
1 868
1 869
1 870
1 871
1 872
1 873
1 874
1 875
1 876
1 877
1 878
1 879
1 880
1 881
1 882
1 883
1 884
1 885
1 886
1 887
1 888
1 889
1 890
1 891
1 892
1 893
1 894
1 895
1 896
1 897
1 898
1 899
1 900
1 901
1 902
1 903
1 904
1 905
1 906
1 907
1 908
1 909
1 910
1 911
1 912
1 913
1 914
1 915
1 916
1 917
1 918
1 919
1 920
1 921
1 922
1 923
1 924
1 925
1 926
1 927
1 928
1 929
1 930
1 931
1 932
1 933
1 934
1 935
1 936
1 937
1 938
1 939
1 940
1 941
1 942
1 943
1 944
1 945
1 946
1 947
1 948
1 949
1 950
1 951
1 952
1 953
1 954
1 955
1 956
1 957
1 958
1 959
1 960
1 961
1 962
1 963
1 964
1 965
1 966
1 967
1 968
1 969
1 970
1 971
1 972
1 973
1 974
1 975
1 976
1 977
1 978
1 979
1 980
1 981
1 982
1 983
1 984
1 985
1 986
1 987
1 988
1 989
1 990
1 991
1 992
1 993
1 994
1 995
1 996
1 997
1 998
1 999
1 1000
1 1001
1 1002
1 1003
1 1004
1 1005
1 1006
1 1007
1 1008
1 1009
1 1010
1 1011
1 1012
1 1013
1 1014
1 1015
1 1016
1 1017
1 1018
1 1019
1 1020
1 1021
1 1022
1 1023
1 1024
1 1025
1 1026
1 1027
1 1028
1 1029
1 1030
1 1031
1 1032
1 1033
1 1034
1 1035
1 1036
1 1037
1 1038
1 1039
1 1040
1 1041
1 1042
1 1043
1 1044
1 1045
1 1046
1 1047
1 1048
1 1049
1 1050
1 1051
1 1052
1 1053
1 1054
1 1055
1 1056
1 1057
1 1058
1 1059
1 1060
1 1061
1 1062
1 1063
1 1064
1 1065
1 1066
1 1067
1 1068
1 1069
1 1070
1 1071
1 1072
1 1073
1 1074
1 1075
1 1076
1 1077
1 1078
1 1079
1 1080
1 1081
1 1082
1 1083
1 1084
1 1085
1 1086
1 1087
1 1088
1 1089
1 1090
1 1091
1 1092
1 1093
1 1094
1 1095
1 1096
1 1097
1 1098
1 1099
1 1100
1 1101
1 1102
1 1103
1 1104
1 1105
1 1106
1 1107
1 1108
1 1109
1 1110
1 1111
1 1112
1 1113
1 1114
1 1115
1 1116
1 1117
1 1118
1 1119
1 1120
1 1121
1 1122
1 1123
1 1124
1 1125
1 1126
1 1127
1 1128
1 1129
1 1130
1 1131
1 1132
1 1133
1 1134
1 1135
1 1136
1 1137
1 1138
1 1139
1 1140
1 1141
1 1142
1 1143
1 1144
1 1145
1 1146
1 1147
1 1148
1 1149
1 1150
1 1151
1 1152
1 1153
1 1154
1 1155
1 1156
1 1157
1 1158
1 1159
1 1160
1 1161
1 1162
1 1163
1 1164
1 1165
1 1166
1 1167
1 1168
1 1169
1 1170
1 1171
1 1172
1 1173
1 1174
1 1175
1 1176
1 1177
1 1178
1 1179
1 1180
1 1181
1 1182
1 1183
1 1184
1 1185
1 1186
1 1187
1 1188
1 1189
1 1190
1 1191
1 1192
1 1193
1 1194
1 1195
1 1196
1 1197
1 1198
1 1199
1 1200
1 1201
1 1202
1 1203
1 1204
1 1205
1 1206
1 1207
1 1208
1 1209
1 1210
1 1211
1 1212
1 1213
1 1214
1 1215
1 1216
1 1217
1 1218
1 1219
1 1220
1 1221
1 1222
1 1223
1 1224
1 1225
1 1226
1 1227
1 1228
1 1229
1 1230
1 1231
1 1232
1 1233
1 1234
1 1235
1 1236
1 1237
1 1238
1 1239
1 1240
1 1241
1 1242
1 1243
1 1244
1 1245
1 1246
1 1247
1 1248
1 1249
1 1250
1 1251
1 1252
1 1253
1 1254
1 1255
1 1256
1 1257
1 1258
1 1259
1 1260
1 1261
1 1262
1 1263
1 1264
1 1265
1 1266
1 1267
1 1268
1 1269
1 1270
1 1271
1 1272
1 1273
1 1274
1 1275
1 1276
1 1277
1 1278
1 1279
1 1280
1 1281
1 1282
1 1283
1 1284
1 1285
1 1286
1 1287
1 1288
1 1289
1 1290
1 1291
1 1292
1 1293
1 1294
1 1295
1 1296
1 1297
1 1298
1 1299
1 1300
1 1301
1 1302
1 1303
1 1304
1 1305
1 1306
1 1307
1 1308
1 1309
1 1310
1 1311
1 1312
1 1313
1 1314
1 1315
1 1316
1 1317
1 1318
1 1319
1 1320
1 1321
1 1322
1 1323
1 1324
1 1325
1 1326
1 1327
1 1328
1 1329
1 1330
1 1331
1 1332
1 1333
1 1334
1 1335
1 1336
1 1337
1 1338
1 1339
1 1340
1 1341
1 1342
1 1343
1 1344
1 1345
1 1346
1 1347
1 1348
1 1349
1 1350
1 1351
1 1352
1 1353
1 1354
1 1355
1 1356
1 1357
1 1358
1 1359
1 1360
1 1361
1 1362
1 1363
1 1364
1 1365
1 1366
1 1367
1 1368
1 1369
1 1370
1 1371
1 1372
1 1373
1 1374
1 1375
1 1376
1 1377
1 1378
1 1379
1 1380
1 1381
1 1382
1 1383
1 1384
1 1385
1 1386
1 1387
1 1388
1 1389
1 1390
1 1391
1 1392
1 1393
1 1394
1 1395
1 1396
1 1397
1 1398
1 1399
1 1400
1 1401
1 1402
1 1403
1 1404
1 1405
1 1406
1 1407
1 1408
1 1409
1 1410
1 1411
1 1412
1 1413
1 1414
1 1415
1 1416
1 1417
1 1418
1 1419
1 1420
1 1421
1 1422
1 1423
1 1424
1 1425
1 1426
1 1427
1 1428
1 1429
1 1430
1 1431
1 1432
1 1433
1 1434
1 1435
1 1436
1 1437
1 1438
1 1439
1 1440
1 1441
1 1442
1 1443
1 1444
1 1445
1 1446
1 1447
1 1448
1 1449
1 1450
1 1451
1 1452
1 1453
1 1454
1 1455
1 1456
1 1457
1 1458
1 1459
1 1460
1 1461
1 1462
1 1463
1 1464
1 1465
1 1466
1 1467
1 1468
1 1469
1 1470
1 1471
1 1472
1 1473
1 1474
1 1475
1 1476
1 1477
1 1478
1 1479
1 1480
1 1481
1 1482
1 1483
1 1484
1 1485
1 1486
1 1487
1 1488
1 1489
1 1490
1 1491
1 1492
1 1493
1 1494
1 1495
1 1496
1 1497
1 1498
1 1499
1 1500
1 1501
1 1502
1 1503
1 1504
1 1505
1 1506
1 1507
1 1508
1 1509
1 1510
1 1511
1 1512
1 1513
1 1514
1 1515
1 1516
1 1517
1 1518
1 1519
1 1520
1 1521
1 1522
1 1523
1 1524
1 1525
1 1526
1 1527
1 1528
1 1529
1 1530
1 1531
1 1532
1 1533
1 1534
1 1535
1 1536
1 1537
1 1538
1 1539
1 1540
1 1541
1 1542
1 1543
1 1544
1 1545
1 1546
1 1547
1 1548
1 1549
1 1550
1 1551
1 1552
1 1553
1 1554
1 1555
1 1556
1 1557
1 1558
1 1559
1 1560
1 1561
1 1562
1 1563
1 1564
1 1565
1 1566
1 1567
1 1568
1 1569
1 1570
1 1571
1 1572
1 1573
1 1574
1 1575
1 1576
1 1577
1 1578
1 1579
1 1580
1 1581
1 1582
1 1583
1 1584
1 1585
1 1586
1 1587
1 1588
1 1589
1 1590
1 1591
1 1592
1 1593
1 1594
1 1595
1 1596
1 1597
1 1598
1 1599
1 1600
1 1601
1 1602
1 1603
1 1604
1 1605
1 1606
1 1607
1 1608
1 1609
1 1610
1 1611
1 1612
1 1613
1 1614
1 1615
1 1616
1 1617
1 1618
1 1619
1 1620
1 1621
1 1622
1 1623
1 1624
1 1625
1 1626
1 1627
1 1628
1 1629
1 1630
1 1631
1 1632
1 1633
1 1634
1 1635
1 1636
1 1637
1 1638
1 1639
1 1640
1 1641
1 1642
1 1643
1 1644
1 1645
1 1646
1 1647
1 1648
1 1649
1 1650
1 1651
1 1652
1 1653
1 1654
1 1655
1 1656
1 1657
1 1658
1 1659
1 1660
1 1661
1 1662
1 1663
1 1664
1 1665
1 1666
1 1667
1 1668
1 1669
1 1670
1 1671
1 1672
1 1673
1 1674
1 1675
1 1676
1 1677
1 1678
1 1679
1 1680
1 1681
1 1682
1 1683
1 1684
1 1685
1 1686
1 1687
1 1688
1 1689
1 1690
1 1691
1 1692
1 1693
1 1694
1 1695
1 1696
1 1697
1 1698
1 1699
1 1700
1 1701
1 1702
1 1703
1 1704
1 1705
1 1706
1 1707
1 1708
1 1709
1 1710
1 1711
1 1712
1 1713
1 1714
1 1715
1 1716
1 1717
1 1718
1 1719
1 1720
1 1721
1 1722
1 1723
1 1724
1 1725
1 1726
1 1727
1 1728
1 1729
1 1730
1 1731
1 1732
1 1733
1 1734
1 1735
1 1736
1 1737
1 1738
1 1739
1 1740
1 1741
1 1742
1 1743
1 1744
1 1745
1 1746
1 1747
1 1748
1 1749
1 1750
1 1751
1 1752
1 1753
1 1754
1 1755
1 1756
1 1757
1 1758
1 1759
1 1760
1 1761
1 1762
1 1763
1 1764
1 1765
1 1766
1 1767
1 1768
1 1769
1 1770
1 1771
1 1772
1 1773
1 1774
1 1775
1 1776
1 1777
1 1778
1 1779
1 1780
1 1781
1 1782
1 1783
1 1784
1 1785
1 1786
1 1787
1 1788
1 1789
1 1790
1 1791
1 1792
1 1793
1 1794
1 1795
1 1796
1 1797
1 1798
1 1799
1 1800
1 1801
1 1802
1 1803
1 1804
1 1805
1 1806
1 1807
1 1808
1 1809
1 1810
1 1811
1 1812
1 1813
1 1814
1 1815
1 1816
1 1817
1 1818
1 1819
1 1820
1 1821
1 1822
1 1823
1 1824
1 1825
1 1826
1 1827
1 1828
1 1829
1 1830
1 1831
1 1832
1 1833
1 1834
1 1835
1 1836
1 1837
1 1838
1 1839
1 1840
1 1841
1 1842
1 1843
1 1844
1 1845
1 1846
1 1847
1 1848
1 1849
1 1850
1 1851
1 1852
1 1853
1 1854
1 1855
1 1856
1 1857
1 1858
1 1859
1 1860
1 1861
1 1862
1 1863
1 1864
1 1865
1 1866
1 1867
1 1868
1 1869
1 1870
1 1871
1 1872
1 1873
1 1874
1 1875
1 1876
1 1877
1 1878
1 1879
1 1880
1 1881
1 1882
1 1883
1 1884
1 1885
1 1886
1 1887
1 1888
1 1889
1 1890
1 1891
1 1892
1 1893
1 1894
1 1895
1 1896
1 1897
1 1898
1 1899
1 1900
1 1901
1 1902
1 1903
1 1904
1 1905
1 1906
1 1907
1 1908
1 1909
1 1910
1 1911
1 1912
1 1913
1 1914
1 1915
1 1916
1 1917
1 1918
1 1919
1 1920
1 1921
1 1922
1 1923
1 1924
1 1925
1 1926
1 1927
1 1928
1 1929
1 1930
1 1931
1 1932
1 1933
1 1934
1 1935
1 1936
1 1937
1 1938
1 1939
1 1940
1 1941
1 1942
1 1943
1 1944
1 1945
1 1946
1 1947
1 1948
1 1949
1 1950
1 1951
1 1952
1 1953
1 1954
1 1955
1 1956
1 1957
1 1958
1 1959
1 1960
1 1961
1 1962
1 1963
1 1964
1 1965
1 1966
1 1967
1 1968
1 1969
1 1970
1 1971
1 1972
1 1973
1 1974
1 1975
1 1976
1 1977
1 1978
1 1979
1 1980
1 1981
1 1982
1 1983
1 1984
1 1985
1 1986
1 1987
1 1988
1 1989
1 1990
1 1991
1 1992
1 1993
1 1994
1 1995
1 1996
1 1997
1 1998
1 1999
1 2000
1 2001
1 2002
1 2003
1 2004
1 2005
1 2006
1 2007
1 2008
1 2009
1 2010
1 2011
1 2012
1 2013
1 2014
1 2015
1 2016
1 2017
1 2018
1 2019
1 2020
1 2021
1 2022
1 2023
1 2024
1 2025
1 2026
1 2027
1 2028
1 2029
1 2030
1 2031
1 2032
1 2033
1 2034
1 2035
1 2036
1 2037
1 2038
1 2039
1 2040
1 2041
1 2042
1 2043
1 2044
1 2045
1 2046
1 2047
1 2048
1 2049
1 2050
1 2051
1 2052
1 2053
1 2054
1 2055
1 2056
1 2057
1 2058
1 2059
1 2060
1 2061
1 2062
1 2063
1 2064
1 2065
1 2066
1 2067
1 2068
1 2069
1 2070
1 2071
1 2072
1 2073
1 2074
1 2075
1 2076
1 2077
1 2078
1 2079
1 2080
1 2081
1 2082
1 2083
1 2084
1 2085
1 2086
1 2087
1 2088
1 2089
1 2090
1 2091
1 2092
1 2093
1 2094
1 2095
1 2096
1 2097
1 2098
1 2099
1 2100
1 2101
1 2102
1 2103
1 2104
1 2105
1 2106
1 2107
1 2108
1 2109
1 2110
1 2111
1 2112
1 2113
1 2114
1 2115
1 2116
1 2117
1 2118
1 2119
1 2120
1 2121
1 2122
1 2123
1 2124
1 2125
1 2126
1 2127
1 2128
1 2129
1 2130
1 2131
1 2132
1 2133
1 2134
1 2135
1 2136
1 2137
1 2138
1 2139
1 2140
1 2141
1 2142
1 2143
1 2144
1 2145
1 2146
1 2147
1 2148
1 2149
1 2150
1 2151
1 2152
1 2153
1 2154
1 2155
1 2156
1 2157
1 2158
1 2159
1 2160
1 2161
1 2162
1 2163
1 2164
1 2165
1 2166
1 2167
1 2168
1 2169
1 2170
1 2171
1 2172
1 2173
1 2174
1 2175
1 2176
1 2177
1 2178
1 2179
1 2180
1 2181
1 2182
1 2183
1 2184
1 2185
1 2186
1 2187
1 2188
1 2189
1 2190
1 2191
1 2192
1 2193
1 2194
1 2195
1 2196
1 2197
1 2198
1 2199
1 2200
1 2201
1 2202
1 2203
1 2204
1 2205
1 2206
1 2207
1 2208
1 2209
1 2210
1 2211
1 2212
1 2213
1 2214
1 2215
1 2216
1 2217
1 2218
1 2219
1 2220
1 2221
1 2222
1 2223
1 2224
1 2225
1 2226
1 2227
1 2228
1 2229
1 2230
1 2231
1 2232
1 2233
1 2234
1 2235
1 2236
1 2237
1 2238
1 2239
1 2240
1 2241
1 2242
1 2243
1 2244
1 2245
1 2246
1 2247
1 2248
1 2249
1 2250
1 2251
1 2252
1 2253
1 2254
1 2255
1 2256
1 2257
1 2258
1 2259
1 2260
1 2261
1 2262
1 2263
1 2264
1 2265
1 2266
1 2267
1 2268
1 2269
1 2270
1 2271
1 2272
1 2273
1 2274
1 2275
1 2276
1 2277
1 2278
1 2279
1 2280
1 2281
1 2282
1 2283
1 2284
1 2285
1 2286
1 2287
1 2288
1 2289
1 2290
1 2291
1 2292
1 2293
1 2294
1 2295
1 2296
1 2297
1 2298
1 2299
1 2300
1 2301
1 2302
1 2303
1 2304
1 2305
1 2306
1 2307
1 2308
1 2309
1 2310
1 2311
1 2312
1 2313
1 2314
1 2315
1 2316
1 2317
1 2318
1 2319
1 2320
1 2321
1 2322
1 2323
1 2324
1 2325
1 2326
1 2327
1 2328
1 2329
1 2330
1 2331
1 2332
1 2333
1 2334
1 2335
1 2336
1 2337
1 2338
1 2339
1 2340
1 2341
1 2342
1 2343
1 2344
1 2345
1 2346
1 2347
1 2348
1 2349
1 2350
1 2351
1 2352
1 2353
1 2354
1 2355
1 2356
1 2357
1 2358
1 2359
1 2360
1 2361
1 2362
1 2363
1 2364
1 2365
1 2366
1 2367
1 2368
1 2369
1 2370
1 2371
1 2372
1 2373
1 2374
1 2375
1 2376
1 2377
1 2378
1 2379
1 2380
1 2381
1 2382
1 2383
1 2384
1 2385
1 2386
1 2387
1 2388
1 2389
1 2390
1 2391
1 2392
1 2393
1 2394
1 2395
1 2396
1 2397
1 2398
1 2399
1 2400
1 2401
1 2402
1 2403
1 2404
1 2405
1 2406
1 2407
1 2408
1 2409
1 2410
1 2411
1 2412
1 2413
1 2414
1 2415
1 2416
1 2417
1 2418
1 2419
1 2420
1 2421
1 2422
1 2423
1 2424
1 2425
1 2426
1 2427
1 2428
1 2429
1 2430
1 2431
1 2432
1 2433
1 2434
1 2435
1 2436
1 2437
1 2438
1 2439
1 2440
1 2441
1 2442
1 2443
1 2444
1 2445
1 2446
1 2447
1 2448
1 2449
1 2450
1 2451
1 2452
1 2453
1 2454
1 2455
1 2456
1 2457
1 2458
1 2459
1 2460
1 2461
1 2462
1 2463
1 2464
1 2465
1 2466
1 2467
1 2468
1 2469
1 2470
1 2471
1 2472
1 2473
1 2474
1 2475
1 2476
1 2477
1 2478
1 2479
1 2480
1 2481
1 2482
1 2483
1 2484
1 2485
1 2486
1 2487
1 2488
1 2489
1 2490
1 2491
1 2492
1 2493
1 2494
1 2495
1 2496
1 2497
1 2498
1 2499
1 2500
1 2501
1 2502
1 2503
1 2504
1 2505
1 2506
1 2507
1 2508
1 2509
1 2510
1 2511
1 2512
1 2513
1 2514
1 2515
1 2516
1 2517
1 2518
1 2519
1 2520
1 2521
1 2522
1 2523
1 2524
1 2525
1 2526
1 2527
1 2528
1 2529
1 2530
1 2531
1 2532
1 2533
1 2534
1 2535
1 2536
1 2537
1 2538
1 2539
1 2540
1 2541
1 2542
1 2543
1 2544
1 2545
1 2546
1 2547
1 2548
1 2549
1 2550
1 2551
1 2552
1 2553
1 2554
1 2555
1 2556
1 2557
1 2558
1 2559
1 2560
1 2561
1 2562
1 2563
1 2564
1 2565
1 2566
1 2567
1 2568
1 2569
1 2570
1 2571
1 2572
1 2573
1 2574
1 2575
1 2576
1 2577
1 2578
1 2579
1 2580
1 2581
1 2582
1 2583
1 2584
1 2585
1 2586
1 2587
1 2588
1 2589
1 2590
1 2591
1 2592
1 2593
1 2594
1 2595
1 2596
1 2597
1 2598
1 2599
1 2600
1 2601
1 2602
1 2603
1 2604
1 2605
1 2606
1 2607
1 2608
1 2609
1 2610
1 2611
1 2612
1 2613
1 2614
1 2615
1 2616
1 2617
1 2618
1 2619
1 2620
1 2621
1 2622
1 2623
1 2624
1 2625
1 2626
1 2627
1 2628
1 2629
1 2630
1 2631
1 2632
1 2633
1 2634
1 2635
1 2636
1 2637
1 2638
1 2639
1 2640
1 2641
1 2642
1 2643
1 2644
1 2645
1 2646
1 2647
1 2648
1 2649
1 2650
1 2651
1 2652
1 2653
1 2654
1 2655
1 2656
1 2657
1 2658
1 2659
1 2660
1 2661
1 2662
1 2663
1 2664
1 2665
1 2666
1 2667
1 2668
1 2669
1 2670
1 2671
1 2672
1 2673
1 2674
1 2675
1 2676
1 2677
1 2678
1 2679
1 2680
1 2681
1 2682
1 2683
1 2684
1 2685
1 2686
1 2687
1 2688
1 2689
1 2690
1 2691
1 2692
1 2693
1 2694
1 2695
1 2696
1 2697
1 2698
1 2699
1 2700
1 2701
1 2702
1 2703
1 2704
1 2705
1 2706
1 2707
1 2708
1 2709
1 2710
1 2711
1 2712
1 2713
1 2714
1 2715
1 2716
1 2717
1 2718
1 2719
1 2720
1 2721
1 2722
1 2723
1 2724
1 2725
1 2726
1 2727
1 2728
1 2729
1 2730
1 2731
1 2732
1 2733
1 2734
1 2735
1 2736
1 2737
1 2738
1 2739
1 2740
1 2741
1 2742
1 2743
1 2744
1 2745
1 2746
1 2747
1 2748
1 2749
1 2750
1 2751
1 2752
1 2753
1 2754
1 2755
1 2756
1 2757
1 2758
1 2759
1 2760
1 2761
1 2762
1 2763
1 2764
1 2765
1 2766
1 2767
1 2768
1 2769
1 2770
1 2771
1 2772
1 2773
1 2774
1 2775
1 2776
1 2777
1 2778
1 2779
1 2780
1 2781
1 2782
1 2783
1 2784
1 2785
1 2786
1 2787
1 2788
1 2789
1 2790
1 2791
1 2792
1 2793
1 2794
1 2795
1 2796
1 2797
1 2798
1 2799
1 2800
1 2801
1 2802
1 2803
1 2804
1 2805
1 2806
1 2807
1 2808
1 2809
1 2810
1 2811
1 2812
1 2813
1 2814
1 2815
1 2816
1 2817
1 2818
1 2819
1 2820
1 2821
1 2822
1 2823
1 2824
1 2825
1 2826
1 2827
1 2828
1 2829
1 2830
1 2831
1 2832
1 2833
1 2834
1 2835
1 2836
1 2837
1 2838
1 2839
1 2840
1 2841
1 2842
1 2843
1 2844
1 2845
1 2846
1 2847
1 2848
1 2849
1 2850
1 2851
1 2852
1 2853
1 2854
1 2855
1 2856
1 2857
1 2858
1 2859
1 2860
1 2861
1 2862
1 2863
1 2864
1 2865
1 2866
1 2867
1 2868
1 2869
1 2870
1 2871
1 2872
1 2873
1 2874
1 2875
1 2876
1 2877
1 2878
1 2879
1 2880
1 2881
1 2882
1 2883
1 2884
1 2885
1 2886
1 2887
1 2888
1 2889
1 2890
1 2891
1 2892
1 2893
1 2894
1 2895
1 2896
1 2897
1 2898
1 2899
1 2900
1 2901
1 2902
1 2903
1 2904
1 2905
1 2906
1 2907
1 2908
1 2909
1 2910
1 2911
1 2912
1 2913
1 2914
1 2915
1 2916
1 2917
1 2918
1 2919
1 2920
1 2921
1 2922
1 2923
1 2924
1 2925
1 2926
1 2927
1 2928
1 2929
1 2930
1 2931
1 2932
1 2933
1 2934
1 2935
1 2936
1 2937
1 2938
1 2939
1 2940
1 2941
1 2942
1 2943
1 2944
1 2945
1 2946
1 2947
1 2948
1 2949
1 2950
1 2951
1 2952
1 2953
1 2954
1 2955
1 2956
1 2957
1 2958
1 2959
1 2960
1 2961
1 2962
1 2963
1 2964
1 2965
1 2966
1 2967
1 2968
1 2969
1 2970
1 2971
1 2972
1 2973
1 2974
1 2975
1 2976
1 2977
1 2978
1 2979
1 2980
1 2981
1 2982
1 2983
1 2984
1 2985
1 2986
1 2987
1 2988
1 2989
1 2990
1 2991
1 2992
1 2993
1 2994
1 2995
1 2996
1 2997
1 2998
1 2999
1 3000
1 3001
1 3002
1 3003
1 3004
1 3005
1 3006
1 3007
1 3008
1 3009
1 3010
1 3011
1 3012
1 3013
1 3014
1 3015
1 3016
1 3017
1 3018
1 3019
1 3020
1 3021
1 3022
1 3023
1 3024
1 3025
1 3026
1 3027
1 3028
1 3029
1 3030
1 3031
1 3032
1 3033
1 3034
1 3035
1 3036
1 3037
1 3038
1 3039
1 3040
1 3041
1 3042
1 3043
1 3044
1 3045
1 3046
1 3047
1 3048
1 3049
1 3050
1 3051
1 3052
1 3053
1 3054
1 3055
1 3056
1 3057
1 3058
1 3059
1 3060
1 3061
1 3062
1 3063
1 3064
1 3065
1 3066
1 3067
1 3068
1 3069
1 3070
1 3071
1 3072
1 3073
1 3074
1 3075
1 3076
1 3077
1 3078
1 3079
1 3080
1 3081
1 3082
1 3083
1 3084
1 3085
1 3086
1 3087
1 3088
1 3089
1 3090
1 3091
1 3092
1 3093
1 3094
1 3095
1 3096
1 3097
1 3098
1 3099
1 3100
1 3101
1 3102
1 3103
1 3104
1 3105
1 3106
1 3107
1 3108
1 3109
1 3110
1 3111
1 3112
1 3113
1 3114
1 3115
1 3116
1 3117
1 3118
1 3119
1 3120
1 3121
1 3122
1 3123
1 3124
1 3125
1 3126
1 3127
1 3128
1 3129
1 3130
1 3131
1 3132
1 3133
1 3134
1 3135
1 3136
1 3137
1 3138
1 3139
1 3140
1 3141
1 3142
1 3143
1 3144
1 3145
1 3146
1 3147
1 3148
1 3149
1 3150
1 3151
1 3152
1 3153
1 3154
1 3155
1 3156
1 3157
1 3158
1 3159
1 3160
1 3161
1 3162
1 3163
1 3164
1 3165
1 3166
1 3167
1 3168
1 3169
1 3170
1 3171
1 3172
1 3173
1 3174
1 3175
1 3176
1 3177
1 3178
1 3179
1 3180
1 3181
1 3182
1 3183
1 3184
1 3185
1 3186
1 3187
1 3188
1 3189
1 3190
1 3191
1 3192
1 3193
1 3194
1 3195
1 3196
1 3197
1 3198
1 3199
1 3200
1 3201
1 3202
1 3203
1 3204
1 3205
1 3206
1 3207
1 3208
1 3209
1 3210
1 3211
1 3212
1 3213
1 3214
1 3215
1 3216
1 3217
1 3218
1 3219
1 3220
1 3221
1 3222
1 3223
1 3224
1 3225
1 3226
1 3227
1 3228
1 3229
1 3230
1 3231
1 3232
1 3233
1 3234
1 3235
1 3236
1 3237
1 3238
1 3239
1 3240
1 3241
1 3242
1 3243
1 3244
1 3245
1 3246
1 3247
1 3248
1 3249
1 3250
1 3251
1 3252
1 3253
1 3254
1 3255
1 3256
1 3257
1 3258
1 3259
1 3260
1 3261
1 3262
1 3263
1 3264
1 3265
1 3266
1 3267
1 3268
1 3269
1 3270
1 3271
1 3272
1 3273
1 3274
1 3275
1 3276
1 3277
1 3278
1 3279
1 3280
1 3281
1 3282
1 3283
1 3284
1 3285
1 3286
1 3287
1 3288
1 3289
1 3290
1 3291
1 3292
1 3293
1 3294
1 3295
1 3296
1 3297
1 3298
1 3299
1 3300
1 3301
1 3302
1 3303
1 3304
1 3305
1 3306
1 3307
1 3308
1 3309
1 3310
1 3311
1 3312
1 3313
1 3314
1 3315
1 3316
1 3317
1 3318
1 3319
1 3320
1 3321
1 3322
1 3323
1 3324
1 3325
1 3326
1 3327
1 3328
1 3329
1 3330
1 3331
1 3332
1 3333
1 3334
1 3335
1 3336
1 3337
1 3338
1 3339
1 3340
1 3341
1 3342
1 3343
1 3344
1 3345
1 3346
1 3347
1 3348
1 3349
1 3350
1 3351
1 3352
1 3353
1 3354
1 3355
1 3356
1 3357
1 3358
1 3359
1 3360
1 3361
1 3362
1 3363
1 3364
1 3365
1 3366
1 3367
1 3368
1 3369
1 3370
1 3371
1 3372
1 3373
1 3374
1 3375
1 3376
1 3377
1 3378
1 3379
1 3380
1 3381
1 3382
1 3383
1 3384
1 3385
1 3386
1 3387
1 3388
1 3389
1 3390
1 3391
1 3392
1 3393
1 3394
1 3395
1 3396
1 3397
1 3398
1 3399
1 3400
1 3401
1 3402
1 3403
1 3404
1 3405
1 3406
1 3407
1 3408
1 3409
1 3410
1 3411
1 3412
1 3413
1 3414
1 3415
1 3416
1 3417
1 3418
1 3419
1 3420
1 3421
1 3422
1 3423
1 3424
1 3425
1 3426
1 3427
1 3428
1 3429
1 3430
1 3431
1 3432
1 3433
1 3434
1 3435
1 3436
1 3437
1 3438
1 3439
1 3440
1 3441
1 3442
1 3443
1 3444
1 3445
1 3446
1 3447
1 3448
1 3449
1 3450
1 3451
1 3452
1 3453
1 3454
1 3455
1 3456
1 3457
1 3458
1 3459
1 3460
1 3461
1 3462
1 3463
1 3464
1 3465
1 3466
1 3467
1 3468
1 3469
1 3470
1 3471
1 3472
1 3473
1 3474
1 3475
1 3476
1 3477
1 3478
1 3479
1 3480
1 3481
1 3482
1 3483
1 3484
1 3485
1 3486
1 3487
1 3488
1 3489
1 3490
1 3491
1 3492
1 3493
1 3494
1 3495
1 3496
1 3497
1 3498
1 3499
1 3500
1 3501
1 3502
1 3503
1 3504
1 3505
1 3506
1 3507
1 3508
1 3509
1 3510
1 3511
1 3512
1 3513
1 3514
1 3515
1 3516
1 3517
1 3518
1 3519
1 3520
1 3521
1 3522
1 3523
1 3524
1 3525
1 3526
1 3527
1 3528
1 3529
1 3530
1 3531
1 3532
1 3533
1 3534
1 3535
1 3536
1 3537
1 3538
1 3539
1 3540
1 3541
1 3542
1 3543
1 3544
1 3545
1 3546
1 3547
1 3548
1 3549
1 3550
1 3551
1 3552
1 3553
1 3554
1 3555
1 3556
1 3557
1 3558
1 3559
1 3560
1 3561
1 3562
1 3563
1 3564
1 3565
1 3566
1 3567
1 3568
1 3569
1 3570
1 3571
1 3572
1 3573
1 3574
1 3575
1 3576
1 3577
1 3578
1 3579
1 3580
1 3581
1 3582
1 3583
1 3584
1 3585
1 3586
1 3587
1 3588
1 3589
1 3590
1 3591
1 3592
1 3593
1 3594
1 3595
1 3596
1 3597
1 3598
1 3599
1 3600
1 3601
1 3602
1 3603
1 3604
1 3605
1 3606
1 3607
1 3608
1 3609
1 3610
1 3611
1 3612
1 3613
1 3614
1 3615
1 3616
1 3617
1 3618
1 3619
1 3620
1 3621
1 3622
1 3623
1 3624
1 3625
1 3626
1 3627
1 3628
1 3629
1 3630
1 3631
1 3632
1 3633
1 3634
1 3635
1 3636
1 3637
1 3638
1 3639
1 3640
1 3641
1 3642
1 3643
1 3644
1 3645
1 3646
1 3647
1 3648
1 3649
1 3650
1 3651
1 3652
1 3653
1 3654
1 3655
1 3656
1 3657
1 3658
1 3659
1 3660
1 3661
1 3662
1 3663
1 3664
1 3665
1 3666
1 3667
1 3668
1 3669
1 3670
1 3671
1 3672
1 3673
1 3674
1 3675
1 3676
1 3677
1 3678
1 3679
1 3680
1 3681
1 3682
1 3683
1 3684
1 3685
1 3686
1 3687
1 3688
1 3689
1 3690
1 3691
1 3692
1 3693
1 3694
1 3695
1 3696
1 3697
1 3698
1 3699
1 3700
1 3701
1 3702
1 3703
1 3704
1 3705
1 3706
1 3707
1 3708
1 3709
1 3710
1 3711
1 3712
1 3713
1 3714
1 3715
1 3716
1 3717
1 3718
1 3719
1 3720
1 3721
1 3722
1 3723
1 3724
1 3725
1 3726
1 3727
1 3728
1 3729
1 3730
1 3731
1 3732
1 3733
1 3734
1 3735
1 3736
1 3737
1 3738
1 3739
1 3740
1 3741
1 3742
1 3743
1 3744
1 3745
1 3746
1 3747
1 3748
1 3749
1 3750
1 3751
1 3752
1 3753
1 3754
1 3755
1 3756
1 3757
1 3758
1 3759
1 3760
1 3761
1 3762
1 3763
1 3764
1 3765
1 3766
1 3767
1 3768
1 3769
1 3770
1 3771
1 3772
1 3773
1 3774
1 3775
1 3776
1 3777
1 3778
1 3779
1 3780
1 3781
1 3782
1 3783
1 3784
1 3785
1 3786
1 3787
1 3788
1 3789
1 3790
1 3791
1 3792
1 3793
1 3794
1 3795
1 3796
1 3797
1 3798
1 3799
1 3800
1 3801
1 3802
1 3803
1 3804
1 3805
1 3806
1 3807
1 3808
1 3809
1 3810
1 3811
1 3812
1 3813
1 3814
1 3815
1 3816
1 3817
1 3818
1 3819
1 3820
1 3821
1 3822
1 3823
1 3824
1 3825
1 3826
1 3827
1 3828
1 3829
1 3830
1 3831
1 3832
1 3833
1 3834
1 3835
1 3836
1 3837
1 3838
1 3839
1 3840
1 3841
1 3842
1 3843
1 3844
1 3845
1 3846
1 3847
1 3848
1 3849
1 3850
1 3851
1 3852
1 3853
1 3854
1 3855
1 3856
1 3857
1 3858
1 3859
1 3860
1 3861
1 3862
1 3863
1 3864
1 3865
1 3866
1 3867
1 3868
1 3869
1 3870
1 3871
1 3872
1 3873
1 3874
1 3875
1 3876
1 3877
1 3878
1 3879
1 3880
1 3881
1 3882
1 3883
1 3884
1 3885
1 3886
1 3887
1 3888
1 3889
1 3890
1 3891
1 3892
1 3893
1 3894
1 3895
1 3896
1 3897
1 3898
1 3899
1 3900
1 3901
1 3902
1 3903
1 3904
1 3905
1 3906
1 3907
1 3908
1 3909
1 3910
1 3911
1 3912
1 3913
1 3914
1 3915
1 3916
1 3917
1 3918
1 3919
1 3920
1 3921
1 3922
1 3923
1 3924
1 3925
1 3926
1 3927
1 3928
1 3929
1 3930
1 3931
1 3932
1 3933
1 3934
1 3935
1 3936
1 3937
1 3938
1 3939
1 3940
1 3941
1 3942
1 3943
1 3944
1 3945
1 3946
1 3947
1 3948
1 3949
1 3950
1 3951
1 3952
1 3953
1 3954
1 3955
1 3956
1 3957
1 3958
1 3959
1 3960
1 3961
1 3962
1 3963
1 3964
1 3965
1 3966
1 3967
1 3968
1 3969
1 3970
1 3971
1 3972
1 3973
1 3974
1 3975
1 3976
1 3977
1 3978
1 3979
1 3980
1 3981
1 3982
1 3983
1 3984
1 3985
1 3986
1 3987
1 3988
1 3989
1 3990
1 3991
1 3992
1 3993
1 3994
1 3995
1 3996
1 3997
1 3998
1 3999
1 4000
1 4001
1 4002
1 4003
1 4004
1 4005
1 4006
1 4007
1 4008
1 4009
1 4010
1 4011
1 4012
1 4013
1 4014
1 4015
1 4016
1 4017
1 4018
1 4019
1 4020
1 4021
1 4022
1 4023
1 4024
1 4025
1 4026
1 4027
1 4028
1 4029
1 4030
1 4031
1 4032
1 4033
1 4034
1 4035
1 4036
1 4037
1 4038
1 4039
1 4040
1 4041
1 4042
1 4043
1 4044
1 4045
1 4046
1 4047
1 4048
1 4049
1 4050
1 4051
1 4052
1 4053
1 4054
1 4055
1 4056
1 4057
1 4058
1 4059
1 4060
1 4061
1 4062
1 4063
1 4064
1 4065
1 4066
1 4067
1 4068
1 4069
1 4070
1 4071
1 4072
1 4073
1 4074
1 4075
1 4076
1 4077
1 4078
1 4079
1 4080
1 4081
1 4082
1 4083
1 4084
1 4085
1 4086
1 4087
1 4088
1 4089
1 4090
1 4091
1 4092
1 4093
1 4094
1 4095
1 4096
1 4097
1 4098
1 4099
1 4100
1 4101
1 4102
1 4103
1 4104
1 4105
1 4106
1 4107
1 4108
1 4109
1 4110
1 4111
1 4112
1 4113
1 4114
1 4115
1 4116
1 4117
1 4118
1 4119
1 4120
1 4121
1 4122
1 4123
1 4124
1 4125
1 4126
1 4127
1 4128
1 4129
1 4130
1 4131
1 4132
1 4133
1 4134
1 4135
1 4136
1 4137
1 4138
1 4139
1 4140
1 4141
1 4142
1 4143
1 4144
1 4145
1 4146
1 4147
1 4148
1 4149
1 4150
1 4151
1 4152
1 4153
1 4154
1 4155
1 4156
1 4157
1 4158
1 4159
1 4160
1 4161
1 4162
1 4163
1 4164
1 4165
1 4166
1 4167
1 4168
1 4169
1 4170
1 4171
1 4172
1 4173
1 4174
1 4175
1 4176
1 4177
1 4178
1 4179
1 4180
1 4181
1 4182
1 4183
1 4184
1 4185
1 4186
1 4187
1 4188
1 4189
1 4190
1 4191
1 4192
1 4193
1 4194
1 4195
1 4196
1 4197
1 4198
1 4199
1 4200
1 4201
1 4202
1 4203
1 4204
1 4205
1 4206
1 4207
1 4208
1 4209
1 4210
1 4211
1 4212
1 4213
1 4214
1 4215
1 4216
1 4217
1 4218
1 4219
1 4220
1 4221
1 4222
1 4223
1 4224
1 4225
1 4226
1 4227
1 4228
1 4229
1 4230
1 4231
1 4232
1 4233
1 4234
1 4235
1 4236
1 4237
1 4238
1 4239
1 4240
1 4241
1 4242
1 4243
1 4244
1 4245
1 4246
1 4247
1 4248
1 4249
1 4250
1 4251
1 4252
1 4253
1 4254
1 4255
1 4256
1 4257
1 4258
1 4259
1 4260
1 4261
1 4262
1 4263
1 4264
1 4265
1 4266
1 4267
1 4268
1 4269
1 4270
1 4271
1 4272
1 4273
1 4274
1 4275
1 4276
1 4277
1 4278
1 4279
1 4280
1 4281
1 4282
1 4283
1 4284
1 4285
1 4286
1 4287
1 4288
1 4289
1 4290
1 4291
1 4292
1 4293
1 4294
1 4295
1 4296
1 4297
1 4298
1 4299
1 4300
1 4301
1 4302
1 4303
1 4304
1 4305
1 4306
1 4307
1 4308
1 4309
1 4310
1 4311
1 4312
1 4313
1 4314
1 4315
1 4316
1 4317
1 4318
1 4319
1 4320
1 4321
1 4322
1 4323
1 4324
1 4325
1 4326
1 4327
1 4328
1 4329
1 4330
1 4331
1 4332
1 4333
1 4334
1 4335
1 4336
1 4337
1 4338
1 4339
1 4340
1 4341
1 4342
1 4343
1 4344
1 4345
1 4346
1 4347
1 4348
1 4349
1 4350
1 4351
1 4352
1 4353
1 4354
1 4355
1 4356
1 4357
1 4358
1 4359
1 4360
1 4361
1 4362
1 4363
1 4364
1 4365
1 4366
1 4367
1 4368
1 4369
1 4370
1 4371
1 4372
1 4373
1 4374
1 4375
1 4376
1 4377
1 4378
1 4379
1 4380
1 4381
1 4382
1 4383
1 4384
1 4385
1 4386
1 4387
1 4388
1 4389
1 4390
1 4391
1 4392
1 4393
1 4394
1 4395
1 4396
1 4397
1 4398
1 4399
1 4400
1 4401
1 4402
1 4403
1 4404
1 4405
1 4406
1 4407
1 4408
1 4409
1 4410
1 4411
1 4412
1 4413
1 4414
1 4415
1 4416
1 4417
1 4418
1 4419
1 4420
1 4421
1 4422
1 4423
1 4424
1 4425
1 4426
1 4427
1 4428
1 4429
1 4430
1 4431
1 4432
1 4433
1 4434
1 4435
1 4436
1 4437
1 4438
1 4439
1 4440
1 4441
1 4442
1 4443
1 4444
1 4445
1 4446
1 4447
1 4448
1 4449
1 4450
1 4451
1 4452
1 4453
1 4454
1 4455
1 4456
1 4457
1 4458
1 4459
1 4460
1 4461
1 4462
1 4463
1 4464
1 4465
1 4466
1 4467
1 4468
1 4469
1 4470
1 4471
1 4472
1 4473
1 4474
1 4475
1 4476
1 4477
1 4478
1 4479
1 4480
1 4481
1 4482
1 4483
1 4484
1 4485
1 4486
1 4487
1 4488
1 4489
1 4490
1 4491
1 4492
1 4493
1 4494
1 4495
1 4496
1 4497
1 4498
1 4499
1 4500
1 4501
1 4502
1 4503
1 4504
1 4505
1 4506
1 4507
1 4508
1 4509
1 4510
1 4511
1 4512
1 4513
1 4514
1 4515
1 4516
1 4517
1 4518
1 4519
1 4520
1 4521
1 4522
1 4523
1 4524
1 4525
1 4526
1 4527
1 4528
1 4529
1 4530
1 4531
1 4532
1 4533
1 4534
1 4535
1 4536
1 4537
1 4538
1 4539
1 4540
1 4541
1 4542
1 4543
1 4544
1 4545
1 4546
1 4547
1 4548
1 4549
1 4550
1 4551
1 4552
1 4553
1 4554
1 4555
1 4556
1 4557
1 4558
1 4559
1 4560
1 4561
1 4562
1 4563
1 4564
1 4565
1 4566
1 4567
1 4568
1 4569
1 4570
1 4571
1 4572
1 4573
1 4574
1 4575
1 4576
1 4577
1 4578
1 4579
1 4580
1 4581
1 4582
1 4583
1 4584
1 4585
1 4586
1 4587
1 4588
1 4589
1 4590
1 4591
1 4592
1 4593
1 4594
1 4595
1 4596
1 4597
1 4598
1 4599
1 4600
1 4601
1 4602
1 4603
1 4604
1 4605
1 4606
1 4607
1 4608
1 4609
1 4610
1 4611
1 4612
1 4613
1 4614
1 4615
1 4616
1 4617
1 4618
1 4619
1 4620
1 4621
1 4622
1 4623
1 4624
1 4625
1 4626
1 4627
1 4628
1 4629
1 4630
1 4631
1 4632
1 4633
1 4634
1 4635
1 4636
1 4637
1 4638
1 4639
1 4640
1 4641
1 4642
1 4643
1 4644
1 4645
1 4646
1 4647
1 4648
1 4649
1 4650
1 4651
1 4652
1 4653
1 4654
1 4655
1 4656
1 4657
1 4658
1 4659
1 4660
1 4661
1 4662
1 4663
1 4664
1 4665
1 4666
1 4667
1 4668
1 4669
1 4670
1 4671
1 4672
1 4673
1 4674
1 4675
1 4676
1 4677
1 4678
1 4679
1 4680
1 4681
1 4682
1 4683
1 4684
1 4685
1 4686
1 4687
1 4688
1 4689
1 4690
1 4691
1 4692
1 4693
1 4694
1 4695
1 4696
1 4697
1 4698
1 4699
1 4700
1 4701
1 4702
1 4703
1 4704
1 4705
1 4706
1 4707
1 4708
1 4709
1 4710
1 4711
1 4712
1 4713
1 4714
1 4715
1 4716
1 4717
1 4718
1 4719
1 4720
1 4721
1 4722
1 4723
1 4724
1 4725
1 4726
1 4727
1 4728
1 4729
1 4730
1 4731
1 4732
1 4733
1 4734
1 4735
1 4736
1 4737
1 4738
1 4739
1 4740
1 4741
1 4742
1 4743
1 4744
1 4745
1 4746
1 4747
1 4748
1 4749
1 4750
1 4751
1 4752
1 4753
1 4754
1 4755
1 4756
1 4757
1 4758
1 4759
1 4760
1 4761
1 4762
1 4763
1 4764
1 4765
1 4766
1 4767
1 4768
1 4769
1 4770
1 4771
1 4772
1 4773
1 4774
1 4775
1 4776
1 4777
1 4778
1 4779
1 4780
1 4781
1 4782
1 4783
1 4784
1 4785
1 4786
1 4787
1 4788
1 4789
1 4790
1 4791
1 4792
1 4793
1 4794
1 4795
1 4796
1 4797
1 4798
1 4799
1 4800
1 4801
1 4802
1 4803
1 4804
1 4805
1 4806
1 4807
1 4808
1 4809
1 4810
1 4811
1 4812
1 4813
1 4814
1 4815
1 4816
1 4817
1 4818
1 4819
1 4820
1 4821
1 4822
1 4823
1 4824
1 4825
1 4826
1 4827
1 4828
1 4829
1 4830
1 4831
1 4832
1 4833
1 4834
1 4835
1 4836
1 4837
1 4838
1 4839
1 4840
1 4841
1 4842
1 4843
1 4844
1 4845
1 4846
1 4847
1 4848
1 4849
1 4850
1 4851
1 4852
1 4853
1 4854
1 4855
1 4856
1 4857
1 4858
1 4859
1 4860
1 4861
1 4862
1 4863
1 4864
1 4865
1 4866
1 4867
1 4868
1 4869
1 4870
1 4871
1 4872
1 4873
1 4874
1 4875
1 4876
1 4877
1 4878
1 4879
1 4880
1 4881
1 4882
1 4883
1 4884
1 4885
1 4886
1 4887
1 4888
1 4889
1 4890
1 4891
1 4892
1 4893
1 4894
1 4895
1 4896
1 4897
1 4898
1 4899
1 4900
1 4901
1 4902
1 4903
1 4904
1 4905
1 4906
1 4907
1 4908
1 4909
1 4910
1 4911
1 4912
1 4913
1 4914
1 4915
1 4916
1 4917
1 4918
1 4919
1 4920
1 4921
1 4922
1 4923
1 4924
1 4925
1 4926
1 4927
1 4928
1 4929
1 4930
1 4931
1 4932
1 4933
1 4934
1 4935
1 4936
1 4937
1 4938
1 4939
1 4940
1 4941
1 4942
1 4943
1 4944
1 4945
1 4946
1 4947
1 4948
1 4949
1 4950
1 4951
1 4952
1 4953
1 4954
1 4955
1 4956
1 4957
1 4958
1 4959
1 4960
1 4961
1 4962
1 4963
1 4964
1 4965
1 4966
1 4967
1 4968
1 4969
1 4970
1 4971
1 4972
1 4973
1 4974
1 4975
1 4976
1 4977
1 4978
1 4979
1 4980
1 4981
1 4982
1 4983
1 4984
1 4985
1 4986
1 4987
1 4988
1 4989
1 4990
1 4991
1 4992
1 4993
1 4994
1 4995
1 4996
1 4997
1 4998
1 4999
CELL_TYPES 5000
1 
1 
1 
1 
1 
1 
1 
1 
1 
1 
1 
1 
1 
1 
1 
1 
1 
1 
1 
1 
1 
1 
1 
1 
1 
1 
1 
1 
1 
1 
1 
1 
1 
1 
1 
1 
1 
1 
1 
1 
1 
1 
1 
1 
1 
1 
1 
1 
1 
1 
1 
1 
1 
1 
1 
1 
1 
1 
1 
1 
1 
1 
1 
1 
1 
1 
1 
1 
1 
1 
1 
1 
1 
1 
1 
1 
1 
1 
1 
1 
1 
1 
1 
1 
1 
1 
1 
1 
1 
1 
1 
1 
1 
1 
1 
1 
1 
1 
1 
1 
1 
1 
1 
1 
1 
1 
1 
1 
1 
1 
1 
1 
1 
1 
1 
1 
1 
1 
1 
1 
1 
1 
1 
1 
1 
1 
1 
1 
1 
1 
1 
1 
1 
1 
1 
1 
1 
1 
1 
1 
1 
1 
1 
1 
1 
1 
1 
1 
1 
1 
1 
1 
1 
1 
1 
1 
1 
1 
1 
1 
1 
1 
1 
1 
1 
1 
1 
1 
1 
1 
1 
1 
1 
1 
1 
1 
1 
1 
1 
1 
1 
1 
1 
1 
1 
1 
1 
1 
1 
1 
1 
1 
1 
1 
1 
1 
1 
1 
1 
1 
1 
1 
1 
1 
1 
1 
1 
1 
1 
1 
1 
1 
1 
1 
1 
1 
1 
1 
1 
1 
1 
1 
1 
1 
1 
1 
1 
1 
1 
1 
1 
1 
1 
1 
1 
1 
1 
1 
1 
1 
1 
1 
1 
1 
1 
1 
1 
1 
1 
1 
1 
1 
1 
1 
1 
1 
1 
1 
1 
1 
1 
1 
1 
1 
1 
1 
1 
1 
1 
1 
1 
1 
1 
1 
1 
1 
1 
1 
1 
1 
1 
1 
1 
1 
1 
1 
1 
1 
1 
1 
1 
1 
1 
1 
1 
1 
1 
1 
1 
1 
1 
1 
1 
1 
1 
1 
1 
1 
1 
1 
1 
1 
1 
1 
1 
1 
1 
1 
1 
1 
1 
1 
1 
1 
1 
1 
1 
1 
1 
1 
1 
1 
1 
1 
1 
1 
1 
1 
1 
1 
1 
1 
1 
1 
1 
1 
1 
1 
1 
1 
1 
1 
1 
1 
1 
1 
1 
1 
1 
1 
1 
1 
1 
1 
1 
1 
1 
1 
1 
1 
1 
1 
1 
1 
1 
1 
1 
1 
1 
1 
1 
1 
1 
1 
1 
1 
1 
1 
1 
1 
1 
1 
1 
1 
1 
1 
1 
1 
1 
1 
1 
1 
1 
1 
1 
1 
1 
1 
1 
1 
1 
1 
1 
1 
1 
1 
1 
1 
1 
1 
1 
1 
1 
1 
1 
1 
1 
1 
1 
1 
1 
1 
1 
1 
1 
1 
1 
1 
1 
1 
1 
1 
1 
1 
1 
1 
1 
1 
1 
1 
1 
1 
1 
1 
1 
1 
1 
1 
1 
1 
1 
1 
1 
1 
1 
1 
1 
1 
1 
1 
1 
1 
1 
1 
1 
1 
1 
1 
1 
1 
1 
1 
1 
1 
1 
1 
1 
1 
1 
1 
1 
1 
1 
1 
1 
1 
1 
1 
1 
1 
1 
1 
1 
1 
1 
1 
1 
1 
1 
1 
1 
1 
1 
1 
1 
1 
1 
1 
1 
1 
1 
1 
1 
1 
1 
1 
1 
1 
1 
1 
1 
1 
1 
1 
1 
1 
1 
1 
1 
1 
1 
1 
1 
1 
1 
1 
1 
1 
1 
1 
1 
1 
1 
1 
1 
1 
1 
1 
1 
1 
1 
1 
1 
1 
1 
1 
1 
1 
1 
1 
1 
1 
1 
1 
1 
1 
1 
1 
1 
1 
1 
1 
1 
1 
1 
1 
1 
1 
1 
1 
1 
1 
1 
1 
1 
1 
1 
1 
1 
1 
1 
1 
1 
1 
1 
1 
1 
1 
1 
1 
1 
1 
1 
1 
1 
1 
1 
1 
1 
1 
1 
1 
1 
1 
1 
1 
1 
1 
1 
1 
1 
1 
1 
1 
1 
1 
1 
1 
1 
1 
1 
1 
1 
1 
1 
1 
1 
1 
1 
1 
1 
1 
1 
1 
1 
1 
1 
1 
1 
1 
1 
1 
1 
1 
1 
1 
1 
1 
1 
1 
1 
1 
1 
1 
1 
1 
1 
1 
1 
1 
1 
1 
1 
1 
1 
1 
1 
1 
1 
1 
1 
1 
1 
1 
1 
1 
1 
1 
1 
1 
1 
1 
1 
1 
1 
1 
1 
1 
1 
1 
1 
1 
1 
1 
1 
1 
1 
1 
1 
1 
1 
1 
1 
1 
1 
1 
1 
1 
1 
1 
1 
1 
1 
1 
1 
1 
1 
1 
1 
1 
1 
1 
1 
1 
1 
1 
1 
1 
1 
1 
1 
1 
1 
1 
1 
1 
1 
1 
1 
1 
1 
1 
1 
1 
1 
1 
1 
1 
1 
1 
1 
1 
1 
1 
1 
1 
1 
1 
1 
1 
1 
1 
1 
1 
1 
1 
1 
1 
1 
1 
1 
1 
1 
1 
1 
1 
1 
1 
1 
1 
1 
1 
1 
1 
1 
1 
1 
1 
1 
1 
1 
1 
1 
1 
1 
1 
1 
1 
1 
1 
1 
1 
1 
1 
1 
1 
1 
1 
1 
1 
1 
1 
1 
1 
1 
1 
1 
1 
1 
1 
1 
1 
1 
1 
1 
1 
1 
1 
1 
1 
1 
1 
1 
1 
1 
1 
1 
1 
1 
1 
1 
1 
1 
1 
1 
1 
1 
1 
1 
1 
1 
1 
1 
1 
1 
1 
1 
1 
1 
1 
1 
1 
1 
1 
1 
1 
1 
1 
1 
1 
1 
1 
1 
1 
1 
1 
1 
1 
1 
1 
1 
1 
1 
1 
1 
1 
1 
1 
1 
1 
1 
1 
1 
1 
1 
1 
1 
1 
1 
1 
1 
1 
1 
1 
1 
1 
1 
1 
1 
1 
1 
1 
1 
1 
1 
1 
1 
1 
1 
1 
1 
1 
1 
1 
1 
1 
1 
1 
1 
1 
1 
1 
1 
1 
1 
1 
1 
1 
1 
1 
1 
1 
1 
1 
1 
1 
1 
1 
1 
1 
1 
1 
1 
1 
1 
1 
1 
1 
1 
1 
1 
1 
1 
1 
1 
1 
1 
1 
1 
1 
1 
1 
1 
1 
1 
1 
1 
1 
1 
1 
1 
1 
1 
1 
1 
1 
1 
1 
1 
1 
1 
1 
1 
1 
1 
1 
1 
1 
1 
1 
1 
1 
1 
1 
1 
1 
1 
1 
1 
1 
1 
1 
1 
1 
1 
1 
1 
1 
1 
1 
1 
1 
1 
1 
1 
1 
1 
1 
1 
1 
1 
1 
1 
1 
1 
1 
1 
1 
1 
1 
1 
1 
1 
1 
1 
1 
1 
1 
1 
1 
1 
1 
1 
1 
1 
1 
1 
1 
1 
1 
1 
1 
1 
1 
1 
1 
1 
1 
1 
1 
1 
1 
1 
1 
1 
1 
1 
1 
1 
1 
1 
1 
1 
1 
1 
1 
1 
1 
1 
1 
1 
1 
1 
1 
1 
1 
1 
1 
1 
1 
1 
1 
1 
1 
1 
1 
1 
1 
1 
1 
1 
1 
1 
1 
1 
1 
1 
1 
1 
1 
1 
1 
1 
1 
1 
1 
1 
1 
1 
1 
1 
1 
1 
1 
1 
1 
1 
1 
1 
1 
1 
1 
1 
1 
1 
1 
1 
1 
1 
1 
1 
1 
1 
1 
1 
1 
1 
1 
1 
1 
1 
1 
1 
1 
1 
1 
1 
1 
1 
1 
1 
1 
1 
1 
1 
1 
1 
1 
1 
1 
1 
1 
1 
1 
1 
1 
1 
1 
1 
1 
1 
1 
1 
1 
1 
1 
1 
1 
1 
1 
1 
1 
1 
1 
1 
1 
1 
1 
1 
1 
1 
1 
1 
1 
1 
1 
1 
1 
1 
1 
1 
1 
1 
1 
1 
1 
1 
1 
1 
1 
1 
1 
1 
1 
1 
1 
1 
1 
1 
1 
1 
1 
1 
1 
1 
1 
1 
1 
1 
1 
1 
1 
1 
1 
1 
1 
1 
1 
1 
1 
1 
1 
1 
1 
1 
1 
1 
1 
1 
1 
1 
1 
1 
1 
1 
1 
1 
1 
1 
1 
1 
1 
1 
1 
1 
1 
1 
1 
1 
1 
1 
1 
1 
1 
1 
1 
1 
1 
1 
1 
1 
1 
1 
1 
1 
1 
1 
1 
1 
1 
1 
1 
1 
1 
1 
1 
1 
1 
1 
1 
1 
1 
1 
1 
1 
1 
1 
1 
1 
1 
1 
1 
1 
1 
1 
1 
1 
1 
1 
1 
1 
1 
1 
1 
1 
1 
1 
1 
1 
1 
1 
1 
1 
1 
1 
1 
1 
1 
1 
1 
1 
1 
1 
1 
1 
1 
1 
1 
1 
1 
1 
1 
1 
1 
1 
1 
1 
1 
1 
1 
1 
1 
1 
1 
1 
1 
1 
1 
1 
1 
1 
1 
1 
1 
1 
1 
1 
1 
1 
1 
1 
1 
1 
1 
1 
1 
1 
1 
1 
1 
1 
1 
1 
1 
1 
1 
1 
1 
1 
1 
1 
1 
1 
1 
1 
1 
1 
1 
1 
1 
1 
1 
1 
1 
1 
1 
1 
1 
1 
1 
1 
1 
1 
1 
1 
1 
1 
1 
1 
1 
1 
1 
1 
1 
1 
1 
1 
1 
1 
1 
1 
1 
1 
1 
1 
1 
1 
1 
1 
1 
1 
1 
1 
1 
1 
1 
1 
1 
1 
1 
1 
1 
1 
1 
1 
1 
1 
1 
1 
1 
1 
1 
1 
1 
1 
1 
1 
1 
1 
1 
1 
1 
1 
1 
1 
1 
1 
1 
1 
1 
1 
1 
1 
1 
1 
1 
1 
1 
1 
1 
1 
1 
1 
1 
1 
1 
1 
1 
1 
1 
1 
1 
1 
1 
1 
1 
1 
1 
1 
1 
1 
1 
1 
1 
1 
1 
1 
1 
1 
1 
1 
1 
1 
1 
1 
1 
1 
1 
1 
1 
1 
1 
1 
1 
1 
1 
1 
1 
1 
1 
1 
1 
1 
1 
1 
1 
1 
1 
1 
1 
1 
1 
1 
1 
1 
1 
1 
1 
1 
1 
1 
1 
1 
1 
1 
1 
1 
1 
1 
1 
1 
1 
1 
1 
1 
1 
1 
1 
1 
1 
1 
1 
1 
1 
1 
1 
1 
1 
1 
1 
1 
1 
1 
1 
1 
1 
1 
1 
1 
1 
1 
1 
1 
1 
1 
1 
1 
1 
1 
1 
1 
1 
1 
1 
1 
1 
1 
1 
1 
1 
1 
1 
1 
1 
1 
1 
1 
1 
1 
1 
1 
1 
1 
1 
1 
1 
1 
1 
1 
1 
1 
1 
1 
1 
1 
1 
1 
1 
1 
1 
1 
1 
1 
1 
1 
1 
1 
1 
1 
1 
1 
1 
1 
1 
1 
1 
1 
1 
1 
1 
1 
1 
1 
1 
1 
1 
1 
1 
1 
1 
1 
1 
1 
1 
1 
1 
1 
1 
1 
1 
1 
1 
1 
1 
1 
1 
1 
1 
1 
1 
1 
1 
1 
1 
1 
1 
1 
1 
1 
1 
1 
1 
1 
1 
1 
1 
1 
1 
1 
1 
1 
1 
1 
1 
1 
1 
1 
1 
1 
1 
1 
1 
1 
1 
1 
1 
1 
1 
1 
1 
1 
1 
1 
1 
1 
1 
1 
1 
1 
1 
1 
1 
1 
1 
1 
1 
1 
1 
1 
1 
1 
1 
1 
1 
1 
1 
1 
1 
1 
1 
1 
1 
1 
1 
1 
1 
1 
1 
1 
1 
1 
1 
1 
1 
1 
1 
1 
1 
1 
1 
1 
1 
1 
1 
1 
1 
1 
1 
1 
1 
1 
1 
1 
1 
1 
1 
1 
1 
1 
1 
1 
1 
1 
1 
1 
1 
1 
1 
1 
1 
1 
1 
1 
1 
1 
1 
1 
1 
1 
1 
1 
1 
1 
1 
1 
1 
1 
1 
1 
1 
1 
1 
1 
1 
1 
1 
1 
1 
1 
1 
1 
1 
1 
1 
1 
1 
1 
1 
1 
1 
1 
1 
1 
1 
1 
1 
1 
1 
1 
1 
1 
1 
1 
1 
1 
1 
1 
1 
1 
1 
1 
1 
1 
1 
1 
1 
1 
1 
1 
1 
1 
1 
1 
1 
1 
1 
1 
1 
1 
1 
1 
1 
1 
1 
1 
1 
1 
1 
1 
1 
1 
1 
1 
1 
1 
1 
1 
1 
1 
1 
1 
1 
1 
1 
1 
1 
1 
1 
1 
1 
1 
1 
1 
1 
1 
1 
1 
1 
1 
1 
1 
1 
1 
1 
1 
1 
1 
1 
1 
1 
1 
1 
1 
1 
1 
1 
1 
1 
1 
1 
1 
1 
1 
1 
1 
1 
1 
1 
1 
1 
1 
1 
1 
1 
1 
1 
1 
1 
1 
1 
1 
1 
1 
1 
1 
1 
1 
1 
1 
1 
1 
1 
1 
1 
1 
1 
1 
1 
1 
1 
1 
1 
1 
1 
1 
1 
1 
1 
1 
1 
1 
1 
1 
1 
1 
1 
1 
1 
1 
1 
1 
1 
1 
1 
1 
1 
1 
1 
1 
1 
1 
1 
1 
1 
1 
1 
1 
1 
1 
1 
1 
1 
1 
1 
1 
1 
1 
1 
1 
1 
1 
1 
1 
1 
1 
1 
1 
1 
1 
1 
1 
1 
1 
1 
1 
1 
1 
1 
1 
1 
1 
1 
1 
1 
1 
1 
1 
1 
1 
1 
1 
1 
1 
1 
1 
1 
1 
1 
1 
1 
1 
1 
1 
1 
1 
1 
1 
1 
1 
1 
1 
1 
1 
1 
1 
1 
1 
1 
1 
1 
1 
1 
1 
1 
1 
1 
1 
1 
1 
1 
1 
1 
1 
1 
1 
1 
1 
1 
1 
1 
1 
1 
1 
1 
1 
1 
1 
1 
1 
1 
1 
1 
1 
1 
1 
1 
1 
1 
1 
1 
1 
1 
1 
1 
1 
1 
1 
1 
1 
1 
1 
1 
1 
1 
1 
1 
1 
1 
1 
1 
1 
1 
1 
1 
1 
1 
1 
1 
1 
1 
1 
1 
1 
1 
1 
1 
1 
1 
1 
1 
1 
1 
1 
1 
1 
1 
1 
1 
1 
1 
1 
1 
1 
1 
1 
1 
1 
1 
1 
1 
1 
1 
1 
1 
1 
1 
1 
1 
1 
1 
1 
1 
1 
1 
1 
1 
1 
1 
1 
1 
1 
1 
1 
1 
1 
1 
1 
1 
1 
1 
1 
1 
1 
1 
1 
1 
1 
1 
1 
1 
1 
1 
1 
1 
1 
1 
1 
1 
1 
1 
1 
1 
1 
1 
1 
1 
1 
1 
1 
1 
1 
1 
1 
1 
1 
1 
1 
1 
1 
1 
1 
1 
1 
1 
1 
1 
1 
1 
1 
1 
1 
1 
1 
1 
1 
1 
1 
1 
1 
1 
1 
1 
1 
1 
1 
1 
1 
1 
1 
1 
1 
1 
1 
1 
1 
1 
1 
1 
1 
1 
1 
1 
1 
1 
1 
1 
1 
1 
1 
1 
1 
1 
1 
1 
1 
1 
1 
1 
1 
1 
1 
1 
1 
1 
1 
1 
1 
1 
1 
1 
1 
1 
1 
1 
1 
1 
1 
1 
1 
1 
1 
1 
1 
1 
1 
1 
1 
1 
1 
1 
1 
1 
1 
1 
1 
1 
1 
1 
1 
1 
1 
1 
1 
1 
1 
1 
1 
1 
1 
1 
1 
1 
1 
1 
1 
1 
1 
1 
1 
1 
1 
1 
1 
1 
1 
1 
1 
1 
1 
1 
1 
1 
1 
1 
1 
1 
1 
1 
1 
1 
1 
1 
1 
1 
1 
1 
1 
1 
1 
1 
1 
1 
1 
1 
1 
1 
1 
1 
1 
1 
1 
1 
1 
1 
1 
1 
1 
1 
1 
1 
1 
1 
1 
1 
1 
1 
1 
1 
1 
1 
1 
1 
1 
1 
1 
1 
1 
1 
1 
1 
1 
1 
1 
1 
1 
1 
1 
1 
1 
1 
1 
1 
1 
1 
1 
1 
1 
1 
1 
1 
1 
1 
1 
1 
1 
1 
1 
1 
1 
1 
1 
1 
1 
1 
1 
1 
1 
1 
1 
1 
1 
1 
1 
1 
1 
1 
1 
1 
1 
1 
1 
1 
1 
1 
1 
1 
1 
1 
1 
1 
1 
1 
1 
1 
1 
1 
1 
1 
1 
1 
1 
1 
1 
1 
1 
1 
1 
1 
1 
1 
1 
1 
1 
1 
1 
1 
1 
1 
1 
1 
1 
1 
1 
1 
1 
1 
1 
1 
1 
1 
1 
1 
1 
1 
1 
1 
1 
1 
1 
1 
1 
1 
1 
1 
1 
1 
1 
1 
1 
1 
1 
1 
1 
1 
1 
1 
1 
1 
1 
1 
1 
1 
1 
1 
1 
1 
1 
1 
1 
1 
1 
1 
1 
1 
1 
1 
1 
1 
1 
1 
1 
1 
1 
1 
1 
1 
1 
1 
1 
1 
1 
1 
1 
1 
1 
1 
1 
1 
1 
1 
1 
1 
1 
1 
1 
1 
1 
1 
1 
1 
1 
1 
1 
1 
1 
1 
1 
1 
1 
1 
1 
1 
1 
1 
1 
1 
1 
1 
1 
1 
1 
1 
1 
1 
1 
1 
1 
1 
1 
1 
1 
1 
1 
1 
1 
1 
1 
1 
1 
1 
1 
1 
1 
1 
1 
1 
1 
1 
1 
1 
1 
1 
1 
1 
1 
1 
1 
1 
1 
1 
1 
1 
1 
1 
1 
1 
1 
1 
1 
1 
1 
1 
1 
1 
1 
1 
1 
1 
1 
1 
1 
1 
1 
1 
1 
1 
1 
1 
1 
1 
1 
1 
1 
1 
1 
1 
1 
1 
1 
1 
1 
1 
1 
1 
1 
1 
1 
1 
1 
1 
1 
1 
1 
1 
1 
1 
1 
1 
1 
1 
1 
1 
1 
1 
1 
1 
1 
1 
1 
1 
1 
1 
1 
1 
1 
1 
1 
1 
1 
1 
1 
1 
1 
1 
1 
1 
1 
1 
1 
1 
1 
1 
1 
1 
1 
1 
1 
1 
1 
1 
1 
1 
1 
1 
1 
1 
1 
1 
1 
1 
1 
1 
1 
1 
1 
1 
1 
1 
1 
1 
1 
1 
1 
1 
1 
1 
1 
1 
1 
1 
1 
1 
1 
1 
1 
1 
1 
1 
1 
1 
1 
1 
1 
1 
1 
1 
1 
1 
1 
1 
1 
1 
1 
1 
1 
1 
1 
1 
1 
1 
1 
1 
1 
1 
1 
1 
1 
1 
1 
1 
1 
1 
1 
1 
1 
1 
1 
1 
1 
1 
1 
1 
1 
1 
1 
1 
1 
1 
1 
1 
1 
1 
1 
1 
1 
1 
1 
1 
1 
1 
1 
1 
1 
1 
1 
1 
1 
1 
1 
1 
1 
1 
1 
1 
1 
1 
1 
1 
1 
1 
1 
1 
1 
1 
1 
1 
1 
1 
1 
1 
1 
1 
1 
1 
1 
1 
1 
1 
1 
1 
1 
1 
1 
1 
1 
1 
1 
1 
1 
1 
1 
1 
1 
1 
1 
1 
1 
1 
1 
1 
1 
1 
1 
1 
1 
1 
1 
1 
1 
1 
1 
1 
1 
1 
1 
1 
1 
1 
1 
1 
1 
1 
1 
1 
1 
1 
1 
1 
1 
1 
1 
1 
1 
1 
1 
1 
1 
1 
1 
1 
1 
1 
1 
1 
1 
1 
1 
1 
1 
1 
1 
1 
1 
1 
1 
1 
1 
1 
1 
1 
1 
1 
1 
1 
1 
1 
1 
1 
1 
1 
1 
1 
1 
1 
1 
1 
1 
1 
1 
1 
1 
1 
1 
1 
1 
1 
1 
1 
1 
1 
1 
1 
1 
1 
1 
1 
1 
1 
1 
1 
1 
1 
1 
1 
1 
1 
1 
1 
1 
1 
1 
1 
1 
1 
1 
1 
1 
1 
1 
1 
1 
1 
1 
1 
1 
1 
1 
1 
1 
1 
1 
1 
1 
1 
1 
1 
1 
1 
1 
1 
1 
1 
1 
1 
1 
1 
1 
1 
1 
1 
1 
1 
1 
1 
1 
1 
1 
1 
1 
1 
1 
1 
1 
1 
1 
1 
1 
1 
1 
1 
1 
1 
1 
1 
1 
1 
1 
1 
1 
1 
1 
1 
1 
1 
1 
1 
1 
1 
1 
1 
1 
1 
1 
1 
1 
1 
1 
1 
1 
1 
1 
1 
1 
1 
1 
1 
1 
1 
1 
1 
1 
1 
1 
1 
1 
1 
1 
1 
1 
1 
1 
1 
1 
1 
1 
1 
1 
1 
1 
1 
1 
1 
1 
1 
1 
1 
1 
1 
1 
1 
1 
1 
1 
1 
1 
1 
1 
1 
1 
1 
1 
1 
1 
1 
1 
1 
1 
1 
1 
1 
1 
1 
1 
1 
1 
1 
1 
1 
1 
1 
1 
1 
1 
1 
1 
1 
1 
1 
1 
1 
1 
1 
1 
1 
1 
1 
1 
1 
1 
1 
1 
1 
1 
1 
1 
1 
1 
1 
1 
1 
1 
1 
1 
1 
1 
1 
1 
1 
1 
1 
1 
1 
1 
1 
1 
1 
1 
1 
1 
1 
1 
1 
1 
1 
1 
1 
1 
1 
1 
1 
1 
1 
1 
1 
1 
1 
1 
1 
1 
1 
1 
1 
1 
1 
1 
1 
1 
1 
1 
1 
1 
1 
1 
1 
1 
1 
1 
1 
1 
1 
1 
1 
1 
1 
1 
1 
1 
1 
1 
1 
1 
1 
1 
1 
1 
1 
1 
1 
1 
1 
1 
1 
1 
1 
1 
1 
1 
1 
1 
1 
1 
1 
1 
1 
1 
1 
1 
1 
1 
1 
1 
1 
1 
1 
1 
1 
1 
1 
1 
1 
1 
1 
1 
1 
1 
1 
1 
1 
1 
1 
1 
1 
1 
1 
1 
1 
1 
1 
1 
1 
1 
1 
1 
1 
1 
1 
1 
1 
1 
1 
1 
1 
1 
1 
1 
1 
1 
1 
1 
1 
1 
1 
1 
1 
1 
1 
1 
1 
1 
1 
1 
1 
1 
1 
1 
1 
1 
1 
1 
1 
1 
1 
1 
1 
1 
1 
1 
1 
1 
1 
1 
1 
1 
1 
1 
1 
1 
1 
1 
1 
1 
1 
1 
1 
1 
1 
1 
1 
1 
1 
1 
1 
1 
1 
1 
1 
1 
1 
1 
1 
1 
1 
1 
1 
1 
1 
1 
1 
1 
1 
1 
1 
1 
1 
1 
1 
1 
1 
1 
1 
1 
1 
1 
1 
1 
1 
1 
1 
1 
1 
1 
1 
1 
1 
1 
1 
1 
1 
1 
1 
1 
1 
1 
1 
1 
1 
1 
1 
1 
1 
1 
1 
1 
1 
1 
1 
1 
1 
1 
1 
1 
1 
1 
1 
1 
1 
1 
1 
1 
1 
1 
1 
1 
1 
1 
1 
1 
1 
1 
1 
1 
1 
1 
1 
1 
1 
1 
1 
1 
1 
1 
1 
1 
1 
1 
1 
1 
1 
1 
1 
1 
1 
1 
1 
1 
1 
1 
1 
1 
1 
1 
1 
1 
1 
1 
1 
1 
1 
1 
1 
1 
1 
1 
1 
1 
1 
1 
1 
1 
1 
1 
1 
1 
1 
1 
1 
1 
1 
1 
1 
1 
1 
1 
1 
1 
1 
1 
1 
1 
1 
1 
1 
1 
1 
1 
1 
1 
1 
1 
1 
1 
1 
1 
1 
1 
1 
1 
1 
1 
1 
1 
1 
1 
1 
1 
1 
1 
1 
1 
1 
1 
1 
1 
1 
1 
1 
1 
1 
1 
1 
1 
1 
1 
1 
1 
1 
1 
1 
1 
1 
1 
1 
1 
1 
1 
1 
1 
1 
1 
1 
1 
1 
1 
1 
1 
1 
1 
1 
1 
1 
1 
1 
1 
1 
1 
1 
1 
1 
1 
1 
1 
1 
1 
1 
1 
1 
1 
1 
1 
1 
1 
1 
1 
1 
1 
1 
1 
1 
1 
1 
1 
1 
1 
1 
1 
1 
1 
1 
1 
1 
1 
1 
1 
1 
1 
1 
1 
1 
1 
1 
1 
1 
1 
1 
1 
1 
1 
1 
1 
1 
1 
1 
1 
1 
1 
1 
1 
1 
1 
1 
1 
1 
1 
1 
1 
1 
1 
1 
1 
1 
1 
1 
1 
1 
1 
1 
1 
1 
1 
1 
1 
1 
1 
1 
1 
1 
1 
1 
1 
1 
1 
1 
1 
1 
1 
1 
1 
1 
1 
1 
1 
1 
1 
1 
1 
1 
1 
1 
1 
1 
1 
1 
1 
1 
1 
1 
1 
1 
1 
1 
1 
1 
1 
1 
1 
1 
1 
1 
1 
1 
1 
1 
1 
1 
1 
1 
1 
1 
1 
1 
1 
1 
1 
1 
1 
1 
1 
1 
1 
1 
1 
1 
1 
1 
1 
1 
1 
1 
1 
1 
1 
1 
1 
1 
1 
1 
1 
1 
1 
1 
1 
1 
1 
1 
1 
1 
1 
1 
1 
1 
1 
1 
1 
1 
1 
1 
1 
1 
1 
1 
1 
1 
1 
1 
1 
1 
1 
1 
1 
1 
1 
1 
1 
1 
1 
1 
1 
1 
1 
1 
1 
1 
1 
1 
1 
1 
1 
1 
1 
1 
1 
1 
1 
1 
1 
1 
1 
1 
1 
1 
1 
1 
1 
1 
1 
1 
1 
1 
1 
1 
1 
1 
1 
1 
1 
1 
1 
1 
1 
1 
1 
1 
1 
1 
1 
1 
1 
1 
1 
1 
1 
1 
1 
1 
1 
1 
1 
1 
1 
1 
1 
1 
1 
1 
1 
1 
1 
1 
1 
1 
1 
1 
1 
1 
1 
1 
1 
1 
1 
1 
1 
1 
1 
1 
1 
1 
1 
1 
1 
1 
1 
1 
1 
1 
1 
1 
1 
1 
1 
1 
1 
1 
1 
1 
1 
1 
1 
1 
1 
1 
1 
1 
1 
1 
1 
1 
1 
1 
1 
1 
1 
1 
1 
1 
1 
1 
1 
1 
1 
1 
1 
1 
1 
1 
1 
1 
1 
1 
1 
1 
1 
1 
1 
1 
1 
1 
1 
1 
1 
1 
1 
1 
1 
1 
1 
1 
1 
1 
1 
1 
1 
1 
1 
1 
1 
1 
1 
1 
1 
1 
1 
1 
1 
1 
1 
1 
1 
1 
1 
1 
1 
1 
1 
1 
1 
1 
1 
1 
1 
1 
1 
1 
1 
1 
1 
1 
1 
1 
1 
1 
1 
1 
1 
1 
1 
1 
1 
1 
1 
1 
1 
1 
1 
1 
1 
1 
1 
1 
1 
1 
1 
1 
1 
1 
1 
1 
1 
1 
1 
1 
1 
1 
1 
1 
1 
1 
1 
1 
1 
1 
1 
1 
1 
1 
1 
1 
1 
1 
1 
1 
1 
1 
1 
1 
1 
1 
1 
1 
1 
1 
1 
1 
1 
1 
1 
1 
1 
1 
1 
1 
1 
1 
1 
1 
1 
1 
1 
1 
1 
1 
1 
1 
1 
1 
1 
1 
1 
1 
1 
1 
1 
1 
1 
1 
1 
1 
1 
1 
1 
1 
1 
1 
1 
1 
1 
1 
1 
1 
1 
1 
1 
1 
1 
1 
1 
1 
1 
1 
1 
1 
1 
1 
1 
1 
1 
1 
1 
1 
1 
1 
1 
1 
1 
1 
1 
1 
1 
1 
1 
1 
1 
1 
1 
1 
1 
1 
1 
1 
1 
1 
1 
1 
1 
1 
1 
1 
1 
1 
1 
1 
1 
1 
1 
1 
1 
1 
1 
1 
1 
1 
1 
1 
1 
1 
1 
1 
1 
1 
1 
1 
1 
1 
1 
1 
1 
1 
1 
1 
1 
1 
1 
1 
1 
1 
1 
1 
1 
1 
1 
1 
1 
1 
1 
1 
1 
1 
1 
1 
1 
1 
1 
1 
1 
1 
1 
1 
1 
1 
1 
1 
1 
1 
1 
1 
1 
1 
1 
1 
1 
1 
1 
1 
1 
1 
1 
1 
1 
1 
1 
1 
1 
1 
1 
1 
1 
1 
1 
1 
1 
1 
1 
1 
1 
1 
1 
1 
1 
1 
1 
1 
1 
1 
1 
1 
1 
1 
1 
1 
1 
1 
1 
1 
1 
1 
1 
1 
1 
1 
1 
1 
1 
1 
1 
1 
1 
1 
1 
1 
1 
1 
1 
1 
1 
1 
1 
1 
1 
1 
1 
1 
1 
1 
1 
1 
1 
1 
1 
1 
1 
1 
1 
1 
1 
1 
1 
1 
1 
1 
1 
1 
1 
1 
1 
1 
1 
1 
1 
1 
1 
1 
1 
1 
1 
1 
1 
1 
1 
1 
1 
1 
1 
1 
1 
1 
1 
1 
1 
1 
1 
1 
1 
1 
1 
1 
1 
1 
1 
1 
1 
1 
1 
1 
1 
1 
1 
1 
1 
1 
1 
1 
1 
1 
1 
1 
1 
1 
1 
1 
1 
1 
1 
1 
1 
1 
1 
1 
1 
1 
1 
1 
1 
1 
1 
1 
1 
1 
1 
1 
1 
1 
1 
1 
1 
1 
1 
1 
1 
1 
1 
1 
1 
1 
1 
1 
1 
1 
1 
1 
1 
1 
1 
1 
1 
1 
1 
1 
1 
1 
1 
1 
1 
1 
1 
1 
1 
1 
1 
1 
1 
1 
1 
1 
1 
1 
1 
1 
1 
1 
1 
1 
1 
1 
1 
1 
1 
1 
1 
1 
1 
1 
1 
1 
1 
1 
1 
1 
1 
1 
1 
1 
1 
1 
1 
1 
1 
1 
1 
1 
1 
1 
1 
1 
1 
1 
1 
1 
1 
1 
1 
1 
1 
1 
1 
1 
1 
1 
1 
1 
1 
1 
1 
1 
1 
1 
1 
1 
1 
1 
1 
1 
1 
1 
1 
1 
1 
1 
1 
1 
1 
1 
1 
1 
1 
1 
1 
1 
1 
1 
1 
1 
1 
1 
1 
1 
1 
1 
1 
1 
1 
1 
1 
1 
1 
1 
1 
1 
1 
1 
1 
1 
1 
1 
1 
1 
1 
1 
1 
1 
1 
1 
1 
1 
1 
1 
1 
1 
1 
1 
1 
1 
1 
1 
1 
1 
1 
1 
1 
1 
1 
1 
1 
1 
1 
1 
1 
1 
1 
1 
1 
1 
1 
1 
1 
1 
1 
1 
1 
1 
1 
1 
1 
1 
1 
1 
1 
1 
1 
1 
1 
1 
1 
1 
1 
1 
1 
1 
1 
1 
1 
1 
1 
1 
1 
1 
1 
1 
1 
1 
1 
1 
1 
1 
1 
1 
1 
1 
1 
1 
1 
1 
1 
1 
1 
1 
1 
1 
1 
1 
1 
1 
1 
1 
1 
1 
1 
1 
1 
1 
1 
1 
1 
1 
1 
1 
1 
1 
1 
1 
1 
1 
1 
1 
1 
1 
1 
1 
1 
1 
1 
1 
1 
1 
1 
1 
1 
1 
1 
1 
1 
1 
1 
1 
1 
1 
1 
1 
1 
1 
1 
1 
1 
1 
1 
1 
1 
1 
1 
1 
1 
1 
1 
1 
1 
1 
1 
1 
1 
1 
1 
1 
1 
1 
1 
1 
1 
1 
1 
1 
1 
1 
1 
1 
1 
1 
1 
1 
1 
1 
1 
1 
1 
1 
1 
1 
1 
1 
1 
1 
1 
1 
1 
1 
1 
1 
1 
1 
1 
1 
1 
1 
1 
1 
1 
1 
1 
1 
1 
1 
1 
1 
1 
1 
1 
1 
1 
1 
1 
1 
1 
1 
1 
1 
1 
1 
1 
1 
1 
1 
1 
1 
1 
1 
1 
1 
1 
1 
1 
1 
1 
1 
1 
1 
1 
1 
1 
1 
1 
1 
1 
1 
1 
1 
1 
1 
1 
1 
1 
1 
1 
1 
1 
1 
1 
1 
1 
1 
1 
1 
1 
1 
POINT_DATA 5000
VECTORS Stress float
-653.346 358.183 0.
873.971 884.951 0.
821.708 762.403 0.
-281.261 179.838 0.
-351.88 14.2354 0.
-422.499 -151.368 0.
503.999 -35.1216 0.
245.14 -639.798 0.
-13.7199 -1244.47 0.
-272.787 -1305.54 0.
-76.1008 -846.337 0.
120.585 -387.136 0.
-681.907 -693.105 0.
-695.605 -724.958 0.
-832.43 -757.718 0.
-492.415 35.3872 0.
-152.401 828.492 0.
441.708 1201.21 0.
-159.614 -203.17 0.
-760.937 -1607.55 0.
-764.457 -1859.5 0.
-447.984 -1121.63 0.
-131.51 -383.764 0.
-872.021 -487.22 0.
-839.052 -409.639 0.
-677.615 -277.006 0.
-1719.16 -348.988 0.
-1517.1 123.685 0.
-1497.06 384.512 0.
-1634.36 63.6421 0.
-1771.65 -257.227 0.
-2266.72 -470.363 0.
-2088.42 -53.7244 0.
-1910.12 362.914 0.
-2288.79 -340.061 0.
-2851.54 -1651.81 0.
-3414.3 -2963.56 0.
-6497.32 -3250.63 0.
-5752.8 -1513.24 0.
-9346.14 -1657 0.
-8765.34 -595.645 0.
-8338.09 399.894 0.
-9622.74 472.301 0.
-9529.34 693.428 0.
-9435.95 914.555 0.
-12563.5 -1624.79 0.
-13950.6 -4864.33 0.
-15337.8 -8103.86 0.
88896.4 36205.4 0.
88939.6 36315.8 0.
-1.43812e+06 -618050 0.
90003.4 36779.4 0.
89966.3 36683.3 0.
-15284 -8077.95 0.
-14003.8 -5088.04 0.
-12723.6 -2098.13 0.
-8900.96 685.263 0.
-8929.34 620.151 0.
-8957.73 555.041 0.
-9729.11 115.382 0.
-9790.79 -28.8691 0.
-8118.3 570.198 0.
-5470.12 1087.8 0.
-5817.75 278 0.
-1615.86 1281.12 0.
-2378.39 -499.093 0.
-3140.92 -2279.31 0.
-2181.3 -2474.13 0.
-1764.92 -1503.23 0.
-1348.54 -532.316 0.
-1491.59 -169.905 0.
-1398.2 47.625 0.
-1304.81 265.155 0.
-2040.03 151.715 0.
-1920.56 431.076 0.
-183.999 1396.84 0.
-435.906 741.665 0.
-723.818 71.0668 0.
-19.9196 -221.864 0.
-367.909 -1033.02 0.
-715.899 -1844.18 0.
184.331 -1220.65 0.
778.788 167.761 0.
1373.25 1556.17 0.
-444.683 972.043 0.
-520.829 795.109 0.
-596.976 618.174 0.
-583.313 189.4 0.
-830.668 -387.856 0.
-613.913 -674.119 0.
-542.769 -507.05 0.
-471.625 -339.982 0.
910.162 323.722 0.
877.913 246.753 0.
845.664 169.785 0.
-139.898 -120.837 0.
3.6035 214.033 0.
147.105 548.902 0.
-713.594 288.725 0.
-677.504 373.632 0.
52.7234 691.705 0.
979.505 960.104 0.
927.437 836.804 0.
17.2828 341.65 0.
-52.9003 175.412 0.
-123.084 9.17321 0.
203.302 -130.958 0.
-54.9686 -735.604 0.
-313.24 -1340.25 0.
-125.05 -1211.75 0.
71.5707 -752.164 0.
268.191 -292.576 0.
-594.535 -623.893 0.
-608.263 -655.597 0.
-668.895 -657.874 0.
-328.675 135.186 0.
11.5444 928.246 0.
-932.585 644.449 0.
-1532.58 -759.417 0.
-2132.58 -2163.28 0.
1373.44 -912.584 0.
1690.69 -174.029 0.
2007.95 564.525 0.
-1450.41 -702.809 0.
-1418.16 -625.604 0.
-1716.61 -690.127 0.
-1874.54 -386.851 0.
-1673.3 86.2891 0.
-1400.86 456.49 0.
-1537.81 135.405 0.
-1674.76 -185.68 0.
-2308.99 -455.161 0.
-2130.89 -37.7615 0.
-1952.78 379.638 0.
-1910.21 -149.088 0.
-2473.77 -1460.02 0.
-3037.33 -2770.96 0.
-5976.08 -2995.73 0.
-5231.47 -1257.78 0.
-7441.23 -806.219 0.
-7012.51 190.038 0.
-6583.78 1186.3 0.
-10588.8 84.2232 0.
-10497.7 306.431 0.
-10406.6 528.638 0.
-10527.6 -732.286 0.
-11915.2 -3978.41 0.
-13302.8 -7224.52 0.
84967.6 34537.2 0.
85004.6 34652.5 0.
-1.28401e+06 -551972 0.
85780.7 34992.8 0.
85749.7 34891.7 0.
-13260.5 -7198.06 0.
-11980.2 -4202.53 0.
-10700 -1206.99 0.
-9998.4 242.17 0.
-10027.6 177.446 0.
-10056.8 112.725 0.
-7022.49 1308.12 0.
-7084.06 1163.44 0.
-7145.64 1018.76 0.
-5227.64 1226.9 0.
-5576.04 417.996 0.
-2373.26 986.043 0.
-3134.67 -793.524 0.
-3896.07 -2573.09 0.
-1184.39 -2016.02 0.
-767.405 -1044.99 0.
-350.42 -73.9679 0.
-1523.42 -150.401 0.
-1429.89 66.6702 0.
-1336.37 283.742 0.
-2334.7 56.9038 0.
-2215.66 336.423 0.
-1685.13 786.514 0.
-1862.74 164.474 0.
-2151.23 -505.089 0.
3471.45 1305.1 0.
3122.08 492.369 0.
2772.72 -320.359 0.
-1299.11 -1823.98 0.
-706.203 -436.498 0.
-113.297 950.979 0.
-649.281 916.517 0.
-726.066 739.574 0.
-802.85 562.631 0.
-658.724 189.852 0.
-906.024 -387.471 0.
-93.4917 -421.48 0.
-22.9206 -253.62 0.
47.6501 -85.7603 0.
583.302 213.584 0.
551.877 135.093 0.
520.452 56.6028 0.
-159.579 -96.5575 0.
-16.127 238.26 0.
127.325 573.077 0.
-96.1033 585.508 0.
-60.3863 670.936 0.
267.67 -109.14 0.
591.567 -107.25 0.
630.326 -16.457 0.
-475.466 -1346.13 0.
-147.86 -580.321 0.
-438.673 -1257.5 0.
-1518.57 -3544.66 0.
-1065.16 -2487.45 0.
-3660.38 -8543.69 0.
-5747.54 -14577.5 0.
-1493.1 -4652.84 0.
-1784.66 -5335.5 0.
-2546.19 -5307.06 0.
-2873.66 -6069.94 0.
-4503.04 -9894.19 0.
-1636.81 -3206.24 0.
-2121.92 -4338.09 0.
-4582.18 -5243.25 0.
-3801.01 -3419.03 0.
-5770.19 -8012.29 0.
-36574.4 -93498.7 0.
97.6658 -7926.51 0.
526.249 -6922.49 0.
-4476.95 -6638.73 0.
-3778.65 -5012.21 0.
-4638.09 -7076.64 0.
-3781.7 -4508.14 0.
-3661.22 -4229.58 0.
-2905.2 -3224.02 0.
-2914.13 -3240.7 0.
-4114.14 -6036.53 0.
-8371.01 -14498.8 0.
-5184.83 -7063.25 0.
-5144.49 -6967.98 0.
-4114.98 -5967.63 0.
-4096.61 -5929.35 0.
-20112.8 -43305 0.
-14540.7 -23936.8 0.
-10930.4 -15512.9 0.
-11603.8 -13819.5 0.
-9457.09 -8818.1 0.
-9439.6 -8784.78 0.
-14881.5 -8162.5 0.
-13703.8 -5419.07 0.
-13696.2 -5406.22 0.
-11727.5 -7495.79 0.
-14330.5 -13530.3 0.
-51162.8 -99433.4 0.
81104.6 33056.4 0.
90157.6 54290.5 0.
-1.11369e+06 -460327 0.
90509.2 54199 0.
81281.2 32556.2 0.
-47474.4 -90877.7 0.
-14818.1 -14712.9 0.
-13399.8 -11437.1 0.
-14999.6 -9408.31 0.
-14451 -8132.68 0.
-15581.8 -10775.7 0.
-8433.91 -7070.57 0.
-7214.17 -4221.87 0.
-7311.5 -4446.35 0.
-7318.3 -4081.03 0.
-7756.8 -5113.52 0.
-7145.03 -8692.5 0.
-6373.7 -6891.18 0.
-8136.97 -11003.9 0.
-28747.4 -68199 0.
-2910.62 -7910.2 0.
-3052.38 -8237.88 0.
-4899.84 -7937.02 0.
-4414.87 -6806.81 0.
-6358.6 -11343.6 0.
-4167.73 -3617.67 0.
-3846.83 -2869.4 0.
-5109.21 -4454.73 0.
-4255.81 -2678.92 0.
-4994.95 -4401.43 0.
-3176.1 -20807.8 0.
-3518.26 -21610.5 0.
-50559.8 -131378 0.
-12994.4 -26257.3 0.
-6815.68 -11842.6 0.
-7485.39 -13407.7 0.
-3283.19 -4802.29 0.
-2091.78 -2026.64 0.
-2642.08 -3315 0.
-2195.11 -3210.38 0.
-2440.74 -3783.08 0.
-2788.58 -7673.88 0.
-267.005 -1788.04 0.
-148.199 -1509.04 0.
-613.628 -1940.81 0.
-401.386 -1441.71 0.
-1286.95 -3504.11 0.
-1066.25 -2149 0.
-345.695 -467.814 0.
-268.608 -288.089 0.
-87.9442 -522.064 0.
-927.861 -2480.94 0.
283.079 666.976 0.
625.016 765.634 0.
558.438 610.664 0.
375.35 440.978 0.
438.776 593.323 0.
502.202 745.667 0.
577.064 1257.85 0.
1096.45 2469.36 0.
1615.83 3680.87 0.
1702.79 3704.57 0.
1386.52 2965.7 0.
1070.26 2226.83 0.
1028.13 2404.13 0.
1199.77 2805.52 0.
939.916 2938.26 0.
566.534 2070.07 0.
193.151 1201.87 0.
-788.136 1168.5 0.
782.557 4829.79 0.
2353.26 8491.09 0.
6141.92 10470.1 0.
5014.7 7840.09 0.
3887.47 5210.05 0.
233.333 2846.05 0.
74.3177 2474.03 0.
465.219 2337.63 0.
-512.02 1711.25 0.
-616.281 1466.88 0.
-722.359 1413.22 0.
-360.041 2263.26 0.
2.27631 3113.3 0.
-168.743 3241.25 0.
-395.392 2713.76 0.
-622.04 2186.28 0.
44.6919 3969.28 0.
1413.69 7159.26 0.
2782.69 10349.2 0.
-381.563 8363.57 0.
-1012.62 6889.04 0.
-2542.39 5000.59 0.
-2947.73 4053.76 0.
-3353.07 3106.93 0.
-6400.08 1195.47 0.
-6564.45 812.899 0.
-6728.79 430.337 0.
-5159.68 -749.854 0.
-7121.72 -5286.7 0.
-9083.69 -9823.43 0.
71452 35620.5 0.
80645.4 57283.5 0.
-820832 -311343 0.
80524.5 57455.5 0.
71460.3 36071.5 0.
-8490.11 -8899.99 0.
-6384.56 -4030.93 0.
-4278.94 838.229 0.
-5603.68 2076.56 0.
-5670.33 1915.54 0.
-5736.98 1754.52 0.
-3408.29 2616.69 0.
-3489.43 2428.66 0.
-3570.57 2240.63 0.
-3487.1 1788.61 0.
-3735.83 1201.23 0.
-1879.8 2010.15 0.
-496.25 5233.03 0.
887.309 8455.91 0.
3975.32 10694 0.
2918.1 8226.74 0.
1860.87 5759.49 0.
466.12 4225.66 0.
378.83 4016.48 0.
291.541 3807.3 0.
-455.708 2802.05 0.
-885.996 1801.39 0.
-1129.4 936.436 0.
-417.729 2755.28 0.
377.553 4609.95 0.
6460.69 9035.61 0.
7777.54 12109.1 0.
9094.39 15182.6 0.
4516.24 12769.7 0.
2676.78 8477.7 0.
837.32 4185.68 0.
604.523 2785.23 0.
369.727 2235.62 0.
134.932 1686.01 0.
432.47 1787.58 0.
450.063 1831.76 0.
1070.28 2085.01 0.
869.14 1617.62 0.
668 1150.23 0.
487.378 920.256 0.
600.114 1188.9 0.
712.851 1457.54 0.
540.247 1275.46 0.
374.863 889.976 0.
209.479 504.494 0.
667.205 1105.03 0.
958.52 1786.28 0.
-88.5555 539.84 0.
223.823 624.393 0.
157.203 469.355 0.
496.142 524.665 0.
558.582 677.677 0.
621.023 830.689 0.
639.268 1315.69 0.
1158.63 2527.53 0.
1678 3739.37 0.
1246.64 3538.2 0.
930.136 2800.22 0.
613.635 2062.23 0.
1374.53 2583.46 0.
1546.2 2984.63 0.
885.823 2944.28 0.
511.471 2076.76 0.
137.119 1209.25 0.
510.574 1757.83 0.
2084.32 5421.08 0.
3658.08 9084.35 0.
3902.23 9541.51 0.
2777.87 6914.34 0.
1653.51 4287.16 0.
1041.08 3224.91 0.
881.233 2852.81 0.
1417.34 2778.88 0.
244.265 2066.04 0.
139.402 1821.73 0.
-466.932 1553.21 0.
-104.753 2403.35 0.
257.426 3253.5 0.
581.701 3593.7 0.
354.948 3066.2 0.
128.196 2538.7 0.
-59.8944 3956.25 0.
1308.83 7145.82 0.
2677.55 10335.4 0.
23.5583 8571.29 0.
-607.139 7095.66 0.
-1306.15 5562.05 0.
-1713.67 4616.64 0.
-2121.18 3671.22 0.
-910.836 3571.71 0.
-1077.71 3188.94 0.
-1244.56 2806.18 0.
-667.974 1151.91 0.
-2637.38 -3400.09 0.
-4606.72 -7951.95 0.
58430.8 30334.1 0.
67505.5 51817.1 0.
-525259 -184637 0.
66665.1 51675.2 0.
57731.3 30475.3 0.
-3796.1 -6932.92 0.
-1679.77 -2049.11 0.
436.645 2834.83 0.
-105.815 4466.02 0.
-172.541 4303.76 0.
-239.271 4141.51 0.
-2321.43 3113.53 0.
-2402.36 2924.65 0.
-2483.29 2735.78 0.
-1856.06 2524.54 0.
-2105.7 1937.33 0.
-1033.71 2401.49 0.
353.035 5624.86 0.
1739.79 8848.24 0.
2658.3 10161.1 0.
1603.15 7695.14 0.
547.994 5229.22 0.
673.287 4351.18 0.
587.054 4140.36 0.
500.821 3929.54 0.
738.93 3347.86 0.
307.129 2347.5 0.
705.542 1752.15 0.
1446.95 3584.88 0.
2244.48 5441.65 0.
2616.59 7423.64 0.
3928.48 10490.7 0.
5240.36 13557.7 0.
5499.37 13232.5 0.
3657.77 8937.97 0.
1816.18 4643.43 0.
1399.41 3156.13 0.
1163.55 2606.63 0.
927.692 2057.12 0.
1043.79 2080.91 0.
1060.42 2125.63 0.
689.601 1951.27 0.
488.565 1484.29 0.
287.53 1017.32 0.
350.852 893.777 0.
463.046 1162.83 0.
575.241 1431.88 0.
726.679 1386.51 0.
561.061 1001.02 0.
395.444 615.527 0.
754.853 1174.81 0.
1046.16 1856.61 0.
-194.107 441.339 0.
-89.4537 346.508 0.
-126.994 262.025 0.
395.701 421.14 0.
369.271 358.388 0.
342.84 295.635 0.
107.573 20.3713 0.
-79.739 -416.092 0.
-267.051 -852.554 0.
-752.549 -1079.48 0.
-654.926 -853.709 0.
-557.3 -627.939 0.
102.443 -423.432 0.
35.4766 -577.086 0.
-700.522 -980.23 0.
-498.552 -508.619 0.
-296.582 -37.0079 0.
302.958 91.4536 0.
-420.106 -1581.12 0.
-1143.16 -3253.68 0.
-2466.15 -3883.56 0.
-1849.34 -2448.16 0.
-1232.53 -1012.75 0.
-243.573 -431.477 0.
-348.712 -680.345 0.
62.0232 -708.024 0.
-573.776 -737.152 0.
-436.313 -420.57 0.
-1052.69 -547.414 0.
-1228.39 -958.201 0.
-1404.09 -1368.99 0.
-1052.29 -1211.97 0.
-798.585 -624.534 0.
-544.879 -37.0902 0.
-1935.21 -1192.68 0.
-2541.24 -2610.97 0.
-3147.28 -4029.26 0.
-4451.5 -4137.06 0.
-4065.78 -3239.39 0.
-2828.67 -2050.64 0.
-3189.44 -2892.31 0.
-3550.21 -3733.98 0.
-702.91 -3370.7 0.
-1354.93 -4886.37 0.
-2006.94 -6402.02 0.
202.203 -4088.73 0.
2209.48 643.735 0.
4216.7 5376.13 0.
39691.9 10684.3 0.
31674.3 -7663.12 0.
8290.52 -32572.2 0.
29734.3 -8318.08 0.
37843 10222.8 0.
4799.3 5881.83 0.
2494.48 485.573 0.
189.623 -4910.75 0.
-2099 -7230.19 0.
-1159.59 -5038.16 0.
-220.172 -2846.13 0.
-3660.22 -3580.91 0.
-3482.23 -3163.45 0.
-3304.22 -2745.98 0.
-2564.28 -2158.26 0.
-2428.24 -1840.15 0.
-1880.19 -1430.12 0.
-2140.48 -2033.07 0.
-2400.77 -2636.01 0.
-3041.18 -2936.24 0.
-2596.23 -1896.89 0.
-2151.26 -857.544 0.
-1084.99 -248.163 0.
-1259.77 -650.728 0.
-1434.54 -1053.29 0.
-491.391 -641.549 0.
-441.975 -537.341 0.
409.946 -72.2566 0.
359.886 -109.106 0.
348.088 -129.559 0.
-2251.48 -1681.15 0.
-3058.9 -3563.27 0.
-3866.31 -5445.38 0.
-1696.75 -4558.43 0.
-891.888 -2682.13 0.
-87.0261 -805.824 0.
132.731 -380.015 0.
58.6775 -556.81 0.
-15.3785 -733.606 0.
134.019 -581.721 0.
179.149 -474.277 0.
-547.092 -651.123 0.
-346.095 -174.448 0.
-145.099 302.225 0.
133.383 519.974 0.
-56.2749 84.2217 0.
-245.932 -351.529 0.
64.3034 -122.488 0.
256.875 324.667 0.
449.447 771.823 0.
585.204 828.158 0.
542.877 735.609 0.
33.6305 566.453 0.
-140.22 354.953 0.
-178.974 271.862 0.
174.77 353.944 0.
149.104 290.938 0.
123.437 227.931 0.
115.545 55.3144 0.
-72.0119 -381.24 0.
-259.568 -817.795 0.
-322.761 -867.254 0.
-224.913 -641.496 0.
-127.063 -415.737 0.
-190.891 -518.348 0.
-257.867 -672.467 0.
-375.364 -812.625 0.
-174.228 -340.609 0.
26.9084 131.406 0.
270.874 109.902 0.
-451.035 -1564.37 0.
-1172.94 -3238.64 0.
-1763.8 -3548.9 0.
-1146.46 -2113.1 0.
-529.116 -677.291 0.
-305.948 -427.986 0.
-410.648 -676.89 0.
-1040.33 -1150.82 0.
-364.193 -617.612 0.
-227.665 -300.852 0.
-515.555 -286.754 0.
-691.484 -697.465 0.
-867.412 -1108.18 0.
-728.791 -1044.88 0.
-475.756 -456.757 0.
-222.719 131.367 0.
-1028.1 -778.3 0.
-1636.14 -2195.7 0.
-2244.18 -3613.1 0.
-2513.49 -3274.06 0.
-2126.77 -2375.69 0.
154.596 -750.111 0.
-209.105 -1592.02 0.
-572.8 -2433.93 0.
1699.69 -2320.99 0.
1044.85 -3839.03 0.
390.022 -5357.05 0.
3349.05 -2667.71 0.
5365.05 2070.99 0.
7381.02 6809.64 0.
27496 5331.94 0.
19593.5 -12894.9 0.
3455.79 -34598.7 0.
16256.1 -14130.5 0.
24236.8 4272.93 0.
7695.21 7216.67 0.
5383.34 1811.31 0.
3071.44 -3594.09 0.
-89.3442 -6359.29 0.
851.258 -4164.07 0.
1791.87 -1968.84 0.
-1049.08 -2434.77 0.
-870.734 -2017.09 0.
-692.372 -1599.4 0.
-999.697 -1456.47 0.
-863.853 -1137.91 0.
-769.92 -925.52 0.
-1031.03 -1528.3 0.
-1292.14 -2131.08 0.
-1977.98 -2452.91 0.
-1533.08 -1412.48 0.
-1088.17 -372.041 0.
-754.623 -74.8941 0.
-928.822 -478.136 0.
-1103.02 -881.375 0.
-453.903 -594.682 0.
-405.105 -489.286 0.
-148.17 -280.73 0.
-209.849 -323.138 0.
-221.047 -343.911 0.
-918.153 -1078.37 0.
-1726.4 -2961.46 0.
-2534.64 -4844.54 0.
-1553.27 -4469.23 0.
-747.949 -2592.83 0.
57.3701 -716.432 0.
-6.68414 -406.726 0.
-80.3782 -583.379 0.
-154.074 -760.033 0.
99.1548 -566.259 0.
145.11 -459.505 0.
-439.897 -573.895 0.
-238.787 -97.3605 0.
-37.6777 379.172 0.
156.946 562.189 0.
-32.1943 126.33 0.
-221.334 -309.527 0.
-110.44 -167.837 0.
81.6591 279.372 0.
273.758 726.582 0.
469.417 810.403 0.
425.372 718.983 0.
37.9612 200.479 0.
-108.584 548.772 0.
-130.156 496.292 0.
-154.061 16.772 0.
-34.9909 296.41 0.
-7.28144 362.891 0.
-439.339 -1224.2 0.
377.382 688.17 0.
204.279 290.547 0.
197.681 -460.872 0.
-125.422 -1211.21 0.
365.933 -61.1641 0.
-121.989 234.226 0.
-129.636 210.837 0.
165.756 -123.108 0.
364.732 333.069 0.
-113.409 -790.706 0.
-663.344 -1965.27 0.
-532.446 -1661.62 0.
-174.007 -827.066 0.
62.5119 -586.151 0.
167.593 -342.161 0.
285.854 -67.4597 0.
-223.455 -100.063 0.
-560.22 -882.949 0.
-510.708 -655.185 0.
-66.1901 -281.842 0.
-369.607 -1002.17 0.
-247.298 -627.127 0.
96.7028 171.436 0.
353.505 766.554 0.
-1077.15 -2452.32 0.
-669.486 -1505.7 0.
-213.427 -446.061 0.
-22.0968 -128.941 0.
-978.629 -2359.81 0.
-1759.59 -4181.12 0.
-1105.76 -3625.92 0.
-783.929 -2871.78 0.
1985.88 -2030.71 0.
1839.46 -2371.37 0.
1897.3 -2235.55 0.
3667.53 -2210.56 0.
3325.47 -3005.6 0.
3822.89 -1842.01 0.
6761.26 -525.436 0.
6918.99 -159.316 0.
6891.61 -217.663 0.
16605.6 2934.17 0.
16187 1976.09 0.
4575.22 -5821.41 0.
11260.4 -346.534 0.
12133.8 1673.21 0.
7359.89 1085.91 0.
6514.55 -900.654 0.
5687.74 -2843.91 0.
3321.32 -2166.95 0.
4006.76 -579.045 0.
4052.4 -484.019 0.
931.789 -2705.56 0.
618.008 -3439.57 0.
1874.1 -510.447 0.
329.784 -1284.27 0.
-168.857 -2441.96 0.
-311.901 -1913.61 0.
684.1 412.398 0.
142.446 -849.485 0.
-783.76 -1635.11 0.
-913.176 -1937.43 0.
-735.554 -1523.3 0.
-1345.83 -2053.62 0.
-391.3 175.219 0.
-422.778 103.437 0.
-757.762 -1337.53 0.
-844.458 -1539.16 0.
-160.828 315.316 0.
-874.83 -794.232 0.
-1363.04 -1936.82 0.
513.829 -192.217 0.
-23.1132 -1446.82 0.
-69.0071 -1555.58 0.
-181.796 -1512.37 0.
69.1966 -923.981 0.
282.414 -423.67 0.
-559.557 -1415.83 0.
-406.35 -1052.02 0.
-678.017 -1679.63 0.
355.038 152.045 0.
746.591 1064.09 0.
380.93 1178.25 0.
166.253 664.687 0.
-66.9201 107.798 0.
-118.854 -62.6484 0.
107.282 460.912 0.
817.992 2115.15 0.
281.179 1099 0.
-3.87384 434.164 0.
-181.048 21.0855 0.
439.475 992.212 0.
39.8858 48.2578 0.
148.436 189.957 0.
-126.943 227.369 0.
-61.2671 378.466 0.
129.445 541.983 0.
39.04 331.405 0.
-51.3654 120.826 0.
-102.327 -139.662 0.
-274.887 -535.134 0.
-447.447 -930.606 0.
-39.4205 -828.661 0.
0.384491 -732.99 0.
40.1889 -637.318 0.
-429.981 -686.947 0.
-337.696 -474.832 0.
280.593 -55.0607 0.
196.559 -254.899 0.
112.524 -454.737 0.
10.521 -715.093 0.
-175.146 -1149.23 0.
-360.814 -1583.37 0.
-238.551 -1608.99 0.
-140.252 -1380.21 0.
-41.9521 -1151.44 0.
-442.637 -1162.26 0.
-372.113 -995.983 0.
-306.293 -831.552 0.
-429.186 -897.6 0.
-422.115 -892.826 0.
-301.072 -886.246 0.
-435.62 -1202.51 0.
-570.169 -1518.78 0.
-498.463 -1665.76 0.
-518.476 -1715.87 0.
-538.489 -1765.99 0.
72.6695 -1483.37 0.
101.742 -1413.08 0.
130.825 -1342.78 0.
407.932 -1711.3 0.
98.0485 -2430.78 0.
2255.1 -2056.51 0.
2076.03 -2469.86 0.
1896.96 -2883.22 0.
3896.24 -2356.32 0.
3708.76 -2789.17 0.
3521.29 -3222.03 0.
5382.65 -2035.19 0.
5940.42 -743.472 0.
6498.17 548.263 0.
13438.6 2054.67 0.
12255.4 -696.916 0.
5014.58 -6038.39 0.
9007.8 -2008.41 0.
10229.4 833.369 0.
6196.63 660.891 0.
5756.02 -373.35 0.
5315.39 -1407.58 0.
3523.45 -2649.21 0.
3482.47 -2755.06 0.
3441.51 -2860.91 0.
1203.38 -3494.81 0.
1475.29 -2860.84 0.
1747.19 -2226.88 0.
323.624 -2238.79 0.
633.919 -1511.7 0.
361.265 -1181.25 0.
188.097 -1584.13 0.
14.9313 -1987.01 0.
-790.7 -2443.06 0.
-652.766 -2123.57 0.
-514.83 -1804.08 0.
-784.618 -1687.67 0.
-684.203 -1449.62 0.
-583.787 -1211.57 0.
-655.273 -947.238 0.
-489.807 -558.113 0.
-357.592 -224.44 0.
-685.636 -928.036 0.
-981.861 -1618 0.
-88.8239 -1698.33 0.
-183.307 -1917.48 0.
-277.79 -2136.63 0.
-262.963 -2012.56 0.
-23.2737 -1451.7 0.
216.413 -890.832 0.
-138.562 -585.736 0.
97.195 -31.144 0.
332.95 523.448 0.
139.84 169.696 0.
-31.8025 -231.821 0.
-246.391 -635.936 0.
-299.635 -768.066 0.
-352.879 -900.198 0.
-546.271 -866.042 0.
-316.425 -330.29 0.
-86.5778 205.462 0.
-178.517 234.732 0.
-251.265 65.7049 0.
-324.014 -103.322 0.
-98.2032 -50.5235 0.
-108.418 -81.7279 0.
304.541 285.906 0.
34.8923 326.32 0.
100.619 477.589 0.
218.324 613.091 0.
128.3 401.919 0.
38.2755 190.747 0.
-242.504 -168.561 0.
-415.135 -563.838 0.
-587.766 -959.113 0.
-118.983 -829.591 0.
-79.0919 -734.442 0.
-39.2012 -639.293 0.
-307.289 -603.578 0.
-215.849 -390.9 0.
402.309 28.7831 0.
316.862 -170.357 0.
231.413 -369.496 0.
195.171 -606.514 0.
9.29698 -1040.44 0.
-176.577 -1474.36 0.
-54.5727 -1500.11 0.
43.5872 -1270.79 0.
141.747 -1041.46 0.
-136.865 -999.695 0.
-65.7721 -833.689 0.
-12.9658 -675.313 0.
-532.882 -909.56 0.
-526.042 -904.744 0.
-214.873 -817.766 0.
-350.391 -1134.07 0.
-485.91 -1450.37 0.
-186.481 -1502.68 0.
-207.121 -1552.63 0.
-227.762 -1602.58 0.
915.788 -1091.32 0.
944.369 -1020.8 0.
972.958 -950.279 0.
1274.18 -1307.88 0.
964.091 -2027.86 0.
2612.79 -1875.06 0.
2432.79 -2287.27 0.
2252.79 -2699.49 0.
4267.55 -2170.07 0.
4079.7 -2601.98 0.
3891.86 -3033.89 0.
4505.87 -2374.16 0.
5065.89 -1084.41 0.
5625.91 205.35 0.
10037.7 627.932 0.
8860.71 -2118.58 0.
1169.93 -7659.48 0.
7133.59 -2785.57 0.
8350.58 54.676 0.
5011.13 183.432 0.
4568.43 -847.541 0.
4125.72 -1878.51 0.
4038.4 -2401.71 0.
3997.01 -2507.41 0.
3955.62 -2613.11 0.
1966.15 -3138.07 0.
2237.82 -2502.78 0.
2509.48 -1867.49 0.
831.743 -1993.87 0.
1143.27 -1267.1 0.
819.632 -949.474 0.
647.088 -1352.51 0.
474.546 -1755.54 0.
-356.535 -2222.08 0.
-217.936 -1902.93 0.
-79.3352 -1583.78 0.
-273.054 -1438.34 0.
-173.255 -1199.39 0.
-73.455 -960.446 0.
-717.947 -942.118 0.
-553.257 -552.601 0.
45.2135 -22.2366 0.
-367.707 -760.511 0.
-665.279 -1449.33 0.
-21.9117 -1642.75 0.
-117.162 -1860.62 0.
-212.412 -2078.5 0.
-83.9422 -1904.92 0.
156.447 -1344.03 0.
396.834 -783.137 0.
-40.2512 -508.578 0.
196.209 45.6933 0.
432.668 599.964 0.
-115.192 94.4247 0.
-287.137 -306.942 0.
-46.2661 -518.439 0.
-100.865 -649.157 0.
-155.465 -779.875 0.
-633.935 -876.29 0.
-405.13 -339.557 0.
-176.325 197.175 0.
-271.679 225.567 0.
-344.554 56.7332 0.
-417.43 -112.101 0.
-193.365 -60.7386 0.
-205.007 -91.0881 0.
83.1402 -115.154 0.
-61.0001 -106.213 0.
-37.4339 -55.2667 0.
-15.4015 -26.7851 0.
-61.183 -138.67 0.
-106.965 -250.555 0.
-240.7 -277.936 0.
-126.934 -22.2058 0.
-13.1661 233.526 0.
303.006 324.919 0.
195.674 73.2577 0.
88.3408 -178.403 0.
-161.42 -590.258 0.
-337.215 -995.65 0.
-153.471 -1228.42 0.
-104.74 -1117.61 0.
-56.0107 -1006.79 0.
205.625 -889.678 0.
96.2147 -1144.9 0.
-13.1956 -1400.11 0.
77.5708 -1498.47 0.
36.67 -1596.44 0.
-4.23051 -1694.4 0.
-205.272 -1527.98 0.
-5.59335 -1063.76 0.
479.182 -477.284 0.
-515.486 -1175.28 0.
-676.584 -1553.59 0.
-383.801 -1692.4 0.
-369.005 -1658.6 0.
-354.21 -1624.8 0.
16.0364 -1542.76 0.
-103.252 -1830.82 0.
-222.542 -2118.88 0.
834.158 -2046.73 0.
587.762 -2619.56 0.
341.363 -3192.39 0.
1056.59 -3319.44 0.
829.871 -3845.76 0.
1761.42 -3841.51 0.
1725.15 -3923 0.
1688.88 -4004.5 0.
3680.91 -3079.93 0.
3877.09 -2619.67 0.
4073.27 -2159.42 0.
4191.66 -1689.06 0.
4425.54 -1141.9 0.
4659.42 -594.753 0.
8104.24 774.928 0.
7960.08 438.502 0.
919.726 -2855.65 0.
7092.16 45.9468 0.
7229.26 361.512 0.
3868.04 -979.765 0.
3627.35 -1540.85 0.
3386.65 -2101.93 0.
3929.52 -2196.07 0.
3836.51 -2401.56 0.
3743.51 -2607.06 0.
2089.96 -3198.03 0.
2217.14 -2894.93 0.
2344.32 -2591.84 0.
1011.77 -2882.8 0.
1158.26 -2537.69 0.
293.786 -2654.14 0.
341.349 -2538.91 0.
388.911 -2423.68 0.
-116.321 -2470.96 0.
20.5808 -2147.31 0.
157.483 -1823.65 0.
-136.797 -1649.18 0.
33.2001 -1258.58 0.
203.198 -867.984 0.
-696.415 -1183.12 0.
-678.908 -1151.1 0.
-37.425 -871.807 0.
-386.581 -1460.8 0.
-611.337 -1996.5 0.
-116.986 -2067.71 0.
-49.7105 -1920.41 0.
17.5668 -1773.1 0.
102.789 -1580.32 0.
214.958 -1315.76 0.
327.127 -1051.2 0.
-360.389 -1215.48 0.
-313.368 -1108.52 0.
-266.347 -1001.56 0.
-541.179 -796.415 0.
-370.607 -397.535 0.
377.969 198.679 0.
401.193 251.141 0.
424.418 303.604 0.
-321.079 -33.3244 0.
-366.556 -147.835 0.
-412.032 -262.346 0.
-267.822 -103.012 0.
-163.749 143.321 0.
-59.6765 389.653 0.
-37.6071 331.53 0.
-98.8041 189.669 0.
-138.824 -175.546 0.
47.1181 -28.1291 0.
69.5767 23.7217 0.
32.8037 25.3686 0.
-12.8499 -86.7722 0.
-58.5035 -198.913 0.
62.4872 -116.327 0.
176.68 138.875 0.
290.874 394.08 0.
242.114 329.564 0.
134.968 77.1672 0.
27.8224 -175.23 0.
76.1963 -456.571 0.
-98.9229 -863.142 0.
-271.398 -1250.17 0.
-223.706 -1138.66 0.
-176.014 -1027.16 0.
379.821 -784.231 0.
269.955 -1038.9 0.
160.09 -1293.56 0.
232.782 -1402.66 0.
191.964 -1500.37 0.
151.146 -1598.08 0.
-90.0399 -1449.62 0.
108.546 -984.816 0.
919.175 -257.641 0.
-64.3459 -951.044 0.
-225.453 -1329.67 0.
47.645 -1476.45 0.
61.4608 -1442.47 0.
75.276 -1408.49 0.
288.835 -1399.04 0.
167.836 -1686.02 0.
46.8363 -1973.01 0.
855.229 -2007.89 0.
607.039 -2580.02 0.
358.848 -3152.16 0.
1808.15 -2967.39 0.
1580.68 -3493.59 0.
1447.45 -3947.75 0.
1411.36 -4028.87 0.
1375.27 -4109.99 0.
2880.83 -3390.35 0.
3077.4 -2930.34 0.
3273.97 -2470.34 0.
3579.91 -1918.69 0.
3813.73 -1371.69 0.
4047.54 -824.697 0.
6618.46 165.047 0.
6473.58 -170.006 0.
2337.41 -2217.45 0.
5912.59 -427.412 0.
6048.6 -111.543 0.
3520 -1095.76 0.
3279.14 -1657.15 0.
3038.27 -2218.55 0.
2962.54 -2578.47 0.
2870.19 -2785.24 0.
2777.83 -2992 0.
1749.48 -3310.13 0.
1876.48 -3007.56 0.
2003.49 -2704.99 0.
1914.96 -2466 0.
2062.28 -2121.36 0.
359.608 -2596.47 0.
407.38 -2480 0.
455.153 -2363.52 0.
322.445 -2252.75 0.
459.387 -1928.77 0.
596.329 -1604.8 0.
-48.9591 -1583.8 0.
121.117 -1193.44 0.
291.193 -803.084 0.
-294.757 -974.519 0.
-276.928 -942.653 0.
32.1899 -812.457 0.
25.6747 -1253.54 0.
-199.899 -1788.51 0.
57.1486 -1964.97 0.
124.082 -1816.9 0.
191.017 -1668.83 0.
74.0238 -1562.04 0.
186.13 -1297.45 0.
298.235 -1032.87 0.
-428.606 -1211.22 0.
-381.627 -1104.16 0.
-334.648 -997.105 0.
-354.086 -687.512 0.
-184.531 -287.214 0.
492.908 281.152 0.
516.441 333.019 0.
539.974 384.886 0.
-319.927 -1.01602 0.
-365.845 -114.734 0.
-411.764 -228.453 0.
194.091 123.934 0.
298.069 370.688 0.
402.046 617.442 0.
35.1875 393.147 0.
-25.5105 251.962 0.
-62.9242 418.341 0.
185.766 134.108 0.
607.722 1123.55 0.
160.271 238.348 0.
-17.1093 -167.08 0.
142.724 214.463 0.
638.088 676.213 0.
557.616 491.184 0.
693.958 810.798 0.
365.053 749.698 0.
390.293 811.254 0.
244.713 474.287 0.
593.501 337.922 0.
406.608 -99.1908 0.
194.03 71.5937 0.
584.528 984.765 0.
219.445 134.899 0.
1023.38 423.568 0.
907.978 152.705 0.
752.846 -211.128 0.
1150.91 473.933 0.
1213.49 619.158 0.
635.219 -730.78 0.
488.525 -289.013 0.
747.86 307.889 0.
546.315 -561.983 0.
458.816 -579.665 0.
69.1649 -1496.4 0.
518.422 -1145.17 0.
961.011 -116.535 0.
1144.19 306.753 0.
1120.55 46.4633 0.
826.42 -643.15 0.
722.529 -888.474 0.
1495.08 -529.356 0.
1591.84 -307.232 0.
1223.35 -1170.14 0.
4088.14 989.982 0.
3515.6 -350.44 0.
2567.05 -708.252 0.
2423.27 -1054.07 0.
2533.86 -806.064 0.
3409.73 -582.047 0.
3724.73 142.832 0.
3501.5 -387.543 0.
3299.87 -1387.53 0.
3893.57 2.29344 0.
3830.74 -145.323 0.
5407.55 194.059 0.
5665.13 799.579 0.
-1119.77 -918.174 0.
5243.24 313.164 0.
5212.43 238.665 0.
3527.72 -397.51 0.
3282.42 -967.508 0.
3198.96 -1159.47 0.
3489.46 535.066 0.
3123.68 -318.312 0.
2980.89 -652.112 0.
2232.55 -1517.29 0.
2430.19 -1057.27 0.
2769.94 -266.158 0.
3570.32 -266.578 0.
3725.38 98.781 0.
1286.96 -530.56 0.
1261.36 -593.418 0.
1377.85 -324.392 0.
1466.92 -362.474 0.
1857.33 544.934 0.
1428.9 -458.389 0.
277.134 -975.232 0.
553.55 -326.932 0.
692.939 1.39425 0.
354.578 -197.154 0.
853.309 966.928 0.
102.087 -158.358 0.
860.888 -46.5777 0.
1278.13 925.945 0.
1085.38 135.862 0.
942.184 -200.883 0.
941.331 -205.727 0.
463.674 -584.429 0.
496.541 -505.154 0.
880.508 393.45 0.
73.783 104.461 0.
-121.728 -348.77 0.
430.456 942.163 0.
295.788 522.168 0.
459.595 908.182 0.
429.046 -49.5697 0.
634.463 433.533 0.
691.893 571.206 0.
-641.338 -738.607 0.
-104.784 515.024 0.
-87.0238 557.568 0.
419.71 -162.183 0.
771.165 656.984 0.
594.063 243.028 0.
-181.094 -227.746 0.
-217.264 -306.822 0.
190.141 269.251 0.
88.7437 -70.078 0.
-79.4882 -459.987 0.
-172.737 -747.775 0.
-129.428 -640.949 0.
-86.1192 -534.123 0.
141.344 -474.2 0.
28.1234 -738.376 0.
-85.0974 -1002.55 0.
-239.462 -1089.56 0.
-178.967 -949.42 0.
-118.471 -809.282 0.
99.8182 -623.14 0.
142.046 -522.266 0.
253.998 -422.076 0.
70.3021 -849.167 0.
-113.392 -1276.26 0.
61.5001 -1449.59 0.
47.354 -1482.06 0.
33.2076 -1514.52 0.
331.738 -1267.3 0.
468.524 -947.287 0.
605.31 -627.279 0.
57.8193 -1155.55 0.
-199.196 -1759.43 0.
-95.675 -2208.99 0.
-14.4765 -2066.07 0.
61.0589 -1895.91 0.
428.733 -1631.12 0.
441.305 -1605.75 0.
453.877 -1580.39 0.
628.245 -1580.32 0.
508.833 -1861.88 0.
389.42 -2143.44 0.
1062.48 -2142.47 0.
901.336 -2523.33 0.
740.193 -2904.19 0.
2532.04 -2129.66 0.
2559.57 -2068.24 0.
2092.22 -2218.07 0.
2111.8 -2181.01 0.
2131.39 -2143.95 0.
2539.93 -1919.25 0.
2597.14 -1795.71 0.
2654.35 -1672.16 0.
2930.92 -1265.99 0.
3169.08 -715.754 0.
3407.24 -165.511 0.
4833.39 362.252 0.
4709.5 74.5806 0.
404.138 -2003.68 0.
4626.89 -231.89 0.
4606.37 -278.618 0.
2690.24 -1126.51 0.
2707.17 -1084.09 0.
2724.09 -1041.68 0.
2420.59 -1372.67 0.
2169.38 -1961.84 0.
1918.18 -2551.01 0.
2046.05 -2565.18 0.
2101.56 -2435.44 0.
2157.07 -2305.69 0.
2639.91 -1853.4 0.
2772.84 -1542.34 0.
863.791 -2136.13 0.
885.657 -2085.19 0.
907.523 -2034.24 0.
729.423 -2014.19 0.
825.217 -1792.85 0.
921.011 -1571.51 0.
320.518 -1771.48 0.
301.301 -1813.5 0.
282.083 -1855.51 0.
-123.103 -1943.27 0.
-60.2778 -1797.16 0.
-113.579 -1699.53 0.
126.368 -1399.91 0.
231.002 -1158.21 0.
662.282 -888.454 0.
567.743 -1113.53 0.
473.204 -1338.61 0.
95.0495 -1449.31 0.
229.956 -1129.84 0.
364.862 -810.371 0.
-328.263 -1045.72 0.
-331.642 -1052.49 0.
-335.02 -1059.25 0.
-248.7 -1002.21 0.
-240.725 -982.509 0.
-111.957 -880.224 0.
-24.748 -678.072 0.
62.46 -475.92 0.
-203.309 -476.751 0.
-173.595 -410.236 0.
-143.881 -343.723 0.
45.7454 -204.855 0.
80.6971 -125.775 0.
115.65 -46.6948 0.
53.3784 55.4803 0.
121.4 219.514 0.
593.121 469.888 0.
92.2515 -39.9201 0.
-75.0938 -430.637 0.
-44.2944 -657.346 0.
-0.449023 -551.806 0.
43.396 -446.265 0.
154.098 -435.47 0.
41.6436 -700.658 0.
-70.8116 -965.845 0.
3.34983 -951.125 0.
65.2668 -811.964 0.
127.184 -672.802 0.
14.0877 -629.326 0.
55.647 -527.926 0.
602.028 -241.39 0.
418.872 -668.937 0.
235.719 -1096.48 0.
-117.396 -1495.01 0.
-132.361 -1526.61 0.
-147.325 -1558.22 0.
260.144 -1267.81 0.
396.874 -947.248 0.
533.603 -626.689 0.
0.963926 -1151.61 0.
-257.548 -1754.02 0.
-121.626 -2187.75 0.
201.515 -1945.67 0.
277.406 -1775.91 0.
593.105 -1527.5 0.
605.505 -1502.43 0.
617.905 -1477.35 0.
896.829 -1430.5 0.
777.196 -1713.06 0.
657.561 -1995.63 0.
1397 -1966.87 0.
1236.01 -2347.83 0.
1075.02 -2728.8 0.
2280.3 -2206.94 0.
2307.59 -2145.27 0.
2320.86 -2087.01 0.
2339.86 -2049.69 0.
2358.85 -2012.36 0.
2191.8 -2039.78 0.
2249.19 -1916.21 0.
2306.57 -1792.63 0.
2431.45 -1447.38 0.
2671.66 -898.581 0.
2911.87 -349.771 0.
4064.25 66.4175 0.
3941.06 -221.561 0.
-1875.93 -2948.89 0.
4170.74 -395.726 0.
4150.19 -443.114 0.
2064.5 -1358.58 0.
2081.92 -1316.84 0.
2099.34 -1275.11 0.
2130.71 -1464.67 0.
1880.47 -2054.21 0.
1630.23 -2643.75 0.
2383.01 -2391.6 0.
2437.49 -2260.62 0.
2491.97 -2129.64 0.
2350.64 -1945.91 0.
2483.93 -1634.74 0.
1206.68 -1958.76 0.
1227.3 -1906.25 0.
1247.91 -1853.75 0.
706.494 -1995.33 0.
802.629 -1773.88 0.
898.765 -1552.43 0.
806.287 -1531.87 0.
788.056 -1574.6 0.
769.824 -1617.34 0.
224.655 -1762.06 0.
287.895 -1616.33 0.
438.502 -1432.34 0.
-47.3659 -1443.61 0.
56.761 -1202.04 0.
703.212 -835.937 0.
608.792 -1061.56 0.
514.372 -1287.19 0.
111.771 -1412.75 0.
246.109 -1093.03 0.
380.447 -773.302 0.
-200.698 -960.6 0.
-203.638 -968.212 0.
-206.579 -975.823 0.
-98.1756 -906.619 0.
-89.478 -887.578 0.
-320.618 -936.275 0.
-232.027 -735.524 0.
-143.436 -534.773 0.
214.402 -262.911 0.
245.34 -197.31 0.
276.278 -131.709 0.
-373.777 -353.901 0.
-338.148 -274.849 0.
-302.518 -195.796 0.
208.777 154.097 0.
277.439 319.539 0.
524.473 484.392 0.
177.785 201.318 0.
176.487 197.781 0.
376.882 236.082 0.
247.816 -66.6266 0.
118.75 -369.334 0.
118.192 -511.665 0.
127.601 -490.424 0.
137.009 -469.183 0.
315.732 -465.213 0.
248.807 -620.536 0.
181.883 -775.859 0.
30.1663 -845.141 0.
38.1059 -826.546 0.
510.289 -621.576 0.
386.096 -910.362 0.
261.904 -1199.15 0.
-173.076 -1542.34 0.
-158.912 -1508.59 0.
-144.749 -1474.84 0.
239.85 -1360.77 0.
174.974 -1511.55 0.
110.098 -1662.33 0.
-175.121 -1683.96 0.
-74.1455 -1451.14 0.
689.973 -933.992 0.
650.573 -1207.24 0.
505.529 -1546.02 0.
556.312 -1766.77 0.
516.803 -1859.46 0.
477.294 -1952.15 0.
756.063 -1936.38 0.
684.366 -2105.38 0.
612.67 -2274.38 0.
1397.18 -2059.67 0.
1339.84 -2189.5 0.
1282.5 -2319.32 0.
2234.57 -2030.52 0.
2167.75 -2183.23 0.
2130.77 -2306.17 0.
2182.52 -2188.23 0.
2234.28 -2070.28 0.
1927.25 -2034.5 0.
2095.85 -1635.86 0.
2264.44 -1237.23 0.
2303.47 -974.293 0.
2407.47 -726.868 0.
2511.48 -479.444 0.
3573.23 -178.435 0.
3442.98 -483.372 0.
-6385.39 -4943.73 0.
3819.24 -363.829 0.
3930.17 -109.407 0.
1952.88 -809.609 0.
1913.6 -894.902 0.
1874.33 -980.199 0.
2210.9 -938.529 0.
2127.41 -1129.35 0.
2043.92 -1320.17 0.
2714.45 -1196.19 0.
2625.71 -1396.65 0.
2536.99 -1597.12 0.
2333.21 -1714.61 0.
2323 -1727.92 0.
1239.22 -2199.44 0.
1240.45 -2196.91 0.
1241.69 -2194.37 0.
559.156 -2419.32 0.
651.98 -2196.65 0.
744.804 -1973.99 0.
803.972 -1816.92 0.
853.02 -1700.7 0.
902.069 -1584.48 0.
551.734 -1617.38 0.
618.402 -1461.35 0.
839.613 -1256.08 0.
-284.507 -1807.41 0.
-321.231 -1892.65 0.
380.474 -1626.22 0.
394.662 -1582.47 0.
408.851 -1538.71 0.
60.9558 -1661.46 0.
70.5425 -1640.56 0.
80.1292 -1619.66 0.
-342.473 -1555.86 0.
-174.785 -1161.71 0.
-7.09572 -767.562 0.
162.25 -599.192 0.
213.03 -479.582 0.
-221.25 -558.051 0.
-171.086 -435.521 0.
-120.921 -312.991 0.
394.91 -85.4292 0.
334.567 -223.691 0.
274.225 -361.952 0.
-534.113 -603.188 0.
-417.419 -326.4 0.
-300.725 -49.6127 0.
4.58551 -140.973 0.
-155.873 -517.554 0.
-25.2778 277.645 0.
164.602 225.965 0.
161.676 222.716 0.
396.439 276.805 0.
266.704 -26.3288 0.
136.969 -329.461 0.
127.71 -475.78 0.
137.374 -454.935 0.
147.036 -434.09 0.
368.255 -410.162 0.
302.022 -565.977 0.
235.788 -721.791 0.
383.509 -664.799 0.
391.48 -645.437 0.
372.949 -649.948 0.
249.115 -938.622 0.
125.282 -1227.3 0.
-62.7061 -1464.91 0.
-48.0801 -1431.28 0.
-33.4541 -1397.65 0.
380.334 -1271.88 0.
315.091 -1422.27 0.
249.848 -1572.66 0.
26.2814 -1566 0.
126.655 -1332.53 0.
427.588 -1013.05 0.
800.55 -1115.07 0.
655.042 -1453.59 0.
579.499 -1726.36 0.
539.42 -1818.41 0.
499.343 -1910.46 0.
728.696 -1916.06 0.
656.578 -2085.76 0.
584.461 -2255.46 0.
1201.86 -2112.54 0.
1144.51 -2243.24 0.
1087.16 -2373.95 0.
2214.83 -2005.17 0.
2148.49 -2157.68 0.
1715.35 -2454.34 0.
1766.57 -2336.08 0.
1817.79 -2217.82 0.
1645.84 -2123.39 0.
1814.79 -1726.1 0.
1983.74 -1328.8 0.
2000.19 -1066.99 0.
2104.47 -820.748 0.
2208.75 -574.508 0.
3418.16 -213.812 0.
3287.96 -518.7 0.
7607.53 1084.41 0.
3434.44 -495.758 0.
3544.1 -240.566 0.
1779.6 -850.013 0.
1740.07 -935.693 0.
1700.54 -1021.38 0.
2159.16 -930.561 0.
2075.21 -1121.16 0.
1991.26 -1311.75 0.
1977.18 -1481.82 0.
1888.61 -1682.58 0.
1800.04 -1883.35 0.
2364.44 -1666.18 0.
2354.98 -1680.96 0.
1274.68 -2152.91 0.
1276.62 -2151.6 0.
1278.57 -2150.29 0.
682.6 -2332.76 0.
776.604 -2111.27 0.
870.609 -1889.78 0.
654.683 -1851.61 0.
704.5 -1735.64 0.
754.318 -1619.66 0.
873.952 -1445.92 0.
940.584 -1289.85 0.
828.764 -1229.27 0.
-271.606 -1770.66 0.
-308.421 -1855.95 0.
398.967 -1586.01 0.
413.778 -1542.94 0.
428.589 -1499.87 0.
213.255 -1564.16 0.
221.445 -1542.92 0.
229.634 -1521.68 0.
-160.141 -1447.84 0.
7.3653 -1055.14 0.
174.872 -662.439 0.
339.374 -492.075 0.
390.365 -372.405 0.
-172.854 -506.216 0.
-121.834 -384.17 0.
-70.8128 -262.125 0.
267.585 -107.771 0.
207.329 -246.238 0.
147.073 -384.705 0.
-245.948 -448.626 0.
-129.418 -171.47 0.
-12.8897 105.684 0.
-293.249 -235.532 0.
-454.874 -611.991 0.
-314.964 686.986 0.
27.4161 -40.7532 0.
-132.874 -420.797 0.
347.443 161.338 0.
338.669 141.49 0.
762.169 1131.57 0.
159.19 -382.746 0.
242.446 -190.068 0.
313.582 -26.3504 0.
331.405 -578.946 0.
606.38 67.4604 0.
693.153 275.197 0.
994.051 137.689 0.
1067.9 314.393 0.
617.439 206.079 0.
44.1026 -1130.6 0.
295.165 -543.213 0.
769.672 290.254 0.
957.977 730.186 0.
847.138 472.012 0.
1389.9 852.203 0.
1113.16 201.658 0.
1097.11 159.858 0.
630.765 -526.744 0.
1135.19 649.242 0.
1242.56 388.116 0.
1283.52 -245.824 0.
1649.53 607.339 0.
1635.1 715.627 0.
1562.76 552.084 0.
1149.5 -406.873 0.
1607.1 192.446 0.
1141.15 -889.3 0.
1158.93 -842.461 0.
2146.72 510.45 0.
2021.33 216.116 0.
1997.03 156.853 0.
3689.09 1520.4 0.
3008.38 -63.17 0.
1963.86 -1066.65 0.
2645.77 517.388 0.
2423.21 -8.52313 0.
2472.33 388.457 0.
1979.68 -768.466 0.
2333.43 55.3721 0.
1965.67 -524.168 0.
2015.84 -413.612 0.
2301.24 245.172 0.
3030.58 -783.44 0.
3551.23 433.07 0.
-4808.96 -787.852 0.
3700.62 899.926 0.
3314.37 1.77269 0.
2121.96 311.899 0.
1989.47 5.10621 0.
1815.97 -399.362 0.
2152.26 -808.26 0.
2732.55 540.739 0.
2458.34 -99.5935 0.
2474.8 1126.65 0.
2052.96 132.616 0.
1676.26 -757.749 0.
3401.46 746.803 0.
3472.02 903.713 0.
2713 1173.33 0.
2060.88 -348.634 0.
2104.5 -247.576 0.
1650.81 -292.39 0.
1445.41 -768.2 0.
1346.18 -996.631 0.
1379.91 156.502 0.
1242.71 -165.227 0.
1343.97 69.6293 0.
1636.56 -246.199 0.
1464.55 -648.231 0.
967.635 -455.246 0.
136.225 -817.697 0.
494.327 20.5013 0.
1132.08 120.588 0.
1029.47 -118.964 0.
620.865 -1073.36 0.
948.008 -95.2188 0.
1090.77 234.112 0.
1002.19 23.9483 0.
469.44 -286.217 0.
421.965 -393.284 0.
665.935 179.539 0.
769.934 214.195 0.
632.034 -109.338 0.
477.061 958.953 0.
190.757 292.542 0.
-212.3 -646.884 0.
494.98 686.857 0.
860.512 1544.86 0.
760.464 1316.5 0.
352.855 450.58 0.
369.517 486.587 0.
797.803 1483.96 0.
-4.40641 1011.47 0.
194.738 1475.64 0.
-626.728 -914.492 0.
-157.119 -618.601 0.
-178.688 -672.236 0.
-155.069 -674.038 0.
-78.225 -490.83 0.
-1.38029 -307.623 0.
232.986 -141.902 0.
190.265 -242.893 0.
147.545 -343.883 0.
515.391 -274.365 0.
470.3 -374.313 0.
425.208 -474.261 0.
657.259 -626.237 0.
505.451 -979.845 0.
-192.584 -1532.74 0.
-104.157 -1325.95 0.
-15.7293 -1119.16 0.
360.847 -902.748 0.
254.211 -1152.77 0.
147.574 -1402.79 0.
318.129 -1491.62 0.
246.608 -1662.57 0.
175.087 -1833.51 0.
308.713 -1692 0.
397.625 -1487.57 0.
755.659 -1167.71 0.
749.863 -1267.43 0.
692.046 -1401.9 0.
738.821 -1492.84 0.
666.046 -1659.05 0.
593.27 -1825.26 0.
1118.83 -1733.13 0.
1050.07 -1889.73 0.
981.314 -2046.34 0.
705.052 -2163.71 0.
744.22 -2074.29 0.
783.388 -1984.87 0.
2211.25 -1582.58 0.
2079.61 -1887.19 0.
1346.28 -2402.54 0.
1531.92 -1974.95 0.
1717.56 -1547.35 0.
1395.59 -1397.48 0.
1472.27 -1223.47 0.
1548.96 -1049.45 0.
1694.03 -993.375 0.
1630.29 -1151.23 0.
1566.55 -1309.08 0.
2825.95 -635.979 0.
2939.26 -373.776 0.
946.82 -1019.01 0.
2876.59 -250.834 0.
2846.81 -323.104 0.
1807.39 -809.967 0.
1798.2 -834.761 0.
1789.03 -859.555 0.
1732.12 -898.644 0.
1740.32 -880.616 0.
1748.53 -862.59 0.
1715.87 -1094.59 0.
1544.93 -1501.86 0.
1373.99 -1909.13 0.
2167.93 -1425.82 0.
2269.28 -1195.66 0.
1389.61 -1412.35 0.
1370.64 -1460.8 0.
1351.66 -1509.25 0.
1185.19 -1630.15 0.
1151.7 -1706.52 0.
1118.2 -1782.88 0.
747.959 -1790.71 0.
907.557 -1421.16 0.
1067.16 -1051.62 0.
1261.57 -1056.95 0.
1170.94 -1265.56 0.
176.079 -1839.6 0.
-244.239 -2008 0.
-240.509 -1995.03 0.
385.37 -1675.68 0.
476.128 -1464.24 0.
566.885 -1252.81 0.
303.903 -1296.13 0.
285.962 -1337.84 0.
268.021 -1379.54 0.
17.8822 -1397.01 0.
89.4214 -1225.97 0.
160.96 -1054.94 0.
237.98 -938.723 0.
275.726 -852.614 0.
-274.618 -1046.67 0.
-290.636 -1082.65 0.
-306.652 -1118.62 0.
-311.57 -991.634 0.
-132.719 -569.55 0.
46.1313 -147.469 0.
20.0094 -123.159 0.
-58.5965 -307.47 0.
-137.202 -491.781 0.
-282.802 -414.235 0.
-179.513 -174.449 0.
-150.529 -677.577 0.
-61.8761 -543.942 0.
-84.5485 -597.978 0.
-316.298 -713.242 0.
-240.796 -529.77 0.
-165.293 -346.298 0.
212.344 -120.562 0.
169.583 -221.586 0.
126.821 -322.61 0.
595.014 -210.928 0.
550.077 -310.967 0.
505.14 -411.006 0.
662.235 -593.504 0.
510.551 -947.44 0.
-252.766 -1525.46 0.
-164.837 -1318.66 0.
-76.9074 -1111.87 0.
503.188 -808.554 0.
396.76 -1058.33 0.
290.332 -1308.1 0.
250.627 -1494.7 0.
177.796 -1664.66 0.
104.966 -1834.61 0.
545.958 -1556.02 0.
634.971 -1352.28 0.
294.725 -1332.66 0.
647.652 -1281.73 0.
589.83 -1416.27 0.
819.011 -1429.02 0.
746.124 -1595.66 0.
673.239 -1762.3 0.
1551.07 -1515.01 0.
1482.91 -1672.26 0.
1414.75 -1829.51 0.
361.198 -2276.4 0.
399.994 -2186.52 0.
438.79 -2096.65 0.
2046.66 -1623.59 0.
1915.21 -1927.97 0.
1308.33 -2387.22 0.
1493.18 -1958.86 0.
1678.04 -1530.5 0.
1030.6 -1523.89 0.
1106.41 -1349.74 0.
1182.23 -1175.58 0.
1630.24 -988.961 0.
1565.95 -1146.57 0.
1501.65 -1304.17 0.
2513.99 -740.04 0.
2626.77 -477.283 0.
-724.322 -1704.47 0.
2485.23 -386.541 0.
2454.84 -457.642 0.
2027.92 -685.414 0.
2019.38 -710.846 0.
2010.84 -736.278 0.
1282.44 -1057.44 0.
1291.45 -1040.78 0.
1300.47 -1024.12 0.
1967.99 -954.466 0.
1797.07 -1361.65 0.
1626.15 -1768.84 0.
1811.1 -1547.97 0.
1911.65 -1317.64 0.
1148.1 -1483.08 0.
1130.2 -1532.51 0.
1112.3 -1581.93 0.
1329.5 -1536.74 0.
1296.7 -1613.04 0.
1263.9 -1689.33 0.
1012 -1648.39 0.
1172.61 -1279.33 0.
1333.22 -910.266 0.
1244.42 -1029.97 0.
1153.55 -1237.58 0.
6.13696 -1880.88 0.
-69.9259 -1902.17 0.
-65.8836 -1889.52 0.
430.19 -1626.04 0.
520.562 -1414.15 0.
610.933 -1202.25 0.
159.292 -1327.95 0.
140.738 -1369.39 0.
122.183 -1410.84 0.
63.8744 -1344.91 0.
135.684 -1174.69 0.
207.494 -1004.47 0.
207.715 -920.253 0.
245.85 -834.598 0.
-126.297 -953.103 0.
-142.482 -989.136 0.
-158.666 -1025.17 0.
-399.687 -995.357 0.
-220.785 -573.585 0.
-41.8831 -151.815 0.
-71.7837 -132.683 0.
-150.653 -316.769 0.
-229.522 -500.855 0.
141.155 -201.665 0.
244.901 38.5313 0.
364.851 139.835 0.
42.9503 -65.1788 0.
80.8138 22.8706 0.
25.2163 25.8101 0.
-99.1455 -265.371 0.
-223.506 -556.553 0.
-85.5497 -682.513 0.
-135.192 -793.501 0.
-184.834 -904.488 0.
210.53 -914.721 0.
85.4525 -1208.5 0.
-39.6253 -1502.28 0.
351.657 -1241.58 0.
437.207 -1036.3 0.
27.8378 -1053.39 0.
-66.3991 -1273.45 0.
-160.636 -1493.51 0.
307.157 -1392.7 0.
370.96 -1239.16 0.
434.763 -1085.62 0.
512.741 -961.726 0.
541.887 -897.784 0.
571.033 -833.842 0.
879.959 -859.917 0.
751.887 -1155.63 0.
726.628 -1406.82 0.
556.502 -1465.97 0.
570.607 -1433.61 0.
914.393 -1272.42 0.
866.897 -1385.64 0.
819.401 -1498.86 0.
1671.49 -1190.71 0.
1672.02 -1192.83 0.
1672.56 -1194.95 0.
599.878 -1647.02 0.
607.639 -1633.88 0.
615.401 -1620.75 0.
2196.91 -1086.16 0.
2108.04 -1295.89 0.
1382.66 -1765.56 0.
1366.48 -1802.63 0.
1350.29 -1839.7 0.
773.573 -1960.83 0.
1006.38 -1414.63 0.
1239.2 -868.419 0.
1706.81 -505.014 0.
1676.1 -580.463 0.
1645.4 -655.912 0.
2546.8 -222.098 0.
2595.2 -114.653 0.
-812.961 -1492.12 0.
2269.63 -262.958 0.
2222.7 -374.168 0.
1905.12 -586.961 0.
1879.72 -640.304 0.
1854.32 -693.647 0.
1201.32 -1062.43 0.
1127.75 -1231.25 0.
1054.19 -1400.06 0.
1856.19 -1058.72 0.
1889.97 -973.466 0.
1923.75 -888.213 0.
1829.79 -1076.68 0.
1741.37 -1273.25 0.
1019.65 -1710.93 0.
1068.96 -1588.39 0.
1118.28 -1465.85 0.
1343.3 -1369.59 0.
1249.96 -1585.32 0.
1156.63 -1801.05 0.
846.053 -1969.96 0.
876.443 -1895.3 0.
906.835 -1820.63 0.
1074.54 -1575.29 0.
1168.09 -1355.58 0.
526.33 -1465.62 0.
187.046 -1578.06 0.
205.303 -1536.8 0.
457.116 -1391.39 0.
466.583 -1368.64 0.
476.051 -1345.89 0.
135.071 -1374.81 0.
256.613 -1092.79 0.
378.154 -810.772 0.
367.083 -771.626 0.
348.593 -815.959 0.
330.103 -860.292 0.
258.086 -704.701 0.
367.709 -446.803 0.
323.238 -257.054 0.
383.026 -118.55 0.
442.815 19.9551 0.
-16.4132 -182.977 0.
-105.45 -393.989 0.
-194.487 -605 0.
-330.313 -676.062 0.
-286.85 -576.523 0.
-243.389 -476.984 0.
349.177 24.2308 0.
505.157 374.899 0.
333.228 154.619 0.
-250.543 -160.164 0.
-212.899 -72.8655 0.
284.179 169.283 0.
158.943 -121.933 0.
33.7087 -413.149 0.
-183.508 -692.898 0.
-232.684 -804.792 0.
-281.862 -916.685 0.
-30.0727 -988.802 0.
-155.479 -1282.57 0.
-280.886 -1576.33 0.
289.45 -1233.24 0.
375.971 -1029.1 0.
313.385 -900.698 0.
218.273 -1120.55 0.
123.161 -1340.4 0.
325.534 -1353.39 0.
390.187 -1200.81 0.
454.84 -1048.23 0.
690.758 -851.389 0.
720.208 -787.876 0.
749.658 -724.363 0.
778.086 -873.105 0.
650.111 -1169.25 0.
546.321 -1455 0.
664.307 -1388.42 0.
677.576 -1354.83 0.
947.717 -1228.33 0.
899.744 -1340.82 0.
851.771 -1453.3 0.
1238.52 -1346.9 0.
1237.53 -1347.86 0.
1236.55 -1348.82 0.
891.964 -1490.86 0.
899.769 -1477.58 0.
907.575 -1464.29 0.
2192.09 -1059.92 0.
2102.91 -1268.73 0.
974.962 -1908.02 0.
958.121 -1944.6 0.
941.282 -1981.17 0.
1004.47 -1834.48 0.
1236.68 -1287.17 0.
1468.88 -739.873 0.
1486.63 -565.551 0.
1456.56 -641.678 0.
1426.5 -717.806 0.
2416.4 -248.394 0.
2464.37 -140.694 0.
240.323 -1008.25 0.
2063.3 -318.233 0.
2016.48 -429.38 0.
1300.62 -815.428 0.
1275.39 -868.853 0.
1250.15 -922.278 0.
1467.62 -918.227 0.
1395.14 -1088.4 0.
1322.66 -1258.57 0.
1458.01 -1198.02 0.
1493.33 -1114.37 0.
1528.66 -1030.72 0.
1765.03 -1071.62 0.
1677.25 -1269.29 0.
1167.03 -1615.67 0.
1217.45 -1493.83 0.
1267.88 -1371.98 0.
1082.44 -1450.67 0.
988.948 -1666.53 0.
895.453 -1882.38 0.
536.02 -2068.83 0.
566.14 -1993.53 0.
596.262 -1918.23 0.
1286.15 -1459.11 0.
1378.44 -1238.57 0.
1028.47 -1216.23 0.
346.153 -1476.24 0.
364.609 -1435.38 0.
283.16 -1435.89 0.
292.867 -1412.98 0.
302.575 -1390.06 0.
296.981 -1275.34 0.
419.705 -993.885 0.
542.429 -712.432 0.
485.592 -688.401 0.
468.164 -733.283 0.
450.735 -778.165 0.
225.158 -685.646 0.
334.593 -428.341 0.
575.49 -119.136 0.
635.262 19.9075 0.
695.036 158.952 0.
194.816 -59.9666 0.
105.385 -270.499 0.
15.9535 -481.031 0.
-263.864 -616.79 0.
-220.64 -517.378 0.
-177.416 -417.966 0.
231.166 3.26101 0.
386.772 353.096 0.
619.287 894.999 0.
-99.1017 765.642 0.
-420.9 10.1884 0.
885.876 1147.31 0.
473.91 177.231 0.
684.607 660.677 0.
-62.1051 -215.995 0.
-40.0748 -163.372 0.
-36.0261 -152.769 0.
440.72 584.933 0.
338.802 349.72 0.
537.356 815.882 0.
1116.88 851.561 0.
907.219 367.97 0.
1054.63 327.593 0.
705.914 -487.729 0.
999.374 195.921 0.
1068.82 374.368 0.
1084.46 415.501 0.
1152.65 578.959 0.
1045.88 -327.928 0.
1182.11 0.812836 0.
1504.6 764.125 0.
1176.8 255.314 0.
1145.3 185.484 0.
1186.6 -502.509 0.
918.33 -989.616 0.
1690.36 814.963 0.
1387.6 -247.918 0.
1724.19 542.049 0.
1548.18 136.683 0.
1324.25 -289.712 0.
1525.1 172.803 0.
1251.74 -470.462 0.
1804.71 109.307 0.
1639.87 -272.763 0.
1564.19 -446.937 0.
2283.55 -801.007 0.
2360.19 -628.113 0.
1480.17 96.3555 0.
1385.1 -122.077 0.
1653.22 505.465 0.
2089.31 290.575 0.
2046.52 188.475 0.
2232.29 620.262 0.
1639.26 234.598 0.
1539.81 -0.660798 0.
1483.94 -133.733 0.
2504.38 229.719 0.
2643.79 558.037 0.
-660.914 -593.013 0.
2427.96 945.085 0.
1680.77 -797.029 0.
994.47 -342.467 0.
1604.98 1083.79 0.
1029.42 -256.548 0.
1930.43 -315.545 0.
1575.77 -1147.53 0.
1401.59 -1556.46 0.
1536.15 -240.343 0.
1415.92 -515.32 0.
1746.85 262.011 0.
2298.85 314.943 0.
2025.44 -330.687 0.
1857.88 -250.456 0.
2043.63 185.835 0.
1994.63 74.4738 0.
1049.42 -1001.12 0.
1753.91 644.203 0.
1764.73 671.088 0.
1057.19 -230.485 0.
1021.63 -312.37 0.
1250.82 224.063 0.
1992.02 -183.21 0.
1822.55 -577.37 0.
1777.26 1099.7 0.
1412.83 740.038 0.
1338.87 566.776 0.
958.958 493.589 0.
554.293 -452.87 0.
912.031 379.097 0.
905.777 -137.049 0.
1072.2 255.018 0.
1456.28 1154.76 0.
1075.91 495.353 0.
1000.78 322.722 0.
523.721 -786.188 0.
622.121 312.271 0.
259.771 -532.536 0.
892.761 199.553 0.
1311.86 1176.9 0.
1080.03 635.261 0.
9.08107 -868.326 0.
547.122 385.969 0.
652.487 630.631 0.
50.1772 27.6994 0.
-35.044 -169.364 0.
501.427 1083.05 0.
434.891 754.163 0.
212.05 245.053 0.
479.461 -26.1713 0.
-421.126 -492.625 0.
-525.066 -737.684 0.
-120.958 -722.172 0.
-76.5619 -626.361 0.
-32.1647 -530.549 0.
194.471 -473.784 0.
79.9108 -739.745 0.
-34.649 -1005.71 0.
-251.188 -1159.44 0.
-233.531 -1118.71 0.
-215.874 -1077.98 0.
218.696 -988.112 0.
150.659 -1142.34 0.
393.072 -1168.29 0.
368.618 -1229.02 0.
344.164 -1289.75 0.
328.558 -1314.5 0.
348.456 -1265.04 0.
368.353 -1215.58 0.
743.655 -1119.68 0.
653.497 -1322.93 0.
563.339 -1526.18 0.
230.279 -1609.8 0.
292.485 -1458.25 0.
176.724 -1383.17 0.
913.336 -1263.92 0.
809.776 -1507.3 0.
618.981 -1743.57 0.
622.629 -1733.95 0.
626.277 -1724.33 0.
745.042 -1627.5 0.
793.235 -1520.85 0.
841.428 -1414.2 0.
1332.58 -1253.52 0.
1272.87 -1395.47 0.
1213.15 -1537.41 0.
1642.36 -1364.64 0.
1648.33 -1357.44 0.
862.163 -1676.37 0.
959.703 -1450.87 0.
1057.24 -1225.36 0.
1122.77 -1056.27 0.
1152.08 -994.737 0.
1181.38 -933.201 0.
1071.85 -879.419 0.
1151.29 -697.399 0.
1230.74 -515.379 0.
2211.08 -138.356 0.
2161.62 -258.1 0.
967.756 -870.122 0.
1937.51 -233.124 0.
2053.28 37.6396 0.
1225.37 -219.931 0.
1052.53 -626.591 0.
879.7 -1033.25 0.
1248.23 -1123.99 0.
1172.22 -1302.37 0.
1096.21 -1480.74 0.
1009.94 -1561.74 0.
1007.48 -1564.45 0.
1005.03 -1567.16 0.
1723.13 -1165.89 0.
1780.74 -1036.79 0.
1309.58 -1162.3 0.
1233.15 -1333.28 0.
1156.73 -1504.26 0.
734.238 -1672.04 0.
877.403 -1334.73 0.
1020.57 -997.409 0.
741.009 -1128.15 0.
632.465 -1383.76 0.
523.92 -1639.37 0.
1187.74 -1409.94 0.
1176.97 -1435.52 0.
1409.66 -1344.55 0.
416.855 -1448.14 0.
586.704 -1053.8 0.
564.86 -852.373 0.
507.777 -991.237 0.
450.695 -1130.1 0.
482.723 -1210.19 0.
446.386 -1293.1 0.
410.05 -1376 0.
48.2075 -1406.54 0.
161.349 -1139.36 0.
274.489 -872.188 0.
384.126 -619.023 0.
490.326 -372.51 0.
477.883 -222.878 0.
445.725 -298.009 0.
413.567 -373.141 0.
207.408 -433.977 0.
295.065 -230.359 0.
382.724 -26.7409 0.
37.4393 -82.7805 0.
65.6069 -16.9363 0.
93.775 48.9076 0.
-89.8559 -10.5165 0.
-90.9071 -3.52561 0.
805.241 138.665 0.
-140.024 -344.811 0.
-244.667 -589.182 0.
-354.417 -788.987 0.
-310.376 -693.588 0.
-266.334 -598.188 0.
658.165 -245.879 0.
543.466 -511.836 0.
428.768 -777.793 0.
-163.166 -1089.19 0.
-145.344 -1049.35 0.
-127.521 -1009.51 0.
96.8252 -1009.6 0.
28.9955 -1164.11 0.
390.524 -1137.15 0.
364.736 -1196.42 0.
338.95 -1255.7 0.
325.339 -1287.36 0.
345.333 -1237.67 0.
365.326 -1187.98 0.
803.629 -1065.54 0.
713.539 -1268.94 0.
623.45 -1472.33 0.
68.9824 -1646.24 0.
130.803 -1494.52 0.
983.26 -1004.27 0.
1065.78 -1170.96 0.
963.274 -1415.18 0.
482.651 -1770.49 0.
487.158 -1761.7 0.
491.666 -1752.92 0.
752.379 -1592.26 0.
800.835 -1486.15 0.
849.29 -1380.05 0.
1486.31 -1156.05 0.
1427.75 -1299.14 0.
1369.2 -1442.22 0.
1171.31 -1534.21 0.
1177.15 -1526.61 0.
1059.66 -1557.34 0.
1157.17 -1332.13 0.
1254.68 -1106.92 0.
657.993 -1226.26 0.
687.141 -1164.65 0.
716.287 -1103.05 0.
977.06 -888.786 0.
1057.55 -707.514 0.
1138.03 -526.24 0.
2080.4 -162.02 0.
2031.77 -282.479 0.
-1243.76 -1784.72 0.
1959.73 -192.543 0.
2075.77 77.6253 0.
1465.4 -85.4715 0.
1292.67 -492.915 0.
1119.94 -900.36 0.
855.89 -1259.79 0.
779.385 -1437.86 0.
702.879 -1615.94 0.
1074.75 -1504.13 0.
1072.62 -1507.41 0.
1070.48 -1510.69 0.
1814.4 -1094.97 0.
1872.4 -965.691 0.
1131.15 -1208.34 0.
1054.93 -1378.88 0.
978.708 -1549.42 0.
715.399 -1649.42 0.
858.074 -1311.84 0.
1000.75 -974.274 0.
844.688 -1050.4 0.
736.533 -1306.19 0.
628.377 -1561.98 0.
864.083 -1521.78 0.
853.818 -1547.61 0.
1015.87 -1479.23 0.
361.798 -1438.73 0.
532.311 -1045.08 0.
802.65 -718.909 0.
745.459 -858.245 0.
688.268 -997.582 0.
542.441 -1151.99 0.
506.838 -1235.71 0.
471.235 -1319.43 0.
-197.858 -1481.61 0.
-83.7316 -1215.48 0.
30.3942 -949.351 0.
598.048 -494.854 0.
704.124 -248.38 0.
203.802 -308.836 0.
171.799 -383.712 0.
139.796 -458.588 0.
239.707 -388.239 0.
327.246 -184.611 0.
414.785 19.0169 0.
94.4074 -27.9954 0.
122.808 37.3973 0.
151.208 102.79 0.
-313.041 -73.2634 0.
-314.013 -67.8136 0.
572.685 100.897 0.
24.0191 -291.135 0.
25.1968 -285.72 0.
-255.618 -436.961 0.
-352.379 -658.716 0.
-449.142 -880.469 0.
555.787 -524.969 0.
592.738 -437.692 0.
629.688 -350.416 0.
164.112 -519.463 0.
165.882 -516.945 0.
167.653 -514.427 0.
264.316 -658.359 0.
146.644 -934.9 0.
386.997 -1046.74 0.
413.955 -985.459 0.
440.914 -924.175 0.
480.47 -893.436 0.
427.447 -1018.91 0.
374.426 -1144.38 0.
759.4 -1014.67 0.
774.994 -982.389 0.
790.587 -950.105 0.
106.912 -1340.26 0.
40.3908 -1493.25 0.
962.913 -1222.12 0.
1161.49 -1166.81 0.
1134.89 -1224.25 0.
560.17 -1492.75 0.
609.463 -1374.49 0.
658.756 -1256.23 0.
978.446 -1105.86 0.
938.771 -1193.14 0.
899.096 -1280.41 0.
1354.32 -1071.78 0.
1383.54 -1002.28 0.
1412.76 -932.777 0.
1289.71 -942.776 0.
1311.75 -885.406 0.
1291.27 -864.523 0.
1161.98 -1169.92 0.
1032.68 -1475.31 0.
206.675 -1905.77 0.
364.929 -1537.6 0.
523.182 -1169.42 0.
1047.48 -810.293 0.
1055.96 -783.772 0.
1064.44 -757.251 0.
1883.82 -388.757 0.
1892.25 -362.296 0.
613.892 -889.903 0.
1733.47 -516.296 0.
1676.47 -648.628 0.
1188.63 -945.6 0.
1166.04 -998.685 0.
1143.44 -1051.77 0.
746.592 -1235.92 0.
763.747 -1199.38 0.
780.904 -1162.84 0.
1109.8 -1201.58 0.
966.783 -1530.91 0.
823.766 -1860.24 0.
1563.79 -1363.57 0.
1683.48 -1083.92 0.
1053.76 -1159.59 0.
1055.84 -1161.11 0.
1057.92 -1162.63 0.
829.434 -1263.35 0.
813.473 -1302.15 0.
797.511 -1340.94 0.
776.354 -1395.84 0.
743.821 -1465.57 0.
711.288 -1535.31 0.
854.34 -1305 0.
966.685 -1048 0.
1445.92 -651.023 0.
322.779 -1383.64 0.
187.746 -1693.14 0.
512.699 -1676.63 0.
631.204 -1394.17 0.
749.709 -1111.71 0.
567.297 -959.933 0.
691.712 -669.721 0.
816.125 -379.51 0.
76.72 -676.377 0.
38.7024 -768.213 0.
0.684141 -860.049 0.
688.591 -552.883 0.
703.135 -518.315 0.
-163.301 -860.575 0.
-134.686 -793.776 0.
-106.07 -726.976 0.
44.3146 -625.95 0.
42.9981 -632.546 0.
41.6813 -639.142 0.
-152.947 -661.391 0.
-95.0509 -528.067 0.
-37.1545 -394.743 0.
-538.938 -483.932 0.
-460.067 -309.513 0.
-196.06 -196.255 0.
111.805 -226.555 0.
112.659 -219.599 0.
-155.755 -359.861 0.
-251.763 -581.777 0.
-347.773 -803.692 0.
201.306 -646.688 0.
238.15 -559.668 0.
274.992 -472.648 0.
296.979 -429.736 0.
298.627 -427.499 0.
300.275 -425.261 0.
467.324 -543.524 0.
349.511 -819.945 0.
327.183 -1035.97 0.
354.715 -974.472 0.
382.246 -912.978 0.
478.153 -866.846 0.
424.265 -990.405 0.
370.378 -1113.96 0.
569.273 -1066.77 0.
585.761 -1034.26 0.
602.249 -1001.76 0.
80.8803 -1318.89 0.
14.5486 -1472.39 0.
85.4652 -1567.32 0.
1264.64 -1092.2 0.
1238.64 -1150.49 0.
620.55 -1433.57 0.
670.894 -1316.61 0.
721.236 -1199.64 0.
1036.45 -1046.56 0.
997.704 -1134.91 0.
958.955 -1223.27 0.
812.57 -1273 0.
842.206 -1204.48 0.
871.84 -1135.97 0.
1447.98 -842.307 0.
1471.7 -785.62 0.
956.159 -974.54 0.
827.269 -1280.65 0.
698.378 -1586.76 0.
324.266 -1825.37 0.
484.157 -1459.13 0.
644.05 -1092.89 0.
1243.2 -692.379 0.
1253.52 -667.434 0.
1263.83 -642.489 0.
1753.25 -409.254 0.
1763.95 -384.817 0.
-2052.59 -2000.64 0.
1557.47 -558.768 0.
1499.13 -690.213 0.
1190.75 -915.133 0.
1166.88 -967.13 0.
1143 -1019.13 0.
877.932 -1149.84 0.
895.262 -1113.75 0.
912.594 -1077.66 0.
838.615 -1285.54 0.
696.603 -1615.26 0.
554.592 -1944.99 0.
1169.64 -1501 0.
1290.1 -1221.78 0.
1032.73 -1138.34 0.
1033.55 -1139.12 0.
1034.38 -1139.9 0.
760.3 -1264.62 0.
743.442 -1302.47 0.
726.582 -1340.32 0.
877.515 -1319.16 0.
843.813 -1387.98 0.
810.111 -1456.8 0.
965.939 -1230.05 0.
1076.48 -971.624 0.
981.638 -815.841 0.
250.826 -1381.44 0.
116.285 -1691.39 0.
605.012 -1606.7 0.
723.606 -1324.76 0.
842.2 -1042.83 0.
387.082 -1005.24 0.
511.475 -715.465 0.
635.867 -425.686 0.
173.349 -603.395 0.
135.538 -695.469 0.
97.7251 -787.543 0.
809.954 -469.78 0.
825.714 -435.723 0.
-184.462 -836.827 0.
-155.402 -769.815 0.
-126.34 -702.803 0.
-172.102 -687.293 0.
-173.531 -693.957 0.
-174.961 -700.62 0.
-123.635 -616.152 0.
-65.6622 -483.592 0.
-7.68911 -351.031 0.
-446.154 -414.271 0.
-367.595 -240.95 0.
-1125.96 -927.734 0.
815.147 1313.78 0.
595.185 797.069 0.
187.017 283.426 0.
-321.42 -904.327 0.
316.988 583.661 0.
512.17 771.138 0.
-40.7298 -521.139 0.
143.873 -91.5994 0.
646.059 174.31 0.
370.123 -468.332 0.
978.11 951.943 0.
1171.98 748.732 0.
762.907 -203.606 0.
1045.11 772.792 0.
1135.82 988.45 0.
305.395 -945.667 0.
796.055 -85.0039 0.
781.836 -112.851 0.
840.758 29.4388 0.
891.37 72.2672 0.
1047.59 435.122 0.
756.105 -246.206 0.
508.986 -244.935 0.
790.75 409.593 0.
619.08 501.306 0.
1920.51 266.891 0.
1813.19 19.034 0.
1101.93 -391.879 0.
1544.68 646.839 0.
1511.06 573.914 0.
1834.61 723.724 0.
883.508 -1497.13 0.
1785.92 606.963 0.
993.059 218.443 0.
806.946 -215.106 0.
873.094 -61.2822 0.
2603.63 1591.17 0.
2034.92 266.568 0.
814.039 -648.853 0.
906.275 -430.583 0.
1553.09 1081.73 0.
1461.28 607.593 0.
1266.1 149.117 0.
1365.51 377.748 0.
1526.1 -366.391 0.
1797.14 259.475 0.
1471.27 -507.552 0.
1507.46 -685.553 0.
2099.41 694.736 0.
-928.493 -141.972 0.
1537.57 -252.468 0.
1746.99 246.068 0.
1649.19 182.613 0.
1460.19 -252.975 0.
2026.62 1074.84 0.
1247.96 -528.903 0.
1010.5 -1085.16 0.
1219.36 -597.986 0.
1035.46 -269.027 0.
901.992 -580.919 0.
1362.5 493.137 0.
1556.53 176.166 0.
1508.51 72.0156 0.
1566.36 158.449 0.
1483.63 -28.3153 0.
1026.28 -1089.48 0.
519.253 -1660.06 0.
645.93 -1364.2 0.
1173.89 -132.794 0.
1495.66 -5.27807 0.
1583.41 202.575 0.
1859.63 848.969 0.
1989.26 966.902 0.
1098.52 -1106.59 0.
133.277 -1053.13 0.
777.91 6.23105 0.
605.319 -394.996 0.
1940.98 1387.09 0.
1169.82 -412.726 0.
1370.59 55.4787 0.
612.907 -113.865 0.
634.171 -69.0454 0.
516.831 -347.304 0.
457.978 -99.3821 0.
412.787 -203.328 0.
439.101 -140.201 0.
1576.67 1121.23 0.
1342.06 575.316 0.
-261.714 -960.967 0.
335.621 438.554 0.
213.408 158.312 0.
46.8893 268.915 0.
51.7823 283.907 0.
40.9365 261.591 0.
237.722 199.081 0.
-54.5533 -482.2 0.
-5.88318 -365.63 0.
-619.27 -955.653 0.
-515.092 -709.581 0.
-323.042 -534.722 0.
179.298 -213.206 0.
153.87 -275.354 0.
-49.9884 -434.081 0.
-106.992 -567.229 0.
-163.996 -700.378 0.
-189.982 -739.954 0.
-147.505 -644.718 0.
-105.029 -549.48 0.
442.725 -344.482 0.
409.672 -420.613 0.
376.619 -496.743 0.
557.779 -470.889 0.
519.795 -552.449 0.
611.615 -576.114 0.
600.693 -597.843 0.
589.771 -619.571 0.
498.594 -707.673 0.
430.486 -868.341 0.
362.379 -1029.01 0.
123.406 -1196.58 0.
110.734 -1221.34 0.
98.0617 -1246.09 0.
279.79 -1282.53 0.
205.943 -1455.49 0.
542.422 -1451.53 0.
969.966 -1319.94 0.
940.772 -1385.34 0.
804.876 -1442.43 0.
933.206 -1140.74 0.
1061.54 -839.056 0.
1111.08 -755.803 0.
1011.93 -989.054 0.
912.787 -1222.31 0.
382.627 -1453.38 0.
426.599 -1345.94 0.
470.57 -1238.49 0.
1371.04 -901.631 0.
1330.48 -987.926 0.
381.78 -1437.48 0.
528.495 -1091.85 0.
675.208 -746.226 0.
973.134 -494.409 0.
861.315 -756.222 0.
749.495 -1018.03 0.
1182.08 -893.87 0.
1226.23 -797.886 0.
1270.37 -701.901 0.
1521.96 -431.143 0.
1616.85 -201.457 0.
-1895.38 -1516.28 0.
1507.8 -116.286 0.
1476.25 -187.392 0.
1375.26 -301.736 0.
1314.03 -441.982 0.
1252.8 -582.228 0.
1010.82 -771.394 0.
987.104 -825.84 0.
963.391 -880.285 0.
744.35 -843.007 0.
856.992 -582.211 0.
969.635 -321.413 0.
1237.48 -473.482 0.
1075.42 -857.825 0.
825.48 -1217.03 0.
920.34 -994.682 0.
1015.2 -772.331 0.
1005.51 -719.028 0.
917.278 -923.435 0.
829.047 -1127.84 0.
712.861 -1216.15 0.
738.531 -1155.69 0.
764.197 -1095.23 0.
1069.92 -1061.54 0.
999.413 -1226.17 0.
858.577 -1410.7 0.
263.363 -1454.95 0.
373.345 -1196.91 0.
730.417 -872.794 0.
767.736 -782.84 0.
805.056 -692.886 0.
454.551 -794.34 0.
459.067 -785.402 0.
463.583 -776.464 0.
344.979 -747.364 0.
408.802 -602.887 0.
472.627 -458.41 0.
687.981 -452.764 0.
638.166 -569.015 0.
-135.064 -934.401 0.
11.0736 -590.256 0.
157.212 -246.111 0.
-195.02 -235.655 0.
-215.161 -283.048 0.
-235.303 -330.44 0.
103.372 -216.151 0.
93.8126 -236.678 0.
84.2533 -257.206 0.
-298.055 -605.509 0.
-421.886 -889.578 0.
469.388 -168.193 0.
217.386 -165.734 0.
191.981 -227.592 0.
54.7818 -357.694 0.
-2.41286 -490.063 0.
-59.6072 -622.433 0.
-240.221 -729.277 0.
-197.11 -634.787 0.
-154.001 -540.295 0.
482.017 -297.919 0.
448.966 -374.098 0.
415.916 -450.276 0.
458.241 -481.726 0.
419.952 -562.993 0.
799.355 -467.999 0.
788.314 -489.147 0.
777.274 -510.295 0.
482.226 -682.061 0.
414.648 -843.233 0.
347.068 -1004.41 0.
-133.146 -1274.07 0.
-145.581 -1298.6 0.
-158.016 -1323.12 0.
560.02 -1130.64 0.
485.69 -1303.34 0.
1086.92 -1185.43 0.
654.533 -1422.42 0.
625.646 -1487.8 0.
1011.07 -1323.66 0.
1139.01 -1021.2 0.
1266.95 -718.745 0.
1018.44 -763.804 0.
919.312 -996.717 0.
820.187 -1229.63 0.
529.288 -1359.06 0.
574.338 -1252.36 0.
619.387 -1145.66 0.
1181.81 -951.199 0.
1140.41 -1036.22 0.
288 -1446.75 0.
434.8 -1101.62 0.
581.599 -756.491 0.
966.764 -466.967 0.
855.414 -729.795 0.
744.064 -992.624 0.
1047.96 -917.335 0.
1092.18 -821.634 0.
1136.39 -725.933 0.
1423.48 -442.233 0.
1518.25 -212.32 0.
-1353.64 -1252.75 0.
1416.64 -123.183 0.
1384.34 -193.845 0.
1314.01 -298.933 0.
1252.4 -439.134 0.
1190.78 -579.335 0.
862.992 -800.558 0.
838.898 -855.312 0.
814.805 -910.067 0.
707.99 -830.507 0.
820.096 -568.709 0.
932.202 -306.911 0.
1207.71 -453.314 0.
1046 -838.026 0.
661.869 -1251.16 0.
757.772 -1030.09 0.
853.676 -809.031 0.
1120.75 -638.794 0.
1032.43 -843.271 0.
944.102 -1047.75 0.
408.497 -1315.82 0.
432.988 -1254.58 0.
457.477 -1193.34 0.
1033.33 -1043.58 0.
963.764 -1209.01 0.
1595.72 -1064.88 0.
417.878 -1359.22 0.
528.573 -1101.5 0.
446.966 -960.675 0.
484.845 -870.375 0.
522.724 -780.076 0.
633.496 -688.974 0.
638.148 -680.181 0.
642.8 -671.387 0.
568.063 -617.387 0.
632.869 -474.042 0.
697.676 -330.698 0.
446.08 -522.294 0.
396.33 -638.076 0.
18.4349 -839.425 0.
164.554 -495.49 0.
310.674 -151.554 0.
-204.936 -206.551 0.
-225.545 -253.969 0.
-246.155 -301.388 0.
172.87 -155.745 0.
163.324 -176.907 0.
153.778 -198.07 0.
-74.0676 -479.783 0.
-198.613 -763.79 0.
597.696 59.4019 0.
127.27 -302.104 0.
96.9299 -370.148 0.
25.2826 -414.858 0.
58.7668 -339.038 0.
92.2499 -263.216 0.
-7.78763 -389.756 0.
-140.228 -698.011 0.
-272.668 -1006.26 0.
183.342 -841.514 0.
228.235 -737.889 0.
273.129 -634.264 0.
417.821 -633.234 0.
378.677 -726.484 0.
572.759 -692.82 0.
648.105 -516.189 0.
723.45 -339.559 0.
543.345 -376.135 0.
416.878 -664.458 0.
290.414 -952.78 0.
40.7813 -1107.11 0.
106.599 -950.694 0.
172.415 -794.282 0.
673.335 -625.677 0.
613.821 -763.795 0.
1103.49 -666.468 0.
935.037 -691.185 0.
963.045 -625.328 0.
1382.09 -466.489 0.
1235.9 -812.811 0.
1089.71 -1159.13 0.
636.806 -1375.28 0.
805.696 -980.514 0.
974.586 -585.746 0.
865.32 -578.227 0.
823.445 -676.033 0.
781.571 -773.84 0.
1242.52 -521.22 0.
1280.32 -438.032 0.
684.287 -620.606 0.
735.798 -501.687 0.
787.309 -382.768 0.
927.819 -321.386 0.
828.75 -552.842 0.
729.682 -784.297 0.
884.513 -719.61 0.
965.902 -528.745 0.
1047.29 -337.88 0.
1593.5 -289.094 0.
1448.56 -631.641 0.
-2856.81 -2757.76 0.
1235.1 -745.996 0.
1373.74 -428.285 0.
1168.31 -290.107 0.
1232.1 -156.235 0.
1295.89 -22.3602 0.
888.535 -240.969 0.
769.902 -518.791 0.
651.27 -796.613 0.
690.8 -736.415 0.
777.255 -535.452 0.
863.71 -334.488 0.
1306.15 -194.752 0.
1265.93 -280.259 0.
884.346 -551.605 0.
716.19 -942.976 0.
548.033 -1334.35 0.
802.759 -1336.9 0.
944.416 -1010.83 0.
1086.07 -684.751 0.
471.65 -926.763 0.
385.07 -1129.77 0.
298.488 -1332.77 0.
961.242 -979.678 0.
1029.55 -817.09 0.
622.53 -852.911 0.
652.214 -848.244 0.
646.978 -858.922 0.
427.183 -942.123 0.
471.043 -840.268 0.
514.903 -738.413 0.
639.935 -656.344 0.
614.335 -712.145 0.
588.734 -767.946 0.
555.56 -770.992 0.
577.121 -713.601 0.
598.682 -656.21 0.
289.368 -667.449 0.
355.901 -515.645 0.
139.76 -485.046 0.
207.258 -328.492 0.
274.755 -171.938 0.
-109.726 -258.293 0.
-113.838 -262.206 0.
-117.949 -266.117 0.
26.5288 -251.806 0.
-19.3212 -360.074 0.
-65.1708 -468.343 0.
-70.6732 -439.503 0.
-36.9934 -360.042 0.
35.8921 -150.922 0.
21.9773 -315.285 0.
-8.03901 -383.475 0.
-52.0797 -416.777 0.
-17.889 -341.779 0.
16.3007 -266.778 0.
272.696 -233.505 0.
141.365 -543.388 0.
10.0331 -853.269 0.
13.4343 -883.062 0.
57.6573 -779.164 0.
101.881 -675.265 0.
616.895 -516.853 0.
577.448 -609.508 0.
124.929 -853.076 0.
198.814 -674.994 0.
272.699 -496.913 0.
401.672 -410.719 0.
274.329 -697.519 0.
146.988 -984.319 0.
573.253 -846.711 0.
639.228 -689.99 0.
705.2 -533.269 0.
196.53 -799.222 0.
137.71 -937.739 0.
189.94 -1028.03 0.
1209.95 -541.707 0.
1238.4 -475.762 0.
1218.85 -504.764 0.
1073.65 -851.374 0.
928.445 -1197.99 0.
486.316 -1407.72 0.
655.562 -1013.41 0.
824.809 -619.113 0.
745.462 -598.074 0.
703.655 -695.939 0.
661.849 -793.805 0.
1156.6 -525.971 0.
1193.64 -441.757 0.
931.961 -484.818 0.
983.816 -365.488 0.
1035.67 -246.158 0.
715.423 -382.645 0.
615.465 -613.762 0.
515.508 -844.879 0.
434.646 -881.736 0.
517.468 -692.84 0.
600.29 -503.945 0.
1991.58 -84.9228 0.
1846.88 -427.982 0.
-1838.2 -2289.15 0.
1569.54 -570.034 0.
1707.62 -251.164 0.
929.142 -364.982 0.
991.385 -229.262 0.
1053.63 -93.5408 0.
554.098 -355.854 0.
435.327 -633.063 0.
316.558 -910.273 0.
613.982 -740.674 0.
699.589 -539.142 0.
785.195 -337.611 0.
1352.8 -142.722 0.
1314.13 -229.919 0.
901.883 -509.776 0.
733.364 -901.086 0.
564.844 -1292.39 0.
682.265 -1358.05 0.
822.23 -1030.67 0.
962.192 -703.288 0.
552.577 -862.765 0.
466.158 -1065.62 0.
379.738 -1268.47 0.
783.881 -1023.49 0.
851.718 -860.394 0.
635.095 -819.731 0.
570.366 -855.752 0.
565.113 -866.756 0.
655.427 -813.619 0.
698.969 -711.052 0.
742.512 -608.485 0.
493.98 -689.595 0.
468.994 -745.426 0.
444.009 -801.258 0.
501.108 -759.833 0.
522.74 -702.818 0.
544.371 -645.804 0.
325.805 -621.037 0.
392.525 -468.857 0.
-18.6106 -523.468 0.
48.5309 -366.698 0.
115.673 -209.928 0.
185.246 -96.3124 0.
180.501 -99.6918 0.
175.757 -103.07 0.
-258.671 -344.776 0.
-303.931 -453.515 0.
-349.192 -562.255 0.
-261.701 -491.168 0.
-227.831 -412.016 0.
-311.341 -179.122 0.
169.425 281.11 0.
-435.267 -1127.08 0.
-566.704 -1460.3 0.
358.793 704.044 0.
259.109 476.182 0.
924.026 797.791 0.
526.727 -125.986 0.
458.176 -282.418 0.
385.201 337.849 0.
133.811 -249.125 0.
153.682 -203.682 0.
1087.16 241.93 0.
779.167 -479.733 0.
248.452 321.513 0.
403.159 680.213 0.
375.435 613.833 0.
492.041 103.703 0.
492.363 106.427 0.
705.82 605.304 0.
1575.25 529.772 0.
1671.46 745.26 0.
1263.14 -214.65 0.
97.4422 -119.187 0.
161.304 32.9495 0.
824.394 -24.965 0.
1343.53 -696.783 0.
1466.07 -415.178 0.
1147.54 -339.176 0.
1122.82 -401.252 0.
1533.52 553.366 0.
1071.26 269.573 0.
1495.32 1261.87 0.
1197.57 571.542 0.
978.954 202.82 0.
1284.2 916.963 0.
521.292 -861.098 0.
1440.22 337.439 0.
1419.36 278.768 0.
1501.35 390.733 0.
1055.44 -654.936 0.
1437.7 231.684 0.
922.901 537.699 0.
927.564 549.678 0.
852.123 375.096 0.
652.286 503.283 0.
269.134 -387.612 0.
-194.735 -1466.73 0.
2085.9 -607.231 0.
2727.64 885.834 0.
-10065 -3160.62 0.
2619.19 1293.91 0.
2196.4 304.815 0.
538.272 -788.914 0.
855.173 -56.8518 0.
908.884 61.3289 0.
292.606 -298.611 0.
9.63265 -958.686 0.
335.783 -197.207 0.
1353.72 1156.74 0.
552.017 -717.995 0.
829.343 -72.4601 0.
1620.6 418.2 0.
2058.99 1446.27 0.
1225.39 245.061 0.
890.027 -538.197 0.
1257.3 321.733 0.
1465.69 745.33 0.
1272.43 294.766 0.
1127.12 -44.1741 0.
738.315 -555.319 0.
1432.9 1063.7 0.
1194.09 503.227 0.
1125.53 136.777 0.
1010.63 -123.272 0.
226.09 -643.462 0.
1613.9 1759.8 0.
1043.2 432.375 0.
1251.31 166.61 0.
679.298 -1167.51 0.
842.205 -787.303 0.
222.471 -1021.63 0.
637.308 -44.8941 0.
421.429 -539.338 0.
1057.48 681.574 0.
887.945 277.088 0.
177.755 -1388.38 0.
526.511 -186.132 0.
1051.44 1043.15 0.
23.8161 -104.186 0.
425.054 827.125 0.
-36.6895 -255.182 0.
176.66 -609.442 0.
370.736 -157.762 0.
326.688 -262.885 0.
-619.255 -640.414 0.
-268.49 183.875 0.
-446.048 -225.147 0.
336.253 1255.34 0.
-219.755 -51.6578 0.
-758.193 -613.62 0.
67.6378 -200.749 0.
51.9078 -234.45 0.
104.051 -287.031 0.
8.27376 -508.158 0.
-87.5045 -729.284 0.
130.962 -689.121 0.
181.551 -569.19 0.
232.138 -449.259 0.
129.258 -479.829 0.
116.795 -509.591 0.
104.332 -539.354 0.
664.319 -162.371 0.
751.725 38.3165 0.
72.4403 -129.523 0.
-81.1657 -495.032 0.
-234.773 -860.543 0.
315.182 -805.575 0.
348.468 -732.844 0.
381.754 -660.111 0.
752.456 -466.639 0.
755.886 -464.755 0.
759.315 -462.872 0.
283.297 -721.404 0.
250.204 -794.868 0.
563.034 -720.28 0.
1127.18 -578.198 0.
1076.68 -697.876 0.
682.411 -929.676 0.
689.707 -911.626 0.
697.002 -893.578 0.
552.614 -957.626 0.
551.124 -962.183 0.
549.633 -966.741 0.
493.32 -924.108 0.
542.196 -807.727 0.
591.073 -691.346 0.
1115.82 -454.221 0.
1119.03 -451.247 0.
961.162 -512.787 0.
992.698 -440.638 0.
1024.23 -368.488 0.
584.537 -536.252 0.
553.085 -611 0.
521.632 -685.748 0.
335.477 -840.627 0.
285.398 -948.686 0.
235.321 -1056.74 0.
1880.46 -154.901 0.
2026.35 187.728 0.
-2399.35 -1430.78 0.
1961.32 135.232 0.
1802.7 -235.058 0.
515.96 -991.771 0.
576.861 -852.582 0.
637.762 -713.393 0.
201.289 -786.517 0.
266.165 -635.84 0.
331.041 -485.163 0.
557.618 -535.625 0.
417.695 -865.788 0.
277.772 -1195.95 0.
807.415 -967.124 0.
819.272 -936.171 0.
720.652 -934.163 0.
812.075 -720.631 0.
903.499 -507.1 0.
1066.06 -400.193 0.
953.541 -667.056 0.
841.018 -933.92 0.
295.873 -1264.19 0.
294.14 -1269.61 0.
292.406 -1275.03 0.
593.536 -1042.36 0.
655.944 -889.905 0.
990.595 -615.417 0.
420.224 -708.842 0.
497.729 -523.063 0.
882.664 -290.638 0.
806.22 -472.02 0.
729.776 -653.403 0.
231.233 -870.333 0.
305.896 -692.49 0.
380.559 -514.646 0.
441.012 -431.93 0.
455.787 -404.499 0.
470.56 -377.067 0.
515.486 -318.375 0.
534.582 -271.676 0.
-31.0759 -509.003 0.
-132.41 -747.757 0.
-233.746 -986.511 0.
-13.4741 -931.816 0.
115.471 -632.873 0.
244.416 -333.929 0.
-324.132 -493.308 0.
-342.988 -534.767 0.
-361.842 -576.227 0.
-378.878 -611.403 0.
-388.402 -638.213 0.
-402.66 -435.235 0.
212.642 -108.735 0.
196.955 -142.746 0.
327.624 -159.212 0.
232.859 -381.452 0.
138.094 -603.692 0.
-42.9601 -729.543 0.
8.7015 -610.395 0.
60.3616 -491.247 0.
261.071 -390.682 0.
248.54 -420.355 0.
236.01 -450.028 0.
375.761 -253.544 0.
462.885 -53.0648 0.
110.586 -82.7548 0.
-43.6077 -448.058 0.
-197.802 -813.362 0.
597.222 -653.384 0.
630.447 -580.945 0.
663.671 -508.505 0.
283.195 -636.144 0.
286.043 -633.921 0.
288.89 -631.697 0.
847.879 -448.694 0.
815.261 -522.056 0.
275.588 -813.066 0.
807.703 -684.718 0.
757.457 -804.128 0.
439.458 -1003.52 0.
447.037 -985.273 0.
454.616 -967.029 0.
569.633 -921.133 0.
568.124 -925.14 0.
566.615 -929.148 0.
515.019 -882.471 0.
564.59 -767.268 0.
614.161 -652.064 0.
1150.45 -407.977 0.
1152.66 -404.413 0.
785.876 -555.935 0.
817.718 -484.331 0.
849.56 -412.726 0.
756.926 -431.396 0.
725.116 -506.737 0.
693.306 -582.078 0.
673.41 -663.736 0.
623.594 -772.814 0.
573.778 -881.892 0.
1391.41 -333.224 0.
1537.63 9.38319 0.
-4603.72 -2342.95 0.
1778.79 89.132 0.
1620.73 -281.614 0.
607.953 -920.666 0.
669.236 -782.321 0.
730.518 -643.977 0.
365.189 -684.657 0.
430.293 -534.995 0.
495.397 -385.333 0.
486.736 -532.817 0.
347.39 -863.892 0.
208.044 -1194.97 0.
553.906 -1043.17 0.
566.179 -1012.81 0.
736.23 -893.87 0.
828.191 -681.305 0.
920.154 -468.741 0.
1199.54 -311.961 0.
1086.54 -579.132 0.
973.541 -846.304 0.
142.57 -1297.63 0.
140.862 -1304.12 0.
139.154 -1310.6 0.
575.503 -1017.53 0.
637.25 -865.203 0.
825.73 -659.059 0.
266.776 -746.01 0.
343.813 -559.618 0.
683.339 -345.288 0.
607.519 -526.567 0.
531.699 -707.847 0.
183.394 -859.681 0.
258.035 -680.97 0.
332.675 -502.26 0.
285.844 -468.224 0.
300.185 -440.23 0.
314.526 -412.235 0.
590.309 -254.049 0.
610.29 -208.144 0.
124.645 -408.816 0.
23.4131 -647.794 0.
-77.8208 -886.772 0.
-58.8206 -920.864 0.
69.4072 -621.435 0.
197.634 -322.004 0.
-21.4139 -332.351 0.
-39.8579 -374.282 0.
-58.3002 -416.214 0.
-258.965 -530.467 0.
-269.536 -556.18 0.
-1017.92 -1251.36 0.
-7.88359 -607.605 0.
130.124 -288.173 0.
386.19 32.8705 0.
382.975 28.9114 0.
379.76 24.9536 0.
182.262 -160.312 0.
63.4133 -433.791 0.
-55.4352 -707.268 0.
45.9464 -734.106 0.
48.4333 -724.293 0.
50.919 -714.478 0.
220.808 -539.426 0.
289.533 -381.232 0.
117.7 -340.416 0.
56.5874 -483.191 0.
-4.52449 -625.966 0.
669.17 -417.453 0.
684.001 -381.026 0.
698.83 -344.6 0.
109.593 -685.335 0.
8.84657 -915.416 0.
-91.9008 -1145.5 0.
917.321 -655.517 0.
982.002 -503.857 0.
1203.4 -283.414 0.
709.825 -483.274 0.
709.599 -474.485 0.
556.376 -526.749 0.
567.423 -497.771 0.
578.469 -468.793 0.
723.893 -506.343 0.
585.85 -825.151 0.
447.807 -1143.96 0.
398.009 -1179.55 0.
459.948 -1036.03 0.
521.887 -892.514 0.
1126.71 -483.414 0.
1206.39 -295.532 0.
766.525 -359.668 0.
677.203 -564.596 0.
587.882 -769.524 0.
610.697 -834.121 0.
682.405 -669.359 0.
754.113 -504.597 0.
928.424 -265.723 0.
1030.33 -29.9663 0.
1132.23 205.79 0.
1348.34 169.515 0.
1240.32 -85.5861 0.
-848.096 -1187.74 0.
1498.66 -74.1335 0.
1553.18 54.8028 0.
950.659 -166.655 0.
839.748 -418.35 0.
728.838 -670.046 0.
295.331 -971.227 0.
298.214 -964.118 0.
301.097 -957.011 0.
262.188 -999.367 0.
239.593 -1050.42 0.
216.998 -1101.46 0.
539.269 -895.725 0.
587.822 -783.766 0.
835.792 -600.747 0.
797.328 -694.944 0.
758.865 -789.142 0.
840.284 -780.167 0.
890.38 -664.937 0.
940.473 -549.706 0.
389.694 -685.796 0.
438.958 -570.742 0.
488.223 -455.69 0.
826.311 -269.619 0.
846.921 -226.676 0.
570.251 -316.112 0.
302.254 -564.272 0.
235.908 -725.654 0.
519.137 -680.338 0.
558.388 -588.988 0.
597.64 -497.637 0.
137.436 -732.446 0.
55.7696 -924.961 0.
-25.8977 -1117.48 0.
38.9799 -1010.26 0.
131.483 -793.036 0.
223.987 -575.815 0.
489.771 -344.905 0.
550.345 -201.708 0.
252.241 -242.235 0.
213.289 -340.493 0.
174.337 -438.75 0.
94.2511 -534.647 0.
99.0955 -534.26 0.
103.939 -533.872 0.
-18.5439 -525.931 0.
30.9609 -412.374 0.
80.467 -298.818 0.
-95.8262 -239.049 0.
-20.8736 -60.9818 0.
-70.9488 -816.219 0.
-129.174 -627.593 0.
9.05343 -308.124 0.
138.55 -41.3752 0.
136.193 -45.865 0.
133.837 -50.3538 0.
316.159 -70.0025 0.
197.737 -344.024 0.
79.3152 -618.045 0.
-208.056 -811.864 0.
-204.103 -803.524 0.
-200.15 -795.183 0.
463.818 -400.382 0.
533.319 -243.155 0.
388.917 -194.391 0.
327.665 -336.868 0.
266.413 -479.345 0.
352.235 -521.102 0.
367.195 -484.999 0.
382.154 -448.896 0.
226.351 -604.184 0.
126.013 -834.367 0.
25.6753 -1064.55 0.
774.726 -683.657 0.
839.306 -531.31 0.
1657.69 -53.8894 0.
604.388 -498.408 0.
605.661 -490.489 0.
592.705 -478.111 0.
604.572 -449.189 0.
616.439 -420.268 0.
681.676 -495.422 0.
543.64 -814.344 0.
405.604 -1133.26 0.
424.751 -1137.53 0.
486.274 -993.716 0.
547.798 -849.907 0.
1150.08 -440.882 0.
1229.89 -253.039 0.
712.845 -351.196 0.
623.596 -556.543 0.
534.347 -761.89 0.
518.062 -843.624 0.
589.787 -679.789 0.
661.512 -515.953 0.
834.534 -273.549 0.
935.812 -37.8026 0.
1037.09 197.944 0.
1256.7 161.107 0.
1148.05 -93.6235 0.
-1472.4 -1423.21 0.
1156.36 -190.079 0.
1210.82 -61.155 0.
946.327 -138.421 0.
835.939 -391.04 0.
725.551 -643.66 0.
269.094 -946.375 0.
272.981 -941.021 0.
276.869 -935.668 0.
301.52 -948.945 0.
279.758 -1000.81 0.
257.996 -1052.68 0.
658.413 -811.889 0.
707.24 -700.224 0.
787.307 -588.68 0.
749.285 -683.32 0.
711.264 -777.962 0.
343.816 -963.505 0.
393.089 -847.708 0.
442.36 -731.91 0.
527.032 -595.446 0.
576.454 -481.551 0.
625.877 -367.658 0.
720.789 -286.347 0.
740.778 -243.647 0.
1131.66 -41.5601 0.
391.199 -492.257 0.
324.945 -653.882 0.
697.917 -572.879 0.
737.448 -481.622 0.
776.981 -390.365 0.
-19.5494 -766.345 0.
-101.925 -958.018 0.
-184.301 -1149.69 0.
182.99 -919.133 0.
275.838 -701.966 0.
368.686 -484.799 0.
314.111 -386.764 0.
374.88 -243.467 0.
287.414 -195.414 0.
248.289 -293.141 0.
209.164 -390.868 0.
148.668 -482.83 0.
152.777 -481.33 0.
156.885 -479.829 0.
-68.0061 -516.235 0.
-17.8787 -402.951 0.
32.2502 -289.667 0.
-80.015 -201.82 0.
-4.59217 -23.9934 0.
341.662 965.277 0.
-207.506 -560.959 0.
290.387 597.897 0.
-37.0306 32.0819 0.
-189.769 -319.823 0.
74.3211 301.196 0.
90.3455 -802.211 0.
652.248 510.7 0.
249.601 -426.215 0.
119.386 461.783 0.
146.477 526.719 0.
305.659 900.062 0.
1401.97 1359.99 0.
1049.68 540.024 0.
173.213 -1181.64 0.
460.545 -514.84 0.
521.235 -376.57 0.
336.618 71.5343 0.
731.853 992.107 0.
104.618 -473.714 0.
438.437 -286.348 0.
650.255 204.768 0.
925.86 845.558 0.
861.726 -171.442 0.
1321.37 901.85 0.
832.968 183.271 0.
713.01 -15.4418 0.
654.595 -150.857 0.
385.553 -997.594 0.
550.357 -616.199 0.
581.915 -545.573 0.
668.095 -426.104 0.
883.45 78.0083 0.
479.487 -861.806 0.
1157.44 539.428 0.
1095.02 391.98 0.
715.483 -495.19 0.
714.687 -1462.7 0.
1241.12 -233.756 0.
1129.06 761.161 0.
1012.09 488.432 0.
543.348 -604.75 0.
595.78 -453.345 0.
499.366 -683.396 0.
571.148 -521.04 0.
970.218 244.592 0.
1211.26 805.825 0.
362.888 -1174.84 0.
1039.26 -132.537 0.
1389.34 678.111 0.
-2198.71 -1098.67 0.
1296.79 830.364 0.
1028.53 200.315 0.
775.835 -497.746 0.
825.743 -383.294 0.
802.796 -439.047 0.
359.477 -640.034 0.
634.912 -4.35784 0.
933.373 685.559 0.
826.694 237.033 0.
647.737 -179.585 0.
942.148 508.606 0.
1042.74 -122.942 0.
1017.55 -182.249 0.
1141.49 364.148 0.
850.785 -318.498 0.
593.464 -920.126 0.
205.874 -313.574 0.
87.3552 -583.616 0.
478.514 335.671 0.
600.957 -667.165 0.
642.279 -563.916 0.
736.105 -339.188 0.
761.237 22.4836 0.
578.193 -396.865 0.
209.768 -548.153 0.
864.126 476.545 0.
478.863 -422.185 0.
1481.09 957.76 0.
1139.9 155.903 0.
947.624 -298.295 0.
160.767 -8.73872 0.
182.885 38.7278 0.
-416.331 -1365.13 0.
804.471 297.468 0.
1064.33 898.956 0.
694.916 31.0785 0.
176.928 -348.289 0.
73.6157 -586.799 0.
198.923 -452.513 0.
521.44 302.057 0.
700.702 722.249 0.
196.557 -448.341 0.
227.647 -375.037 0.
581.634 451.653 0.
554.561 1061.39 0.
214.272 275.459 0.
332.809 559.075 0.
49.1604 103.818 0.
279.512 639.156 0.
-240.256 -103.562 0.
69.7273 -214.769 0.
-58.273 -513.271 0.
-148.529 -706.881 0.
-30.8928 -430.132 0.
86.7438 -153.383 0.
219.245 42.633 0.
226.067 59.342 0.
232.888 76.0501 0.
-100.515 -57.1046 0.
-95.6971 -41.9095 0.
-90.8798 -26.7143 0.
798.425 77.6239 0.
620.538 -332.73 0.
327.508 -772.482 0.
343.125 -737.221 0.
358.742 -701.959 0.
106.941 -728.706 0.
203.833 -500.444 0.
300.726 -272.182 0.
488.188 -204.916 0.
384.467 -447.969 0.
280.746 -691.023 0.
537.346 -612.129 0.
555.635 -570.554 0.
312.287 -640.857 0.
568.424 -447.466 0.
604.146 -363.207 0.
684.364 -312.979 0.
599.32 -512.081 0.
514.275 -711.183 0.
335.202 -819.742 0.
408.576 -646.629 0.
481.95 -473.516 0.
649.778 -510.831 0.
516.962 -820.332 0.
384.146 -1129.83 0.
728.361 -944.183 0.
772.315 -842.756 0.
391.521 -908.25 0.
485.64 -685.481 0.
579.759 -462.711 0.
741.758 -245.477 0.
777.463 -162.992 0.
813.167 -80.5064 0.
842.741 -121.153 0.
767.973 -301.46 0.
693.204 -481.768 0.
834.058 -228.927 0.
986.196 122.727 0.
-1066.36 -473.074 0.
859.742 1.77294 0.
677.735 -425.736 0.
613.718 -680.294 0.
706.92 -461.935 0.
800.122 -243.575 0.
378.282 -418.669 0.
274.796 -655.076 0.
171.311 -891.483 0.
491.964 -713.35 0.
566.758 -533.432 0.
641.551 -353.517 0.
1120.13 -241.712 0.
1056.37 -392.573 0.
457.802 -757.838 0.
476.396 -714.009 0.
494.99 -670.181 0.
10.3234 -827.788 0.
40.2984 -758.908 0.
70.2741 -690.029 0.
300.383 -548.986 0.
331.544 -479.516 0.
362.703 -410.049 0.
647.417 -258.13 0.
656.327 -236.94 0.
312.469 -364.12 0.
581.62 -308.063 0.
548.236 -383.813 0.
858.267 -295.161 0.
881.433 -243.36 0.
904.598 -191.56 0.
-131.408 -634.431 0.
-156.509 -691.759 0.
-181.612 -749.086 0.
462.133 -469.063 0.
471.715 -448.298 0.
481.297 -427.533 0.
0.983271 -573.404 0.
36.1465 -489.117 0.
437.095 -254.161 0.
429.249 -273.489 0.
421.404 -292.815 0.
130.144 -424.608 0.
136.96 -411.701 0.
143.776 -398.795 0.
-218.645 -547.495 0.
-211.076 -523.261 0.
-203.507 -499.027 0.
-507.316 -637.667 0.
-518.506 -664.591 0.
628.764 300.66 0.
241.044 -109.223 0.
112.899 -407.527 0.
121.507 -560.203 0.
238.865 -283.41 0.
356.223 -6.61737 0.
-47.3301 -39.3467 0.
-40.3664 -22.6736 0.
-33.4033 -6.00144 0.
-81.4184 -17.2366 0.
-76.1312 -2.88133 0.
-70.8444 11.4741 0.
745.943 87.9947 0.
568.555 -322.777 0.
318.596 -743.491 0.
334.136 -708.257 0.
349.676 -673.024 0.
262.399 -630.371 0.
359.227 -401.665 0.
456.055 -172.961 0.
520.568 -162.257 0.
417.311 -405.682 0.
314.054 -649.108 0.
390.553 -643.713 0.
410.21 -602.646 0.
-355.856 -897.543 0.
630.692 -388.9 0.
667.111 -304.837 0.
706.455 -271.673 0.
622.374 -470.974 0.
538.291 -670.275 0.
146.644 -869.012 0.
219.951 -695.939 0.
293.257 -522.866 0.
595.088 -505.149 0.
462.357 -814.745 0.
329.626 -1124.34 0.
485.586 -1014.02 0.
529.676 -913.337 0.
378.005 -881.991 0.
471.727 -659.871 0.
565.449 -437.75 0.
827.562 -177.268 0.
862.788 -95.1207 0.
898.014 -12.9732 0.
899.723 -66.5757 0.
824.641 -246.911 0.
749.559 -427.247 0.
656.448 -273.347 0.
808.089 77.9356 0.
-304.019 -115.072 0.
776.872 -2.59186 0.
595.064 -430.722 0.
522.128 -683.575 0.
615.865 -466.007 0.
709.602 -248.44 0.
304.01 -419.735 0.
200.845 -657.281 0.
97.6797 -894.828 0.
593.919 -636.913 0.
669.768 -457.878 0.
745.617 -278.844 0.
1294.51 -134.009 0.
1231.33 -285.867 0.
225.438 -824.921 0.
244.579 -782.339 0.
263.72 -739.757 0.
61.6795 -770.935 0.
92.1611 -703.344 0.
122.643 -635.754 0.
-110.594 -693.136 0.
-79.5831 -624.033 0.
-48.5759 -554.931 0.
667.403 -220.549 0.
675.862 -199.595 0.
466.011 -266.972 0.
664.71 -240.534 0.
631.123 -316.552 0.
768.764 -301.12 0.
792.066 -249.786 0.
815.367 -198.452 0.
-146.719 -608.006 0.
-172.381 -664.988 0.
-198.044 -721.968 0.
460.796 -438.466 0.
470.091 -417.221 0.
479.386 -395.976 0.
-79.2002 -577.408 0.
-43.4709 -492.884 0.
638.156 -134.765 0.
631.579 -154.597 0.
625.003 -174.429 0.
55.8565 -422.844 0.
63.0853 -409.807 0.
70.3144 -396.769 0.
-303.921 -551.855 0.
-295.927 -527.653 0.
-287.932 -503.45 0.
-783.982 -725.421 0.
-795.11 -752.247 0.
-926.179 -793.084 0.
114.906 -345.108 0.
111.391 -353.977 0.
334.4 -265.967 0.
327.531 -285.855 0.
320.662 -305.744 0.
-208.696 -461.543 0.
-113.147 -231.588 0.
-17.5989 -1.63384 0.
-73.1823 -125.8 0.
-207.914 -443.218 0.
-342.645 -760.638 0.
366.97 -553.527 0.
320.972 -655.029 0.
333.648 -715.194 0.
363.6 -644.606 0.
393.553 -574.018 0.
349.713 -547.781 0.
359.909 -522.36 0.
370.103 -496.939 0.
276.902 -476.203 0.
334.487 -340.355 0.
392.071 -204.509 0.
570.889 -27.6656 0.
614.123 79.1089 0.
719.829 212.671 0.
808.111 -1.09902 0.
669.848 -315.962 0.
515.32 -535.929 0.
613.22 -304.853 0.
711.12 -73.7786 0.
473.096 -59.176 0.
487.288 -20.5305 0.
501.479 18.1141 0.
813.809 160.36 0.
803.865 141.865 0.
793.921 123.37 0.
747.093 -22.0212 0.
673.652 -193.454 0.
681.907 -310.144 0.
723.812 -216.108 0.
765.718 -122.072 0.
852.748 -35.8637 0.
847.729 -47.9891 0.
842.711 -60.1144 0.
856.681 -68.4603 0.
847.093 -88.821 0.
837.505 -109.182 0.
607.155 -219.987 0.
604.547 -223.612 0.
70.7603 -456.215 0.
556.777 -424.633 0.
458.778 -647.3 0.
345.311 -797.894 0.
438.864 -577.837 0.
532.417 -357.779 0.
321.867 -380.883 0.
280.086 -480.443 0.
238.305 -580.004 0.
747.009 -458.872 0.
697.776 -574.453 0.
648.544 -690.033 0.
1073.78 -354.593 0.
1165.72 -132.77 0.
324.152 -326.879 0.
339.368 -282.806 0.
354.583 -238.732 0.
388.493 -230.941 0.
349.921 -318.939 0.
311.348 -406.936 0.
-144.76 -613.519 0.
-131.336 -578.65 0.
-117.912 -543.781 0.
495.437 -381.736 0.
428.156 -537.903 0.
1613.24 -148.577 0.
457.123 -533.085 0.
515.546 -394.568 0.
664.094 -264.358 0.
599.529 -407.822 0.
534.964 -551.285 0.
-246.714 -900.018 0.
-179.258 -744.906 0.
-111.801 -589.794 0.
396.527 -326.031 0.
404.737 -305.194 0.
412.945 -284.357 0.
109.002 -518.991 0.
46.9656 -667.903 0.
392.587 -611.217 0.
447.324 -482.824 0.
502.06 -354.431 0.
-7.25119 -470.829 0.
46.5021 -347.544 0.
100.256 -224.259 0.
-185.04 -269.649 0.
-152.64 -193.625 0.
-120.24 -117.602 0.
-612.223 -472.128 0.
-719.358 -715.924 0.
621.245 -95.9525 0.
-57.6572 -386.744 0.
-61.373 -395.243 0.
328.828 -239.761 0.
321.712 -259.461 0.
314.597 -279.162 0.
114.159 -288.598 0.
209.838 -58.7541 0.
305.515 171.089 0.
68.9366 -37.392 0.
-66.7641 -353.639 0.
-202.464 -669.888 0.
204.908 -589.019 0.
159.353 -690.38 0.
385.71 -664.476 0.
415.522 -593.54 0.
445.336 -522.605 0.
355.14 -512.887 0.
365.893 -487.501 0.
376.645 -462.115 0.
2.82059 -561.916 0.
61.1054 -426.273 0.
119.39 -290.63 0.
534.431 -13.0132 0.
576.914 94.7476 0.
1047.7 386.893 0.
808.223 31.2649 0.
670.041 -283.531 0.
333.941 -585.452 0.
431.169 -353.618 0.
528.398 -121.786 0.
638.505 44.4598 0.
652.521 82.8953 0.
666.537 121.33 0.
740.312 160.85 0.
730.215 142.46 0.
720.118 124.07 0.
620.81 -43.3338 0.
547.453 -215.078 0.
892.096 -187.402 0.
933.582 -93.5273 0.
975.068 0.347339 0.
704.501 -65.8029 0.
698.798 -77.9069 0.
693.095 -90.0108 0.
724.586 -95.5691 0.
714.577 -115.846 0.
704.568 -136.123 0.
598.739 -192.805 0.
595.968 -196.697 0.
-201.024 -540.291 0.
598.464 -374.155 0.
501.184 -597.206 0.
167.519 -838.573 0.
261.669 -619.369 0.
355.82 -400.165 0.
436.497 -299.983 0.
394.253 -399.851 0.
352.009 -499.719 0.
865.924 -375.92 0.
816.368 -491.143 0.
766.814 -606.366 0.
619.152 -520.05 0.
712.172 -299.046 0.
290.266 -308.698 0.
304.849 -264.46 0.
319.43 -220.222 0.
601.538 -108.172 0.
562.474 -196.094 0.
523.409 -284.015 0.
132.642 -464.834 0.
146.972 -430.454 0.
161.302 -396.073 0.
281.435 -439.639 0.
214.785 -596.46 0.
1260.22 -270.013 0.
196.986 -612.662 0.
254.025 -472.573 0.
477.669 -315.574 0.
413.694 -459.605 0.
349.719 -603.636 0.
-151.031 -827.771 0.
-82.6342 -673.322 0.
-14.2367 -518.872 0.
162.693 -393.058 0.
170.595 -372.011 0.
178.495 -350.964 0.
598.497 -277.203 0.
536.045 -426.052 0.
150.471 -685.257 0.
205.032 -556.73 0.
259.592 -428.203 0.
-11.9068 -442.78 0.
41.6396 -319.135 0.
95.1868 -195.49 0.
-79.5557 -192.826 0.
-47.3932 -116.455 0.
-15.2311 -40.0844 0.
-205.936 -269.902 0.
-311.955 -515.227 0.
485.362 627.605 0.
-303.318 -614.958 0.
-84.0547 -104.497 0.
361.329 -138.673 0.
443.602 61.1499 0.
550.201 315.147 0.
354.393 -315.757 0.
607.91 280.904 0.
861.375 877.265 0.
726.295 1269.72 0.
452.374 631.541 0.
-3.79018 -430.709 0.
357.767 112.25 0.
541.054 537.547 0.
493.551 -484.05 0.
769.843 164.565 0.
599.189 -227.336 0.
874.554 708.051 0.
890.886 741.445 0.
993.618 977.901 0.
-90.6602 -233.351 0.
-512.191 -1217.25 0.
-199.638 -488.712 0.
356.965 -327.598 0.
581.93 201.123 0.
407.62 -199.193 0.
694.82 -208.886 0.
683.484 -238.047 0.
-47.4174 -1099.41 0.
573.781 354.143 0.
556.838 320.959 0.
327.428 -961.634 0.
703.565 -81.7235 0.
860.688 287.005 0.
743.918 335.204 0.
275.358 -754.975 0.
81.88 -1203.59 0.
487.183 -72.0744 0.
638.968 280.636 0.
897.91 -542.983 0.
542.75 -1367.6 0.
840.407 -668.576 0.
443.88 -355.489 0.
264.423 -774.845 0.
360.777 -550.516 0.
343.685 -696.925 0.
376.974 -618.759 0.
222.178 -979.498 0.
305.344 -831.776 0.
737.326 174.153 0.
-624.826 -1004.59 0.
480.45 -677.207 0.
963.18 452.088 0.
834.596 1087.07 0.
311.943 -129.886 0.
475.054 253.214 0.
1176.69 1229.43 0.
823.605 406.833 0.
345.566 -707.387 0.
959.704 -340.619 0.
832.227 -642.585 0.
1010.75 -229.87 0.
565.453 247.41 0.
622.72 382.904 0.
569.87 444.22 0.
0.824529 -883.605 0.
782.348 939.023 0.
764.764 -96.0368 0.
852.514 100.236 0.
684.721 -297.267 0.
587.962 100.644 0.
1178.99 1472.86 0.
1223.85 1572.14 0.
279.415 -20.1269 0.
563.599 650.792 0.
143.965 197.244 0.
447.559 493.464 0.
304.474 155.464 0.
-179.438 -1459.29 0.
72.9123 -869.848 0.
874.024 999.936 0.
676.788 956.206 0.
354.119 203.299 0.
438.263 398.947 0.
98.3811 -75.3759 0.
143.537 31.6068 0.
95.0318 -80.9149 0.
1326.78 548.787 0.
1246.49 365.48 0.
125.175 -273.71 0.
-106.326 -807.4 0.
464.621 529.085 0.
356.316 442.042 0.
426.499 613.178 0.
-250.671 -959.696 0.
103.891 79.5502 0.
122.979 123.648 0.
227.509 364.922 0.
163.286 -137.22 0.
150.839 -173.997 0.
807.51 -83.2221 0.
-92.5862 -291.158 0.
-8.9696 -96.2359 0.
479.909 210.259 0.
385.031 -8.63718 0.
290.151 -227.531 0.
378.16 -265.595 0.
416.457 -178.448 0.
454.752 -91.3001 0.
56.8085 -190.035 0.
91.3747 -110.377 0.
125.941 -30.7183 0.
299.22 -14.7134 0.
261.345 -105.737 0.
484.055 -71.5492 0.
486.825 -64.0694 0.
489.596 -56.59 0.
440.846 -78.1141 0.
437.879 -88.9028 0.
434.912 -99.6925 0.
25.197 -277.319 0.
21.645 -278.806 0.
18.093 -280.295 0.
426.525 -189.865 0.
372.339 -322.081 0.
796.425 -249.554 0.
603.989 -250.966 0.
651.068 -147.817 0.
294.138 -247.472 0.
253.611 -344.508 0.
213.083 -441.545 0.
634.086 -381.804 0.
551.972 -577.855 0.
469.859 -773.907 0.
143.003 -822.175 0.
256.738 -559.969 0.
370.473 -297.763 0.
445.486 -204.758 0.
471.187 -145.905 0.
834.79 52.0111 0.
822.596 24.5179 0.
810.402 -2.97613 0.
548.082 -147.285 0.
526.234 -201.167 0.
504.386 -255.049 0.
536.019 -176.484 0.
611.135 -5.78786 0.
686.251 164.909 0.
699.057 3.04923 0.
564.531 -313.73 0.
-27.0278 -826.356 0.
609.551 -268.41 0.
757.535 78.9997 0.
475.357 112.679 0.
309.557 -268.078 0.
143.757 -648.832 0.
231.39 -607.394 0.
442.728 -119.026 0.
654.068 369.344 0.
974.548 509.608 0.
876.917 278.614 0.
779.286 47.621 0.
568.902 -100.323 0.
545.358 -154.37 0.
119.083 -378.872 0.
109.995 -405.27 0.
100.906 -431.668 0.
665.623 -231.408 0.
620.656 -340.274 0.
575.689 -449.141 0.
145.297 -686.341 0.
134.335 -709.431 0.
123.372 -732.523 0.
126.749 -675.975 0.
161.344 -590.232 0.
98.153 -541.367 0.
54.6359 -504.282 0.
90.8011 -429.856 0.
229.486 -294.987 0.
290.702 -156.782 0.
351.92 -18.5765 0.
357.646 6.57952 0.
320.816 -82.3507 0.
283.987 -171.282 0.
123.167 -260.974 0.
128.894 -245.629 0.
134.622 -230.286 0.
734.4 -8.26956 0.
712.539 -56.9007 0.
226.508 -289.594 0.
259.602 -213.624 0.
292.695 -137.655 0.
52.8001 -175.778 0.
87.3984 -92.3571 0.
121.998 -8.93692 0.
-170.312 -140.89 0.
-201.964 -219.759 0.
-233.617 -298.628 0.
49.225 -68.5713 0.
136.641 127.056 0.
-1051.41 -843.919 0.
9.22969 -217.485 0.
93.2646 -22.2641 0.
455.007 230.816 0.
361.394 10.9019 0.
267.78 -209.011 0.
402.473 -219.403 0.
442.41 -133.101 0.
482.344 -46.7982 0.
20.8713 -175.537 0.
55.3341 -96.0789 0.
89.7968 -16.6203 0.
312.559 23.6472 0.
274.311 -67.6136 0.
277.296 -128.713 0.
280.32 -121.348 0.
283.346 -113.983 0.
341.248 -91.1548 0.
337.778 -100.958 0.
334.308 -110.763 0.
200.757 -172.053 0.
197.304 -172.704 0.
193.851 -173.355 0.
459.154 -146.055 0.
404.622 -277.753 0.
432.298 -375.121 0.
533.676 -248.75 0.
580.505 -145.37 0.
287.776 -219.097 0.
246.699 -315.88 0.
205.623 -412.665 0.
727.185 -310.391 0.
644.285 -506.374 0.
561.385 -702.358 0.
40.8928 -833.747 0.
155.795 -572.564 0.
270.699 -311.38 0.
485.91 -155.387 0.
512.357 -96.9353 0.
456.167 -77.9365 0.
444.164 -105.891 0.
432.162 -133.846 0.
593.264 -93.5672 0.
571.734 -147.858 0.
550.203 -202.148 0.
525.292 -149.595 0.
600.212 21.6314 0.
675.132 192.858 0.
770.553 65.7113 0.
636.054 -251.072 0.
167.562 -712.118 0.
559.234 -258.532 0.
706.865 89.1017 0.
567.178 184.781 0.
400.947 -195.887 0.
234.716 -576.552 0.
54.8739 -651.277 0.
266.173 -163.069 0.
477.474 325.141 0.
560.64 364.451 0.
462.93 133.86 0.
365.22 -96.7317 0.
777.163 19.7718 0.
752.625 -32.7195 0.
21.4158 -391.005 0.
11.3786 -416.759 0.
1.34086 -442.512 0.
631.286 -216.608 0.
585.267 -325.382 0.
539.247 -434.157 0.
25.6761 -707.334 0.
14.5141 -730.421 0.
3.35118 -753.508 0.
294.19 -575.489 0.
329.701 -489.915 0.
515.235 -332.049 0.
116.43 -444.925 0.
152.636 -370.456 0.
136.473 -304.612 0.
198.732 -167.292 0.
260.992 -29.9713 0.
480.513 91.5849 0.
444.295 2.3244 0.
408.078 -86.9374 0.
266.248 -168.437 0.
272.59 -153.611 0.
278.933 -138.785 0.
318.575 -153.167 0.
297.695 -202.893 0.
375.905 -193.767 0.
409.107 -117.912 0.
442.309 -42.0579 0.
24.6061 -156.056 0.
59.7885 -72.898 0.
94.9721 10.2589 0.
-374.223 -196.352 0.
-406.298 -275.329 0.
-438.373 -354.307 0.
-107.964 -107.6 0.
-21.4999 88.5118 0.
842.357 88.7917 0.
125.405 -250.112 0.
142.845 -207.439 0.
183.485 -118.315 0.
302.891 165.175 0.
422.295 448.665 0.
628.857 459.805 0.
369.998 -140.894 0.
111.137 -741.592 0.
-278.974 -965.209 0.
-190.59 -756.94 0.
-102.207 -548.671 0.
95.4702 -384.152 0.
132.797 -289.841 0.
169.201 -205.984 0.
165.538 -215.599 0.
161.875 -225.213 0.
342.991 -141.844 0.
365.62 -84.0614 0.
388.248 -26.2792 0.
301.471 10.7571 0.
351.452 122.74 0.
401.435 234.723 0.
592.738 203.696 0.
497.114 -17.6405 0.
813.915 -63.4248 0.
539.748 -69.2245 0.
601.709 76.7654 0.
342.841 6.71532 0.
223.894 -271.167 0.
104.947 -549.05 0.
691.41 -311.019 0.
829.281 5.80207 0.
967.153 322.624 0.
283.315 78.659 0.
251.02 5.84439 0.
218.725 -66.9697 0.
652.565 166.571 0.
685.319 244.302 0.
432.093 162.089 0.
305.458 -128.548 0.
178.823 -419.184 0.
413.852 -403.023 0.
520.12 -146.494 0.
626.387 110.034 0.
637.2 130.803 0.
562.592 -40.2722 0.
487.985 -211.347 0.
663.044 -135.728 0.
683.985 -83.8038 0.
-104.871 -378.893 0.
613.77 -28.7206 0.
637.311 22.3335 0.
437.738 1.83049 0.
523.097 199.151 0.
608.457 396.472 0.
340.399 252.386 0.
199.616 -72.3052 0.
58.8334 -396.995 0.
110.27 -354.229 0.
196.923 -154.188 0.
283.577 45.8536 0.
840.509 250.903 0.
812.088 181.227 0.
135.407 -164.085 0.
101.275 -246.234 0.
67.142 -328.384 0.
616.559 -119.504 0.
649.041 -45.639 0.
681.524 28.2259 0.
226.383 -64.4335 0.
304.874 115.107 0.
383.366 294.648 0.
742.541 330.8 0.
641.888 101.222 0.
-451.817 -557.285 0.
93.1881 -399.644 0.
51.1114 -494.188 0.
39.859 -568.75 0.
18.5498 -611.619 0.
-2.75775 -654.489 0.
161.467 -520.064 0.
255.997 -299.72 0.
350.529 -79.3755 0.
419.107 63.2776 0.
466.961 173.414 0.
514.816 283.552 0.
264.895 85.2766 0.
209.558 -45.4004 0.
379.045 -87.52 0.
298.553 -273.785 0.
218.064 -460.049 0.
-154.952 -670.867 0.
-82.6535 -504.258 0.
-10.3556 -337.647 0.
-440.589 -402.513 0.
-380.766 -261.183 0.
-320.942 -119.854 0.
-146.372 -125.98 0.
-212.25 -279.701 0.
907.274 149.331 0.
371.415 -111.808 0.
389.389 -69.2871 0.
-48.9178 -186.254 0.
72.074 97.3181 0.
193.065 380.891 0.
480.419 428.33 0.
223.441 -172.64 0.
-33.5391 -773.61 0.
-129.294 -870.193 0.
-40.3379 -662.193 0.
48.6183 -454.194 0.
5.87703 -389.24 0.
44.3022 -296.102 0.
212.801 -157.352 0.
209.003 -167.214 0.
205.206 -177.076 0.
529.103 -27.6987 0.
552.273 29.5871 0.
575.442 86.8726 0.
235.923 12.1229 0.
284.477 125.69 0.
333.033 239.256 0.
541.023 210.034 0.
445.133 -11.6755 0.
555.215 -144.865 0.
472.874 -64.5748 0.
534.481 81.2146 0.
278.452 9.3384 0.
158.722 -268.372 0.
38.9936 -546.081 0.
549.834 -339.067 0.
687.412 -22.4674 0.
824.99 294.134 0.
59.6566 15.0857 0.
28.1335 -58.6787 0.
-3.39022 -132.443 0.
705.802 220.505 0.
739.469 297.853 0.
528.087 235.935 0.
401.355 -54.895 0.
274.625 -345.724 0.
269.564 -432.715 0.
375.738 -176.564 0.
481.911 79.5857 0.
653.313 166.269 0.
578.44 -4.59624 0.
503.568 -175.461 0.
566.359 -142.719 0.
588.499 -91.503 0.
1620.53 392.05 0.
591.639 -5.51881 0.
615.089 46.0964 0.
275.623 -35.4351 0.
360.93 161.545 0.
446.238 358.525 0.
306.514 271.89 0.
167.194 -54.1297 0.
27.8738 -380.15 0.
204.309 -281.556 0.
291.678 -81.0545 0.
379.048 119.448 0.
581.298 170.917 0.
553.792 101.218 0.
307.138 -59.4579 0.
273.121 -141.344 0.
239.104 -223.231 0.
553.035 -113.039 0.
586.54 -40.5939 0.
620.044 31.851 0.
195.608 -45.3936 0.
274.082 133.427 0.
352.558 312.248 0.
753.388 367.547 0.
653.727 137.091 0.
-1202.85 -845.775 0.
-30.9993 -420.759 0.
-72.9081 -514.878 0.
178.079 -476.774 0.
157.416 -520.113 0.
136.754 -563.453 0.
-75.7739 -590.066 0.
19.5771 -370.195 0.
114.93 -150.324 0.
453.836 110.518 0.
502.23 220.109 0.
550.624 329.701 0.
314.697 139.103 0.
259.576 8.11332 0.
176.831 -140.163 0.
97.5752 -326.883 0.
18.3225 -513.604 0.
3.72219 -574.419 0.
75.8273 -407.138 0.
147.932 -239.856 0.
-176.127 -256.975 0.
-115.675 -116.104 0.
-55.2212 24.7663 0.
-53.4702 -53.9369 0.
-119.439 -207.268 0.
-1141.23 -152.944 0.
621.229 77.8766 0.
595.038 19.6391 0.
-0.0891362 347.553 0.
-351.673 -457.577 0.
4.62103 388.948 0.
360.469 436.423 0.
32.3401 -318.335 0.
234.096 162.501 0.
432.659 198.129 0.
198.465 -349.252 0.
127.876 -515.102 0.
230.688 320.766 0.
333.847 557.867 0.
225.171 -176.17 0.
826.737 1224.52 0.
-58.2869 -842.057 0.
404.571 -652.621 0.
625.343 -137.4 0.
718.908 79.8018 0.
244.809 182.37 0.
9.5217 -374.938 0.
-79.6167 -592.077 0.
547.071 367.152 0.
390.736 -2.0908 0.
27.5704 -258.703 0.
367.7 -153.425 0.
427.363 -9.52397 0.
191.214 -33.3122 0.
536.997 775.096 0.
162.088 -96.3043 0.
435.725 -301.657 0.
731.766 391.673 0.
439.612 -286.268 0.
-74.6639 134.813 0.
-383.038 -583.011 0.
-310.354 -411.704 0.
238.182 -931.675 0.
457.752 -422.353 0.
329.38 -374.821 0.
435.707 -125.182 0.
345.178 -334.755 0.
489.314 394.54 0.
664.294 802.117 0.
259.314 -143.13 0.
474.755 -263.981 0.
357.018 -528.921 0.
340.386 -557.662 0.
409.86 -282.372 0.
557.468 56.0217 0.
-1360.89 -156.163 0.
458.609 -238.239 0.
576.428 31.76 0.
147.861 10.4124 0.
32.5073 -261.059 0.
-160.182 -713.388 0.
-231.816 -898.764 0.
333.626 425.559 0.
447.846 697.502 0.
138.971 -578.957 0.
193.345 -448.3 0.
757.383 871.376 0.
224.858 -149.185 0.
430.891 336.801 0.
805.336 794.224 0.
560.654 223.801 0.
474.553 24.0345 0.
800.215 624.148 0.
428.253 -243.28 0.
366.517 -386.325 0.
-10.3046 -443.785 0.
-210.341 -911.418 0.
211.33 72.1483 0.
585.34 -4.1897 0.
886.269 698.287 0.
341.151 -566.047 0.
-139.525 -420.701 0.
-134.793 -399.248 0.
307.293 -410.667 0.
902.534 987.254 0.
266.594 -486.499 0.
34.5826 133.679 0.
208.762 540.828 0.
-113.505 -210.352 0.
-62.1758 -1125.35 0.
93.1968 -769.983 0.
565.887 327.666 0.
259.787 -58.7057 0.
256.731 -69.9541 0.
144.041 206.53 0.
151.686 227.151 0.
-10.5157 -149.149 0.
128.043 -548.192 0.
640.463 645.294 0.
175.191 -442.531 0.
-172.892 -725.255 0.
-98.7453 -559.144 0.
-25.8761 -394.409 0.
144.941 293.787 0.
17.0408 -8.59972 0.
-56.2648 513.106 0.
217.394 297.354 0.
-8.49401 -229.323 0.
-139.293 -591.792 0.
-88.4641 -467.553 0.
-37.6354 -343.312 0.
-303.949 -321.337 0.
-210.957 -102.31 0.
-117.968 116.72 0.
439.103 282.84 0.
326.595 23.4044 0.
214.087 -236.034 0.
36.1061 -187.474 0.
121.603 16.6395 0.
270.514 231.49 0.
256.185 196.318 0.
241.857 161.144 0.
733.517 363.737 0.
758.721 423.16 0.
783.924 482.582 0.
623.904 391.587 0.
577.974 271.729 0.
532.044 151.87 0.
338.849 46.9821 0.
347.326 63.9173 0.
937.352 329.089 0.
197.032 -108.431 0.
132.409 -260.526 0.
162.587 -296.516 0.
271.904 -42.9067 0.
381.22 210.705 0.
492.072 337.222 0.
439.61 220.295 0.
387.148 103.368 0.
125.095 -154.044 0.
44.298 -343.683 0.
-36.4987 -533.321 0.
290.628 -269.162 0.
366.439 -93.1852 0.
379.832 47.945 0.
450.2 209.324 0.
520.568 370.703 0.
301.653 299.377 0.
202.074 58.6134 0.
102.495 -182.151 0.
491.584 -25.7969 0.
561.913 135.597 0.
632.242 296.99 0.
571.997 340.193 0.
594.482 391.69 0.
-226.479 82.9 0.
712.882 406.895 0.
672.112 308.17 0.
5.70616 -49.9782 0.
-22.734 -118.489 0.
-51.1739 -187 0.
317.168 -38.5003 0.
343.294 26.4979 0.
369.42 91.4952 0.
430.641 122.778 0.
415.949 91.4138 0.
401.258 60.0482 0.
33.6161 -164.862 0.
-7.45299 -259.013 0.
265.122 -201.132 0.
339.695 -28.1768 0.
414.269 144.777 0.
574.253 304.105 0.
566.627 289.122 0.
559.003 274.138 0.
301.613 24.3104 0.
177.158 -266.087 0.
52.7022 -556.486 0.
542.803 -251.984 0.
637.539 -28.164 0.
15.5139 -106.839 0.
52.0061 -150.771 0.
22.7825 -221.554 0.
-38.6658 -274.638 0.
5.34596 -170.336 0.
49.3577 -66.0324 0.
234.655 24.8718 0.
199.397 -52.3768 0.
164.138 -129.625 0.
172.26 -155.065 0.
163.672 -175.234 0.
155.082 -195.402 0.
639.527 104.399 0.
700.271 243.036 0.
-80.5841 14.2085 0.
-41.8717 107.458 0.
-3.15771 200.707 0.
136.154 243.673 0.
35.3726 2.72854 0.
-65.4103 -238.218 0.
309.398 -179.611 0.
299.984 -205.664 0.
290.569 -231.717 0.
33.691 -79.644 0.
210.072 331.365 0.
455.166 766.08 0.
-373.84 74.1829 0.
-598.47 -453.041 0.
201.028 -414.205 0.
253.894 -290.041 0.
306.76 -165.876 0.
-691.575 -451.444 0.
-595.093 -233.104 0.
-498.614 -14.762 0.
411.793 301.231 0.
299.169 43.2008 0.
186.546 -214.831 0.
84.6124 -137.809 0.
168.447 67.9081 0.
124.106 198.404 0.
110.149 163.239 0.
96.1922 128.074 0.
614.967 342.349 0.
639.94 401.825 0.
664.912 461.302 0.
994.04 584.839 0.
949.514 464.551 0.
904.987 344.261 0.
269.064 48.7358 0.
277.275 66.2873 0.
-181.488 -119.752 0.
-16.6568 -171.258 0.
-82.1408 -322.358 0.
289.144 -210.748 0.
397.342 42.7816 0.
505.54 296.313 0.
234.855 256.519 0.
181.367 139.8 0.
127.882 23.0818 0.
550.582 59.6887 0.
469.986 -131.119 0.
389.39 -321.926 0.
16.7289 -351.892 0.
94.686 -178.093 0.
237.54 17.1445 0.
307.89 179.138 0.
378.239 341.132 0.
142.059 262.315 0.
41.8351 22.1413 0.
-58.3887 -218.033 0.
406.962 -30.965 0.
478.061 130.652 0.
549.159 292.27 0.
467.577 331.332 0.
491.854 381.544 0.
-381.611 49.7977 0.
707.637 437.674 0.
667.867 338.047 0.
-121.858 -73.1437 0.
-149.583 -141.786 0.
-177.309 -210.429 0.
567.565 102.245 0.
595.186 166.218 0.
622.808 230.19 0.
437.156 159.307 0.
422.339 128.327 0.
407.523 97.3454 0.
-176.801 -225.576 0.
-216.567 -319.85 0.
150.145 -217.359 0.
225.52 -44.9675 0.
300.896 127.423 0.
474.835 295.733 0.
468.079 280.076 0.
461.324 264.418 0.
463.659 128.755 0.
339.369 -161.971 0.
215.079 -452.7 0.
634.895 -183.634 0.
728.345 41.0405 0.
155.667 -15.4785 0.
158.196 -74.6454 0.
128.139 -145.274 0.
-507.141 -444.725 0.
-463.155 -340.172 0.
-419.169 -235.619 0.
550.32 190.476 0.
515.238 113.877 0.
480.155 37.2792 0.
-35.3884 -213.432 0.
-44.8318 -232.691 0.
-54.2765 -251.948 0.
1036.87 305.035 0.
1097.51 443.254 0.
-242.941 -23.5871 0.
-203.597 69.4795 0.
-164.25 162.546 0.
-251.275 109.663 0.
-351.511 -131.753 0.
-451.75 -373.172 0.
626.383 -10.8034 0.
617.322 -36.7152 0.
608.262 -62.6271 0.
112.025 -18.4943 0.
287.712 394.132 0.
