# vtk DataFile Version 2.0
test grain
ASCII
DATASET UNSTRUCTURED_GRID
POINTS 5000 float
0.499928 0.0010009 0.
0.501928 0.00100072 0.
0.503928 0.00100045 0.
0.505928 0.00100022 0.
0.507929 0.00100025 0.
0.50993 0.00100028 0.
0.511931 0.00100025 0.
0.513933 0.00100013 0.
0.515936 0.001 0.
0.517938 0.00100003 0.
0.519939 0.00100014 0.
0.521941 0.00100025 0.
0.523941 0.00100019 0.
0.525942 0.00100009 0.
0.527942 0.00100002 0.
0.529942 0.00100022 0.
0.531943 0.00100042 0.
0.533944 0.00100049 0.
0.535945 0.00100028 0.
0.537947 0.00100007 0.
0.539948 0.001 0.
0.541949 0.00100005 0.
0.54395 0.0010001 0.
0.545951 0.00100009 0.
0.547952 0.00100006 0.
0.549953 0.00100003 0.
0.551954 0.00100014 0.
0.553956 0.00100026 0.
0.555957 0.00100033 0.
0.557957 0.0010002 0.
0.559957 0.00100007 0.
0.561958 0.001 0.
0.56396 0.00100003 0.
0.565962 0.00100006 0.
0.567964 0.00100005 0.
0.569965 0.00100003 0.
0.571965 0.00100001 0.
0.573967 0.001 0.
0.575968 0.000999999 0.
0.577969 0.00100002 0.
0.579969 0.00100022 0.
0.58197 0.00100043 0.
0.58397 0.00100057 0.
0.585969 0.00100058 0.
0.587967 0.00100058 0.
0.589966 0.00100046 0.
0.591964 0.00100023 0.
0.593962 0.001 0.
0.595973 0.00100033 0.
0.597987 0.00100082 0.
0.600001 0.0010013 0.
0.602015 0.00100083 0.
0.60403 0.00100036 0.
0.606041 0.001 0.
0.60804 0.00100004 0.
0.610038 0.00100007 0.
0.612037 0.00100011 0.
0.614037 0.00100013 0.
0.616038 0.00100016 0.
0.618038 0.00100025 0.
0.620037 0.00100037 0.
0.622037 0.0010005 0.
0.624037 0.0010004 0.
0.626037 0.00100028 0.
0.628037 0.00100017 0.
0.630038 0.00100011 0.
0.632039 0.00100004 0.
0.63404 0.001 0.
0.636041 0.00100003 0.
0.638042 0.00100005 0.
0.640043 0.00100005 0.
0.642045 0.00100003 0.
0.644047 0.00100001 0.
0.646047 0.00100027 0.
0.648048 0.00100061 0.
0.650048 0.00100092 0.
0.652048 0.00100059 0.
0.654049 0.00100026 0.
0.656049 0.00100001 0.
0.658051 0.00100001 0.
0.660053 0.000999999 0.
0.662054 0.000999997 0.
0.664056 0.001 0.
0.666057 0.00100001 0.
0.668058 0.0010001 0.
0.67006 0.00100023 0.
0.672062 0.00100036 0.
0.674062 0.00100024 0.
0.676062 0.0010001 0.
0.678063 0.00100001 0.
0.680064 0.0010002 0.
0.682065 0.0010004 0.
0.684066 0.00100049 0.
0.686067 0.00100042 0.
0.688068 0.00100035 0.
0.690069 0.00100037 0.
0.692071 0.00100044 0.
0.694072 0.00100051 0.
0.696073 0.00100051 0.
0.698074 0.00100048 0.
0.499927 0.00300269 0.
0.501928 0.00300216 0.
0.503928 0.00300133 0.
0.505929 0.00300068 0.
0.50793 0.00300076 0.
0.509931 0.00300085 0.
0.511932 0.00300075 0.
0.513934 0.00300037 0.
0.515936 0.003 0.
0.517937 0.00300008 0.
0.519939 0.00300042 0.
0.521941 0.00300076 0.
0.523941 0.00300056 0.
0.525941 0.00300028 0.
0.527941 0.00300006 0.
0.529942 0.00300066 0.
0.531943 0.00300125 0.
0.533943 0.00300147 0.
0.535945 0.00300084 0.
0.537946 0.00300021 0.
0.539947 0.003 0.
0.54195 0.00300016 0.
0.543952 0.00300031 0.
0.545953 0.00300028 0.
0.547954 0.00300018 0.
0.549954 0.00300008 0.
0.551955 0.00300043 0.
0.553956 0.00300079 0.
0.555956 0.00300098 0.
0.557957 0.00300059 0.
0.559958 0.00300019 0.
0.561959 0.00300001 0.
0.56396 0.00300009 0.
0.565961 0.00300017 0.
0.567963 0.00300015 0.
0.569964 0.00300008 0.
0.571965 0.00300002 0.
0.573967 0.003 0.
0.575968 0.003 0.
0.577969 0.00300005 0.
0.57997 0.00300067 0.
0.581971 0.00300128 0.
0.583971 0.0030017 0.
0.58597 0.00300173 0.
0.587969 0.00300176 0.
0.589968 0.00300138 0.
0.591968 0.00300069 0.
0.593967 0.00300001 0.
0.595976 0.00300099 0.
0.597988 0.00300245 0.
0.6 0.00300391 0.
0.602013 0.00300249 0.
0.604026 0.00300108 0.
0.606036 0.00300001 0.
0.608036 0.00300011 0.
0.610036 0.00300021 0.
0.612036 0.00300032 0.
0.614036 0.0030004 0.
0.616036 0.00300048 0.
0.618037 0.00300075 0.
0.620037 0.00300112 0.
0.622037 0.00300149 0.
0.624037 0.0030012 0.
0.626036 0.00300085 0.
0.628035 0.00300052 0.
0.630037 0.00300032 0.
0.632038 0.00300012 0.
0.634039 0.00300002 0.
0.636041 0.00300008 0.
0.638043 0.00300015 0.
0.640045 0.00300014 0.
0.642047 0.00300009 0.
0.644048 0.00300003 0.
0.646048 0.00300082 0.
0.648048 0.00300182 0.
0.650048 0.00300276 0.
0.652047 0.00300177 0.
0.654047 0.00300078 0.
0.656048 0.00300004 0.
0.658051 0.00300002 0.
0.660054 0.003 0.
0.662056 0.00299999 0.
0.664057 0.00300001 0.
0.666059 0.00300002 0.
0.66806 0.00300031 0.
0.670061 0.0030007 0.
0.672061 0.00300109 0.
0.674062 0.00300072 0.
0.676062 0.0030003 0.
0.678062 0.00300003 0.
0.680064 0.00300061 0.
0.682065 0.00300119 0.
0.684066 0.00300148 0.
0.686067 0.00300127 0.
0.688068 0.00300106 0.
0.690069 0.0030011 0.
0.692071 0.00300132 0.
0.694072 0.00300154 0.
0.696073 0.00300153 0.
0.698074 0.00300146 0.
0.499926 0.00500448 0.
0.501928 0.00500358 0.
0.503929 0.00500221 0.
0.50593 0.00500114 0.
0.507931 0.00500127 0.
0.509932 0.00500141 0.
0.511933 0.00500125 0.
0.513934 0.00500062 0.
0.515936 0.005 0.
0.517937 0.00500013 0.
0.519939 0.0050007 0.
0.52194 0.00500127 0.
0.523941 0.00500094 0.
0.525941 0.00500046 0.
0.527941 0.0050001 0.
0.529941 0.00500109 0.
0.531942 0.00500209 0.
0.533943 0.00500245 0.
0.535944 0.0050014 0.
0.537945 0.00500035 0.
0.539947 0.005 0.
0.541951 0.00500026 0.
0.543954 0.00500052 0.
0.545955 0.00500046 0.
0.547955 0.0050003 0.
0.549956 0.00500014 0.
0.551956 0.00500072 0.
0.553956 0.00500131 0.
0.555956 0.00500163 0.
0.557957 0.00500098 0.
0.559958 0.00500032 0.
0.561959 0.00500002 0.
0.56396 0.00500015 0.
0.56596 0.00500029 0.
0.567962 0.00500025 0.
0.569963 0.00500014 0.
0.571965 0.00500003 0.
0.573967 0.005 0.
0.575968 0.00499999 0.
0.57797 0.00500009 0.
0.579971 0.00500111 0.
0.581972 0.00500213 0.
0.583972 0.00500283 0.
0.585971 0.00500288 0.
0.587971 0.00500293 0.
0.589971 0.00500229 0.
0.591971 0.00500114 0.
0.593972 0.005 0.
0.59598 0.00500165 0.
0.59799 0.00500408 0.
0.6 0.00500651 0.
0.602011 0.00500415 0.
0.604022 0.00500179 0.
0.606031 0.00500001 0.
0.608032 0.00500018 0.
0.610033 0.00500035 0.
0.612034 0.00500052 0.
0.614034 0.00500066 0.
0.616035 0.0050008 0.
0.618035 0.00500124 0.
0.620037 0.00500186 0.
0.622038 0.00500248 0.
0.624036 0.005002 0.
0.626035 0.00500141 0.
0.628034 0.00500086 0.
0.630035 0.00500053 0.
0.632036 0.0050002 0.
0.634038 0.00500003 0.
0.636042 0.00500014 0.
0.638045 0.00500024 0.
0.640047 0.00500023 0.
0.642048 0.00500014 0.
0.64405 0.00500005 0.
0.646049 0.00500136 0.
0.648048 0.00500302 0.
0.650047 0.0050046 0.
0.652047 0.00500295 0.
0.654046 0.0050013 0.
0.656047 0.00500006 0.
0.65805 0.00500003 0.
0.660054 0.00499999 0.
0.662057 0.00499998 0.
0.664059 0.00500001 0.
0.666061 0.00500004 0.
0.668061 0.00500051 0.
0.670061 0.00500116 0.
0.672062 0.00500182 0.
0.674062 0.00500119 0.
0.676062 0.00500049 0.
0.678062 0.00500004 0.
0.680064 0.00500101 0.
0.682065 0.00500199 0.
0.684066 0.00500248 0.
0.686067 0.00500212 0.
0.688068 0.00500176 0.
0.690069 0.00500183 0.
0.692071 0.0050022 0.
0.694072 0.00500257 0.
0.696073 0.00500255 0.
0.698074 0.00500243 0.
0.499928 0.00700648 0.
0.501929 0.00700558 0.
0.50393 0.00700439 0.
0.505931 0.00700349 0.
0.507932 0.00700383 0.
0.509933 0.00700417 0.
0.511934 0.00700437 0.
0.513935 0.00700434 0.
0.515936 0.00700431 0.
0.517938 0.00700465 0.
0.519939 0.0070052 0.
0.52194 0.00700576 0.
0.52394 0.00700562 0.
0.525941 0.00700535 0.
0.527941 0.00700512 0.
0.529942 0.00700549 0.
0.531943 0.00700586 0.
0.533944 0.00700619 0.
0.535945 0.00700639 0.
0.537947 0.0070066 0.
0.539948 0.00700651 0.
0.541951 0.00700617 0.
0.543953 0.00700584 0.
0.545954 0.0070053 0.
0.547955 0.0070047 0.
0.549955 0.0070041 0.
0.551956 0.00700436 0.
0.553957 0.00700464 0.
0.555957 0.00700488 0.
0.557958 0.00700499 0.
0.559959 0.0070051 0.
0.56196 0.00700522 0.
0.563961 0.00700535 0.
0.565961 0.00700548 0.
0.567963 0.00700602 0.
0.569964 0.00700679 0.
0.571966 0.00700756 0.
0.573967 0.00700768 0.
0.575969 0.00700771 0.
0.57797 0.00700771 0.
0.579971 0.00700747 0.
0.581973 0.00700724 0.
0.583973 0.00700689 0.
0.585974 0.00700632 0.
0.587974 0.00700576 0.
0.589975 0.00700488 0.
0.591976 0.0070038 0.
0.593978 0.00700273 0.
0.595984 0.00700479 0.
0.597993 0.00700774 0.
0.600001 0.00701069 0.
0.602009 0.00700791 0.
0.604018 0.00700514 0.
0.606026 0.00700318 0.
0.608027 0.00700395 0.
0.610029 0.00700472 0.
0.61203 0.00700521 0.
0.614031 0.00700537 0.
0.616032 0.00700553 0.
0.618034 0.00700568 0.
0.620035 0.00700585 0.
0.622036 0.00700603 0.
0.624036 0.00700619 0.
0.626035 0.00700635 0.
0.628035 0.00700653 0.
0.630036 0.0070069 0.
0.632037 0.00700726 0.
0.634038 0.00700731 0.
0.636041 0.00700672 0.
0.638043 0.00700613 0.
0.640045 0.00700592 0.
0.642046 0.00700598 0.
0.644048 0.00700605 0.
0.646048 0.00700647 0.
0.648048 0.007007 0.
0.650048 0.0070075 0.
0.652048 0.00700748 0.
0.654048 0.00700747 0.
0.656049 0.00700757 0.
0.658052 0.00700798 0.
0.660054 0.00700839 0.
0.662056 0.0070082 0.
0.664057 0.00700732 0.
0.666058 0.00700644 0.
0.668059 0.00700607 0.
0.67006 0.00700594 0.
0.672061 0.00700581 0.
0.674061 0.00700501 0.
0.676062 0.00700418 0.
0.678063 0.00700353 0.
0.680064 0.00700403 0.
0.682064 0.00700453 0.
0.684065 0.00700483 0.
0.686067 0.00700474 0.
0.688068 0.00700465 0.
0.690069 0.00700455 0.
0.69207 0.00700443 0.
0.694071 0.00700431 0.
0.696072 0.00700482 0.
0.698073 0.00700548 0.
0.499929 0.0090084 0.
0.50193 0.00900758 0.
0.503931 0.00900657 0.
0.505932 0.00900584 0.
0.507933 0.00900638 0.
0.509934 0.00900692 0.
0.511935 0.00900749 0.
0.513936 0.00900806 0.
0.515937 0.00900863 0.
0.517938 0.00900916 0.
0.519938 0.00900971 0.
0.521939 0.00901026 0.
0.52394 0.0090103 0.
0.525941 0.00901024 0.
0.527942 0.00901014 0.
0.529943 0.00900989 0.
0.531944 0.00900963 0.
0.533946 0.00900992 0.
0.535947 0.00901138 0.
0.537948 0.00901284 0.
0.539949 0.00901301 0.
0.541951 0.00901208 0.
0.543952 0.00901116 0.
0.545953 0.00901015 0.
0.547954 0.00900911 0.
0.549955 0.00900806 0.
0.551956 0.00900801 0.
0.553957 0.00900798 0.
0.555959 0.00900814 0.
0.557959 0.00900901 0.
0.55996 0.00900988 0.
0.561961 0.00901042 0.
0.563962 0.00901055 0.
0.565962 0.00901068 0.
0.567963 0.00901179 0.
0.569965 0.00901343 0.
0.571966 0.00901508 0.
0.573967 0.00901535 0.
0.575969 0.00901542 0.
0.577971 0.00901532 0.
0.579972 0.00901383 0.
0.581973 0.00901235 0.
0.583975 0.00901095 0.
0.585976 0.00900976 0.
0.587977 0.00900858 0.
0.589979 0.00900746 0.
0.591982 0.00900645 0.
0.593984 0.00900545 0.
0.595989 0.00900794 0.
0.597995 0.0090114 0.
0.600001 0.00901487 0.
0.602008 0.00901167 0.
0.604015 0.00900848 0.
0.60602 0.00900635 0.
0.608023 0.00900772 0.
0.610025 0.00900908 0.
0.612027 0.00900991 0.
0.614029 0.00901008 0.
0.61603 0.00901026 0.
0.618032 0.00901012 0.
0.620033 0.00900985 0.
0.622034 0.00900958 0.
0.624035 0.00901037 0.
0.626036 0.00901128 0.
0.628036 0.0090122 0.
0.630037 0.00901326 0.
0.632037 0.00901432 0.
0.634038 0.00901459 0.
0.63604 0.00901331 0.
0.638041 0.00901202 0.
0.640043 0.00901161 0.
0.642045 0.00901183 0.
0.644046 0.00901205 0.
0.646047 0.0090116 0.
0.648048 0.00901098 0.
0.650048 0.00901039 0.
0.652049 0.00901201 0.
0.654051 0.00901363 0.
0.656052 0.00901507 0.
0.658053 0.00901593 0.
0.660054 0.00901679 0.
0.662055 0.00901642 0.
0.664056 0.00901463 0.
0.666056 0.00901284 0.
0.668057 0.00901163 0.
0.670059 0.00901071 0.
0.67206 0.00900979 0.
0.674061 0.00900884 0.
0.676062 0.00900787 0.
0.678063 0.00900702 0.
0.680064 0.00900704 0.
0.682064 0.00900707 0.
0.684065 0.00900718 0.
0.686066 0.00900736 0.
0.688068 0.00900755 0.
0.690069 0.00900726 0.
0.69207 0.00900666 0.
0.69407 0.00900605 0.
0.696071 0.0090071 0.
0.698072 0.00900853 0.
0.49993 0.0110093 0.
0.501931 0.0110087 0.
0.503932 0.0110079 0.
0.505933 0.0110073 0.
0.507934 0.0110079 0.
0.509935 0.0110085 0.
0.511936 0.0110092 0.
0.513937 0.0110101 0.
0.515938 0.0110111 0.
0.517938 0.0110117 0.
0.519939 0.011012 0.
0.521939 0.0110124 0.
0.52394 0.0110125 0.
0.525941 0.0110126 0.
0.527942 0.0110125 0.
0.529944 0.0110122 0.
0.531945 0.0110118 0.
0.533946 0.0110121 0.
0.535947 0.0110138 0.
0.537949 0.0110155 0.
0.53995 0.0110157 0.
0.541951 0.0110146 0.
0.543952 0.0110136 0.
0.545953 0.0110124 0.
0.547954 0.0110113 0.
0.549955 0.0110101 0.
0.551956 0.0110099 0.
0.553958 0.0110098 0.
0.555959 0.0110099 0.
0.55796 0.011011 0.
0.559961 0.011012 0.
0.561962 0.0110127 0.
0.563963 0.011013 0.
0.565964 0.0110132 0.
0.567965 0.0110143 0.
0.569966 0.0110159 0.
0.571967 0.0110175 0.
0.573969 0.0110179 0.
0.57597 0.0110181 0.
0.577972 0.0110181 0.
0.579974 0.0110162 0.
0.581975 0.0110143 0.
0.583977 0.0110126 0.
0.585979 0.011011 0.
0.58798 0.0110095 0.
0.589983 0.0110082 0.
0.591985 0.0110073 0.
0.593988 0.0110064 0.
0.595992 0.0110086 0.
0.597996 0.0110118 0.
0.600001 0.0110149 0.
0.602006 0.011012 0.
0.604012 0.0110091 0.
0.606017 0.0110072 0.
0.608019 0.0110088 0.
0.610022 0.0110103 0.
0.612024 0.0110114 0.
0.614026 0.0110118 0.
0.616028 0.0110123 0.
0.618029 0.0110121 0.
0.620031 0.0110116 0.
0.622032 0.0110111 0.
0.624033 0.0110121 0.
0.626035 0.0110132 0.
0.628036 0.0110143 0.
0.630037 0.0110157 0.
0.632038 0.011017 0.
0.634038 0.0110175 0.
0.63604 0.011016 0.
0.638041 0.0110146 0.
0.640042 0.0110141 0.
0.642044 0.0110144 0.
0.644045 0.0110146 0.
0.646046 0.0110139 0.
0.648047 0.0110128 0.
0.650049 0.0110119 0.
0.65205 0.0110141 0.
0.654051 0.0110164 0.
0.656052 0.0110183 0.
0.658053 0.0110193 0.
0.660054 0.0110203 0.
0.662055 0.0110199 0.
0.664055 0.0110179 0.
0.666056 0.0110159 0.
0.668057 0.0110144 0.
0.670058 0.011013 0.
0.67206 0.0110116 0.
0.674061 0.0110108 0.
0.676062 0.01101 0.
0.678063 0.0110092 0.
0.680064 0.0110088 0.
0.682064 0.0110085 0.
0.684065 0.0110085 0.
0.686066 0.0110088 0.
0.688067 0.0110091 0.
0.690068 0.0110088 0.
0.692069 0.0110081 0.
0.694069 0.0110074 0.
0.69607 0.0110085 0.
0.698071 0.0110099 0.
0.49993 0.0130093 0.
0.501931 0.0130088 0.
0.503932 0.0130083 0.
0.505933 0.013008 0.
0.507934 0.0130084 0.
0.509934 0.0130088 0.
0.511935 0.0130095 0.
0.513936 0.0130106 0.
0.515937 0.0130117 0.
0.517938 0.0130121 0.
0.519939 0.0130122 0.
0.52194 0.0130122 0.
0.523941 0.0130123 0.
0.525942 0.0130123 0.
0.527943 0.0130123 0.
0.529944 0.0130123 0.
0.531945 0.0130123 0.
0.533946 0.0130126 0.
0.535947 0.0130136 0.
0.537948 0.0130146 0.
0.53995 0.0130146 0.
0.541951 0.0130139 0.
0.543952 0.0130131 0.
0.545953 0.0130122 0.
0.547954 0.0130112 0.
0.549955 0.0130102 0.
0.551957 0.0130101 0.
0.553958 0.01301 0.
0.555959 0.0130101 0.
0.55796 0.0130108 0.
0.559961 0.0130116 0.
0.561962 0.0130122 0.
0.563964 0.0130126 0.
0.565965 0.013013 0.
0.567966 0.0130135 0.
0.569968 0.0130142 0.
0.571969 0.0130148 0.
0.573971 0.0130153 0.
0.575972 0.0130158 0.
0.577974 0.0130161 0.
0.579976 0.0130147 0.
0.581978 0.0130132 0.
0.58398 0.0130117 0.
0.585981 0.0130101 0.
0.587983 0.0130085 0.
0.589985 0.0130072 0.
0.591988 0.0130063 0.
0.59399 0.0130055 0.
0.595993 0.0130068 0.
0.597997 0.0130088 0.
0.600001 0.0130108 0.
0.602005 0.0130089 0.
0.60401 0.013007 0.
0.606014 0.0130058 0.
0.608017 0.0130072 0.
0.610019 0.0130085 0.
0.612022 0.0130097 0.
0.614023 0.0130107 0.
0.616025 0.0130117 0.
0.618027 0.0130117 0.
0.620028 0.0130112 0.
0.622029 0.0130107 0.
0.624031 0.0130113 0.
0.626033 0.013012 0.
0.628035 0.0130128 0.
0.630036 0.0130141 0.
0.632037 0.0130155 0.
0.634039 0.013016 0.
0.63604 0.0130149 0.
0.638041 0.0130138 0.
0.640042 0.0130134 0.
0.642043 0.0130136 0.
0.644045 0.0130138 0.
0.646046 0.0130133 0.
0.648047 0.0130126 0.
0.650048 0.0130119 0.
0.652049 0.0130138 0.
0.654051 0.0130158 0.
0.656052 0.0130174 0.
0.658053 0.0130182 0.
0.660054 0.0130189 0.
0.662055 0.0130187 0.
0.664056 0.0130172 0.
0.666056 0.0130157 0.
0.668057 0.0130142 0.
0.670059 0.0130128 0.
0.67206 0.0130114 0.
0.674061 0.0130109 0.
0.676062 0.0130104 0.
0.678063 0.0130099 0.
0.680063 0.0130094 0.
0.682064 0.0130089 0.
0.684065 0.0130087 0.
0.686066 0.013009 0.
0.688066 0.0130093 0.
0.690067 0.0130092 0.
0.692068 0.0130088 0.
0.694069 0.0130084 0.
0.69607 0.0130089 0.
0.698071 0.0130096 0.
0.499931 0.0150093 0.
0.501931 0.015009 0.
0.503932 0.0150088 0.
0.505933 0.0150086 0.
0.507933 0.0150089 0.
0.509934 0.0150091 0.
0.511935 0.0150098 0.
0.513936 0.0150111 0.
0.515937 0.0150124 0.
0.517938 0.0150126 0.
0.519939 0.0150123 0.
0.521941 0.015012 0.
0.523942 0.015012 0.
0.525943 0.015012 0.
0.527943 0.0150121 0.
0.529944 0.0150125 0.
0.531945 0.0150128 0.
0.533945 0.0150131 0.
0.535947 0.0150134 0.
0.537948 0.0150137 0.
0.539949 0.0150136 0.
0.541951 0.0150131 0.
0.543953 0.0150126 0.
0.545954 0.0150119 0.
0.547955 0.0150111 0.
0.549956 0.0150103 0.
0.551957 0.0150103 0.
0.553958 0.0150103 0.
0.555959 0.0150103 0.
0.55796 0.0150107 0.
0.559961 0.0150112 0.
0.561963 0.0150116 0.
0.563964 0.0150122 0.
0.565966 0.0150127 0.
0.567968 0.0150128 0.
0.569969 0.0150124 0.
0.571971 0.0150121 0.
0.573973 0.0150128 0.
0.575974 0.0150136 0.
0.577976 0.0150142 0.
0.579978 0.0150131 0.
0.58198 0.0150121 0.
0.583982 0.0150109 0.
0.585984 0.0150092 0.
0.587986 0.0150074 0.
0.589988 0.0150062 0.
0.59199 0.0150054 0.
0.593992 0.0150046 0.
0.595995 0.015005 0.
0.597998 0.0150059 0.
0.600001 0.0150067 0.
0.602004 0.0150058 0.
0.604008 0.0150049 0.
0.606011 0.0150044 0.
0.608014 0.0150055 0.
0.610017 0.0150067 0.
0.612019 0.015008 0.
0.614021 0.0150095 0.
0.616023 0.0150111 0.
0.618024 0.0150112 0.
0.620026 0.0150107 0.
0.622027 0.0150102 0.
0.624029 0.0150105 0.
0.626032 0.0150108 0.
0.628034 0.0150113 0.
0.630036 0.0150126 0.
0.632037 0.0150139 0.
0.634039 0.0150145 0.
0.63604 0.0150137 0.
0.638041 0.015013 0.
0.640042 0.0150127 0.
0.642043 0.0150128 0.
0.644044 0.0150129 0.
0.646045 0.0150127 0.
0.648047 0.0150123 0.
0.650048 0.0150119 0.
0.652049 0.0150135 0.
0.65405 0.0150151 0.
0.656051 0.0150165 0.
0.658052 0.015017 0.
0.660054 0.0150176 0.
0.662055 0.0150174 0.
0.664056 0.0150164 0.
0.666057 0.0150154 0.
0.668058 0.0150141 0.
0.670059 0.0150126 0.
0.672061 0.0150111 0.
0.674061 0.0150109 0.
0.676062 0.0150108 0.
0.678062 0.0150107 0.
0.680063 0.01501 0.
0.682065 0.0150093 0.
0.684065 0.015009 0.
0.686065 0.0150092 0.
0.688065 0.0150095 0.
0.690066 0.0150096 0.
0.692067 0.0150095 0.
0.694068 0.0150094 0.
0.696069 0.0150093 0.
0.69807 0.0150093 0.
0.499932 0.0170105 0.
0.501932 0.0170105 0.
0.503933 0.0170105 0.
0.505933 0.0170106 0.
0.507934 0.0170106 0.
0.509934 0.0170107 0.
0.511935 0.017011 0.
0.513936 0.0170117 0.
0.515936 0.0170124 0.
0.517938 0.0170126 0.
0.519939 0.0170125 0.
0.521941 0.0170124 0.
0.523942 0.0170123 0.
0.525943 0.0170122 0.
0.527944 0.0170121 0.
0.529945 0.0170128 0.
0.531945 0.0170135 0.
0.533946 0.017014 0.
0.535947 0.0170141 0.
0.537949 0.0170141 0.
0.53995 0.0170137 0.
0.541952 0.0170129 0.
0.543953 0.0170121 0.
0.545954 0.0170116 0.
0.547956 0.0170113 0.
0.549957 0.017011 0.
0.551957 0.0170107 0.
0.553958 0.0170104 0.
0.555959 0.0170102 0.
0.55796 0.0170105 0.
0.559962 0.0170107 0.
0.561963 0.0170111 0.
0.563965 0.0170116 0.
0.565967 0.0170121 0.
0.567968 0.0170123 0.
0.56997 0.0170122 0.
0.571972 0.0170122 0.
0.573973 0.0170127 0.
0.575975 0.0170133 0.
0.577976 0.0170137 0.
0.579979 0.0170125 0.
0.581981 0.0170113 0.
0.583983 0.0170099 0.
0.585985 0.0170084 0.
0.587987 0.0170069 0.
0.589989 0.0170057 0.
0.591991 0.0170049 0.
0.593992 0.0170041 0.
0.595995 0.0170043 0.
0.597998 0.0170048 0.
0.600001 0.0170053 0.
0.602004 0.0170049 0.
0.604007 0.0170045 0.
0.60601 0.0170043 0.
0.608013 0.0170053 0.
0.610015 0.0170063 0.
0.612017 0.0170073 0.
0.614019 0.0170084 0.
0.616021 0.0170096 0.
0.618023 0.0170098 0.
0.620025 0.0170097 0.
0.622027 0.0170096 0.
0.624028 0.01701 0.
0.62603 0.0170105 0.
0.628032 0.017011 0.
0.630034 0.017012 0.
0.632036 0.017013 0.
0.634038 0.0170135 0.
0.636039 0.0170132 0.
0.638041 0.0170129 0.
0.640042 0.0170128 0.
0.642043 0.0170129 0.
0.644044 0.017013 0.
0.646045 0.0170128 0.
0.648046 0.0170127 0.
0.650047 0.0170125 0.
0.652048 0.0170137 0.
0.654049 0.0170148 0.
0.656051 0.0170158 0.
0.658052 0.0170165 0.
0.660054 0.0170171 0.
0.662055 0.0170171 0.
0.664056 0.0170162 0.
0.666057 0.0170153 0.
0.668058 0.0170145 0.
0.670059 0.0170136 0.
0.67206 0.0170128 0.
0.674061 0.0170119 0.
0.676061 0.017011 0.
0.678062 0.0170102 0.
0.680063 0.0170099 0.
0.682064 0.0170095 0.
0.684065 0.0170095 0.
0.686065 0.0170098 0.
0.688065 0.0170102 0.
0.690066 0.0170103 0.
0.692067 0.0170102 0.
0.694068 0.0170101 0.
0.696069 0.0170103 0.
0.69807 0.0170107 0.
0.499933 0.0190118 0.
0.501933 0.019012 0.
0.503933 0.0190123 0.
0.505933 0.0190125 0.
0.507934 0.0190124 0.
0.509934 0.0190123 0.
0.511935 0.0190123 0.
0.513935 0.0190124 0.
0.515936 0.0190125 0.
0.517937 0.0190126 0.
0.519939 0.0190127 0.
0.52194 0.0190128 0.
0.523941 0.0190126 0.
0.525943 0.0190123 0.
0.527944 0.0190122 0.
0.529945 0.0190132 0.
0.531946 0.0190143 0.
0.533947 0.0190149 0.
0.535948 0.0190148 0.
0.537949 0.0190146 0.
0.539951 0.0190139 0.
0.541952 0.0190127 0.
0.543954 0.0190115 0.
0.545955 0.0190114 0.
0.547956 0.0190116 0.
0.549957 0.0190118 0.
0.551958 0.0190112 0.
0.553958 0.0190106 0.
0.555959 0.0190101 0.
0.557961 0.0190102 0.
0.559962 0.0190103 0.
0.561964 0.0190106 0.
0.563966 0.0190111 0.
0.565967 0.0190115 0.
0.567969 0.0190118 0.
0.569971 0.0190121 0.
0.571972 0.0190123 0.
0.573974 0.0190127 0.
0.575975 0.0190131 0.
0.577977 0.0190133 0.
0.579979 0.0190118 0.
0.581981 0.0190104 0.
0.583983 0.0190089 0.
0.585985 0.0190076 0.
0.587987 0.0190063 0.
0.589989 0.0190053 0.
0.591991 0.0190045 0.
0.593993 0.0190037 0.
0.595996 0.0190036 0.
0.597998 0.0190037 0.
0.600001 0.0190039 0.
0.602004 0.019004 0.
0.604006 0.019004 0.
0.606009 0.0190043 0.
0.608011 0.0190051 0.
0.610013 0.0190059 0.
0.612016 0.0190067 0.
0.614018 0.0190074 0.
0.61602 0.019008 0.
0.618022 0.0190085 0.
0.620024 0.0190087 0.
0.622026 0.0190089 0.
0.624028 0.0190095 0.
0.626029 0.0190101 0.
0.628031 0.0190108 0.
0.630033 0.0190114 0.
0.632035 0.0190121 0.
0.634037 0.0190126 0.
0.636038 0.0190127 0.
0.63804 0.0190128 0.
0.640041 0.0190129 0.
0.642043 0.0190129 0.
0.644044 0.019013 0.
0.646045 0.019013 0.
0.648046 0.019013 0.
0.650046 0.0190131 0.
0.652048 0.0190138 0.
0.654049 0.0190145 0.
0.65605 0.0190152 0.
0.658052 0.0190159 0.
0.660053 0.0190166 0.
0.662054 0.0190167 0.
0.664056 0.019016 0.
0.666057 0.0190152 0.
0.668057 0.0190149 0.
0.670058 0.0190147 0.
0.672059 0.0190145 0.
0.67406 0.0190129 0.
0.676061 0.0190112 0.
0.678062 0.0190097 0.
0.680063 0.0190097 0.
0.682064 0.0190098 0.
0.684065 0.0190099 0.
0.686065 0.0190104 0.
0.688066 0.0190109 0.
0.690066 0.019011 0.
0.692067 0.0190108 0.
0.694067 0.0190107 0.
0.696068 0.0190113 0.
0.698069 0.019012 0.
0.499933 0.0210125 0.
0.501933 0.0210129 0.
0.503933 0.0210133 0.
0.505934 0.0210137 0.
0.507934 0.0210135 0.
0.509934 0.0210133 0.
0.511935 0.0210131 0.
0.513936 0.021013 0.
0.515937 0.0210128 0.
0.517938 0.0210127 0.
0.519939 0.0210128 0.
0.52194 0.0210128 0.
0.523942 0.0210125 0.
0.525943 0.0210121 0.
0.527944 0.0210118 0.
0.529946 0.0210131 0.
0.531947 0.0210143 0.
0.533948 0.0210151 0.
0.535949 0.0210147 0.
0.53795 0.0210144 0.
0.539951 0.0210136 0.
0.541953 0.0210125 0.
0.543954 0.0210114 0.
0.545955 0.0210113 0.
0.547956 0.0210116 0.
0.549957 0.0210119 0.
0.551958 0.0210112 0.
0.553959 0.0210105 0.
0.55596 0.0210099 0.
0.557961 0.0210098 0.
0.559963 0.0210097 0.
0.561964 0.0210098 0.
0.563966 0.0210102 0.
0.565967 0.0210105 0.
0.567969 0.021011 0.
0.569971 0.0210115 0.
0.571972 0.0210121 0.
0.573974 0.0210122 0.
0.575976 0.0210123 0.
0.577977 0.0210123 0.
0.579979 0.0210106 0.
0.581982 0.021009 0.
0.583984 0.0210075 0.
0.585986 0.0210064 0.
0.587988 0.0210053 0.
0.58999 0.0210044 0.
0.591991 0.0210035 0.
0.593993 0.0210027 0.
0.595996 0.0210024 0.
0.597998 0.0210024 0.
0.600001 0.0210023 0.
0.602003 0.0210028 0.
0.604006 0.0210032 0.
0.606008 0.0210037 0.
0.60801 0.0210044 0.
0.610013 0.0210051 0.
0.612015 0.0210056 0.
0.614017 0.021006 0.
0.61602 0.0210064 0.
0.618022 0.021007 0.
0.620024 0.0210075 0.
0.622025 0.0210081 0.
0.624027 0.0210086 0.
0.626028 0.0210092 0.
0.62803 0.0210097 0.
0.630032 0.0210104 0.
0.632034 0.021011 0.
0.634036 0.0210116 0.
0.636037 0.021012 0.
0.638039 0.0210125 0.
0.64004 0.0210127 0.
0.642042 0.0210127 0.
0.644043 0.0210127 0.
0.646044 0.0210129 0.
0.648045 0.0210131 0.
0.650046 0.0210134 0.
0.652047 0.0210138 0.
0.654048 0.0210141 0.
0.656049 0.0210146 0.
0.658051 0.0210153 0.
0.660052 0.0210161 0.
0.662054 0.0210162 0.
0.664055 0.0210156 0.
0.666056 0.0210151 0.
0.668057 0.021015 0.
0.670058 0.021015 0.
0.672059 0.021015 0.
0.67406 0.0210132 0.
0.676061 0.0210113 0.
0.678062 0.0210097 0.
0.680063 0.02101 0.
0.682064 0.0210103 0.
0.684065 0.0210106 0.
0.686065 0.021011 0.
0.688066 0.0210114 0.
0.690066 0.0210116 0.
0.692067 0.0210116 0.
0.694067 0.0210116 0.
0.696068 0.0210122 0.
0.698069 0.021013 0.
0.499934 0.0230127 0.
0.501934 0.0230132 0.
0.503934 0.0230137 0.
0.505934 0.0230141 0.
0.507935 0.023014 0.
0.509936 0.0230138 0.
0.511936 0.0230137 0.
0.513937 0.0230135 0.
0.515938 0.0230133 0.
0.517938 0.0230129 0.
0.519939 0.0230126 0.
0.52194 0.0230122 0.
0.523942 0.0230118 0.
0.525944 0.0230114 0.
0.527945 0.0230111 0.
0.529946 0.0230124 0.
0.531947 0.0230136 0.
0.533948 0.0230144 0.
0.535949 0.023014 0.
0.537951 0.0230136 0.
0.539952 0.023013 0.
0.541953 0.0230123 0.
0.543954 0.0230115 0.
0.545955 0.0230114 0.
0.547956 0.0230114 0.
0.549957 0.0230114 0.
0.551958 0.0230108 0.
0.553959 0.0230102 0.
0.555961 0.0230096 0.
0.557962 0.0230092 0.
0.559963 0.0230089 0.
0.561965 0.0230088 0.
0.563966 0.023009 0.
0.565967 0.0230092 0.
0.567968 0.0230098 0.
0.56997 0.0230107 0.
0.571972 0.0230115 0.
0.573974 0.0230113 0.
0.575976 0.0230109 0.
0.577978 0.0230105 0.
0.57998 0.0230088 0.
0.581982 0.0230071 0.
0.583984 0.0230057 0.
0.585986 0.0230048 0.
0.587987 0.023004 0.
0.589989 0.0230031 0.
0.591991 0.0230021 0.
0.593993 0.0230012 0.
0.595995 0.0230008 0.
0.597998 0.0230007 0.
0.6 0.0230005 0.
0.602003 0.0230013 0.
0.604006 0.023002 0.
0.606008 0.0230027 0.
0.60801 0.0230032 0.
0.610013 0.0230037 0.
0.612015 0.0230042 0.
0.614017 0.0230044 0.
0.616019 0.0230047 0.
0.618021 0.0230054 0.
0.620023 0.0230062 0.
0.622024 0.023007 0.
0.624026 0.0230073 0.
0.626028 0.0230076 0.
0.62803 0.0230079 0.
0.630031 0.0230088 0.
0.632033 0.0230097 0.
0.634035 0.0230105 0.
0.636036 0.0230112 0.
0.638038 0.0230119 0.
0.640039 0.0230121 0.
0.642041 0.0230121 0.
0.644042 0.023012 0.
0.646043 0.0230124 0.
0.648044 0.0230129 0.
0.650046 0.0230134 0.
0.652047 0.0230136 0.
0.654048 0.0230138 0.
0.656049 0.0230141 0.
0.65805 0.0230147 0.
0.660051 0.0230154 0.
0.662052 0.0230156 0.
0.664053 0.0230153 0.
0.666054 0.023015 0.
0.668055 0.0230148 0.
0.670057 0.0230145 0.
0.672058 0.0230143 0.
0.674059 0.0230129 0.
0.67606 0.0230114 0.
0.678062 0.0230101 0.
0.680062 0.0230107 0.
0.682063 0.0230112 0.
0.684064 0.0230116 0.
0.686064 0.0230117 0.
0.688065 0.0230118 0.
0.690065 0.0230121 0.
0.692066 0.0230124 0.
0.694067 0.0230128 0.
0.696068 0.0230132 0.
0.698069 0.0230137 0.
0.499934 0.0250129 0.
0.501934 0.0250136 0.
0.503934 0.0250141 0.
0.505934 0.0250145 0.
0.507936 0.0250144 0.
0.509937 0.0250144 0.
0.511937 0.0250142 0.
0.513938 0.025014 0.
0.515938 0.0250137 0.
0.517939 0.0250132 0.
0.51994 0.0250124 0.
0.521941 0.0250117 0.
0.523942 0.0250112 0.
0.525944 0.0250107 0.
0.527946 0.0250104 0.
0.529947 0.0250117 0.
0.531948 0.025013 0.
0.533949 0.0250137 0.
0.53595 0.0250133 0.
0.537951 0.0250129 0.
0.539953 0.0250125 0.
0.541954 0.0250121 0.
0.543955 0.0250117 0.
0.545956 0.0250114 0.
0.547956 0.0250111 0.
0.549957 0.0250108 0.
0.551958 0.0250103 0.
0.55396 0.0250098 0.
0.555962 0.0250093 0.
0.557963 0.0250087 0.
0.559964 0.025008 0.
0.561965 0.0250077 0.
0.563966 0.0250078 0.
0.565966 0.0250078 0.
0.567968 0.0250086 0.
0.56997 0.0250098 0.
0.571972 0.025011 0.
0.573974 0.0250104 0.
0.575976 0.0250096 0.
0.577979 0.0250087 0.
0.57998 0.025007 0.
0.581982 0.0250052 0.
0.583984 0.0250038 0.
0.585986 0.0250033 0.
0.587987 0.0250027 0.
0.589989 0.0250018 0.
0.591991 0.0250007 0.
0.593992 0.0249997 0.
0.595995 0.0249992 0.
0.597998 0.024999 0.
0.6 0.0249988 0.
0.602003 0.0249998 0.
0.604005 0.0250008 0.
0.606008 0.0250016 0.
0.60801 0.025002 0.
0.610013 0.0250024 0.
0.612015 0.0250027 0.
0.614017 0.0250029 0.
0.616019 0.025003 0.
0.61802 0.0250038 0.
0.620022 0.0250049 0.
0.622023 0.025006 0.
0.624025 0.025006 0.
0.626028 0.025006 0.
0.62803 0.0250062 0.
0.630031 0.0250073 0.
0.632032 0.0250084 0.
0.634034 0.0250094 0.
0.636035 0.0250103 0.
0.638037 0.0250112 0.
0.640038 0.0250116 0.
0.642039 0.0250115 0.
0.644041 0.0250114 0.
0.646042 0.025012 0.
0.648044 0.0250128 0.
0.650045 0.0250135 0.
0.652046 0.0250135 0.
0.654047 0.0250135 0.
0.656048 0.0250136 0.
0.658049 0.0250142 0.
0.66005 0.0250147 0.
0.662051 0.0250149 0.
0.664052 0.0250149 0.
0.666053 0.0250148 0.
0.668054 0.0250145 0.
0.670056 0.0250141 0.
0.672058 0.0250136 0.
0.674059 0.0250126 0.
0.67606 0.0250115 0.
0.678061 0.0250106 0.
0.680062 0.0250113 0.
0.682063 0.0250121 0.
0.684063 0.0250125 0.
0.686064 0.0250124 0.
0.688064 0.0250122 0.
0.690065 0.0250126 0.
0.692066 0.0250133 0.
0.694067 0.0250139 0.
0.696068 0.0250142 0.
0.69807 0.0250143 0.
0.499933 0.0270152 0.
0.501934 0.0270151 0.
0.503934 0.0270147 0.
0.505935 0.0270145 0.
0.507936 0.0270147 0.
0.509937 0.0270149 0.
0.511938 0.0270147 0.
0.513938 0.027014 0.
0.515939 0.0270133 0.
0.51794 0.0270127 0.
0.519941 0.0270122 0.
0.521942 0.0270117 0.
0.523943 0.0270111 0.
0.525945 0.0270105 0.
0.527946 0.02701 0.
0.529947 0.027011 0.
0.531948 0.0270119 0.
0.533949 0.0270126 0.
0.535951 0.0270125 0.
0.537952 0.0270123 0.
0.539953 0.0270121 0.
0.541955 0.0270118 0.
0.543956 0.0270115 0.
0.545957 0.0270112 0.
0.547958 0.0270108 0.
0.549959 0.0270105 0.
0.55196 0.0270099 0.
0.553961 0.0270092 0.
0.555962 0.0270086 0.
0.557963 0.0270082 0.
0.559964 0.0270078 0.
0.561965 0.0270076 0.
0.563966 0.0270074 0.
0.565967 0.0270073 0.
0.567969 0.0270077 0.
0.56997 0.0270084 0.
0.571972 0.0270092 0.
0.573975 0.0270085 0.
0.575977 0.0270077 0.
0.57798 0.0270069 0.
0.579981 0.0270055 0.
0.581983 0.0270042 0.
0.583984 0.0270031 0.
0.585986 0.0270025 0.
0.587987 0.0270019 0.
0.589989 0.0270011 0.
0.591991 0.0270001 0.
0.593993 0.0269991 0.
0.595995 0.0269987 0.
0.597998 0.0269983 0.
0.6 0.026998 0.
0.602003 0.0269985 0.
0.604006 0.0269989 0.
0.606008 0.0269994 0.
0.60801 0.0270001 0.
0.610013 0.0270008 0.
0.612015 0.0270014 0.
0.614016 0.0270017 0.
0.616018 0.0270021 0.
0.618019 0.0270028 0.
0.620021 0.0270037 0.
0.622022 0.0270046 0.
0.624025 0.0270051 0.
0.626027 0.0270055 0.
0.628029 0.027006 0.
0.630031 0.0270068 0.
0.632032 0.0270076 0.
0.634034 0.0270084 0.
0.636035 0.0270092 0.
0.638036 0.02701 0.
0.640037 0.0270104 0.
0.642039 0.0270104 0.
0.64404 0.0270105 0.
0.646042 0.0270111 0.
0.648043 0.0270118 0.
0.650044 0.0270125 0.
0.652045 0.0270127 0.
0.654046 0.0270128 0.
0.656047 0.0270131 0.
0.658048 0.0270137 0.
0.66005 0.0270143 0.
0.662051 0.0270147 0.
0.664052 0.0270147 0.
0.666053 0.0270147 0.
0.668054 0.0270143 0.
0.670056 0.0270136 0.
0.672058 0.027013 0.
0.674059 0.0270124 0.
0.67606 0.0270117 0.
0.678061 0.0270112 0.
0.680061 0.0270117 0.
0.682062 0.0270123 0.
0.684063 0.0270127 0.
0.686063 0.0270131 0.
0.688064 0.0270134 0.
0.690065 0.0270139 0.
0.692065 0.0270143 0.
0.694066 0.0270148 0.
0.696068 0.0270152 0.
0.698069 0.0270155 0.
0.499933 0.0290176 0.
0.501934 0.0290166 0.
0.503934 0.0290154 0.
0.505935 0.0290145 0.
0.507936 0.029015 0.
0.509937 0.0290154 0.
0.511938 0.0290152 0.
0.513939 0.0290141 0.
0.51594 0.0290129 0.
0.517941 0.0290123 0.
0.519942 0.0290121 0.
0.521943 0.0290118 0.
0.523944 0.0290111 0.
0.525945 0.0290103 0.
0.527946 0.0290096 0.
0.529947 0.0290103 0.
0.531948 0.0290109 0.
0.53395 0.0290114 0.
0.535951 0.0290116 0.
0.537953 0.0290118 0.
0.539954 0.0290118 0.
0.541956 0.0290115 0.
0.543957 0.0290113 0.
0.545958 0.0290109 0.
0.547959 0.0290106 0.
0.54996 0.0290102 0.
0.551961 0.0290094 0.
0.553961 0.0290087 0.
0.555962 0.029008 0.
0.557963 0.0290078 0.
0.559964 0.0290076 0.
0.561966 0.0290074 0.
0.563967 0.0290071 0.
0.565968 0.0290068 0.
0.567969 0.0290069 0.
0.569971 0.0290071 0.
0.571973 0.0290073 0.
0.573975 0.0290067 0.
0.575978 0.0290059 0.
0.57798 0.029005 0.
0.579982 0.0290041 0.
0.581983 0.0290031 0.
0.583984 0.0290023 0.
0.585986 0.0290017 0.
0.587987 0.0290011 0.
0.589989 0.0290004 0.
0.591991 0.0289995 0.
0.593993 0.0289986 0.
0.595995 0.0289981 0.
0.597998 0.0289977 0.
0.6 0.0289972 0.
0.602003 0.0289971 0.
0.604006 0.028997 0.
0.606009 0.0289972 0.
0.608011 0.0289982 0.
0.610013 0.0289992 0.
0.612014 0.029 0.
0.614016 0.0290006 0.
0.616017 0.0290012 0.
0.618019 0.0290019 0.
0.62002 0.0290026 0.
0.622022 0.0290032 0.
0.624024 0.0290041 0.
0.626026 0.029005 0.
0.628029 0.0290058 0.
0.63003 0.0290063 0.
0.632032 0.0290068 0.
0.634033 0.0290074 0.
0.636034 0.0290081 0.
0.638035 0.0290087 0.
0.640037 0.0290091 0.
0.642038 0.0290094 0.
0.64404 0.0290096 0.
0.646041 0.0290102 0.
0.648042 0.0290109 0.
0.650044 0.0290115 0.
0.652045 0.0290119 0.
0.654046 0.0290122 0.
0.656047 0.0290126 0.
0.658048 0.0290133 0.
0.66005 0.029014 0.
0.662051 0.0290144 0.
0.664052 0.0290145 0.
0.666053 0.0290145 0.
0.668055 0.029014 0.
0.670056 0.0290132 0.
0.672057 0.0290124 0.
0.674058 0.0290121 0.
0.676059 0.0290119 0.
0.67806 0.0290118 0.
0.68006 0.0290121 0.
0.682061 0.0290124 0.
0.684062 0.0290129 0.
0.686063 0.0290138 0.
0.688063 0.0290146 0.
0.690064 0.0290151 0.
0.692065 0.0290154 0.
0.694066 0.0290157 0.
0.696067 0.0290162 0.
0.698068 0.0290168 0.
0.499933 0.031019 0.
0.501935 0.0310177 0.
0.503935 0.0310162 0.
0.505936 0.0310151 0.
0.507937 0.0310154 0.
0.509938 0.0310158 0.
0.511939 0.0310155 0.
0.513939 0.0310142 0.
0.51594 0.031013 0.
0.517941 0.0310124 0.
0.519942 0.0310122 0.
0.521943 0.031012 0.
0.523944 0.0310112 0.
0.525946 0.0310103 0.
0.527947 0.0310095 0.
0.529948 0.0310099 0.
0.531949 0.0310102 0.
0.53395 0.0310105 0.
0.535952 0.0310109 0.
0.537953 0.0310113 0.
0.539955 0.0310114 0.
0.541956 0.0310112 0.
0.543957 0.031011 0.
0.545958 0.0310106 0.
0.54796 0.0310103 0.
0.549961 0.0310099 0.
0.551961 0.0310091 0.
0.553962 0.0310083 0.
0.555963 0.0310076 0.
0.557964 0.0310074 0.
0.559965 0.0310072 0.
0.561966 0.0310069 0.
0.563967 0.0310065 0.
0.565969 0.0310062 0.
0.56797 0.031006 0.
0.569972 0.0310059 0.
0.571974 0.0310058 0.
0.573976 0.0310051 0.
0.575978 0.0310043 0.
0.577981 0.0310036 0.
0.579982 0.0310028 0.
0.581983 0.0310021 0.
0.583985 0.0310014 0.
0.585986 0.0310008 0.
0.587987 0.0310002 0.
0.589989 0.0309994 0.
0.591991 0.0309985 0.
0.593993 0.0309976 0.
0.595995 0.0309971 0.
0.597998 0.0309967 0.
0.6 0.0309963 0.
0.602003 0.030996 0.
0.604006 0.0309958 0.
0.606009 0.0309958 0.
0.60801 0.0309968 0.
0.610012 0.0309978 0.
0.612014 0.0309987 0.
0.614015 0.0309995 0.
0.616016 0.0310003 0.
0.618018 0.0310009 0.
0.62002 0.0310015 0.
0.622021 0.0310021 0.
0.624023 0.031003 0.
0.626026 0.031004 0.
0.628028 0.031005 0.
0.63003 0.0310055 0.
0.632031 0.031006 0.
0.634033 0.0310065 0.
0.636034 0.031007 0.
0.638035 0.0310075 0.
0.640036 0.0310079 0.
0.642038 0.0310083 0.
0.64404 0.0310087 0.
0.646041 0.0310093 0.
0.648042 0.0310101 0.
0.650043 0.0310108 0.
0.652044 0.0310112 0.
0.654045 0.0310115 0.
0.656046 0.031012 0.
0.658048 0.0310128 0.
0.660049 0.0310136 0.
0.66205 0.031014 0.
0.664052 0.031014 0.
0.666053 0.0310139 0.
0.668054 0.0310135 0.
0.670055 0.0310129 0.
0.672057 0.0310123 0.
0.674058 0.0310123 0.
0.676058 0.0310123 0.
0.678059 0.0310123 0.
0.68006 0.0310125 0.
0.682061 0.0310127 0.
0.684061 0.0310132 0.
0.686062 0.0310142 0.
0.688063 0.0310152 0.
0.690064 0.0310158 0.
0.692064 0.0310159 0.
0.694065 0.0310161 0.
0.696066 0.0310167 0.
0.698067 0.0310175 0.
0.499935 0.0330196 0.
0.501936 0.0330184 0.
0.503937 0.0330172 0.
0.505938 0.0330162 0.
0.507939 0.033016 0.
0.509939 0.0330159 0.
0.511939 0.0330155 0.
0.51394 0.0330145 0.
0.515941 0.0330135 0.
0.517942 0.0330129 0.
0.519943 0.0330125 0.
0.521944 0.0330122 0.
0.523945 0.0330115 0.
0.525946 0.0330106 0.
0.527947 0.0330098 0.
0.529948 0.0330098 0.
0.531949 0.0330098 0.
0.53395 0.0330099 0.
0.535952 0.0330103 0.
0.537953 0.0330108 0.
0.539955 0.0330109 0.
0.541956 0.0330107 0.
0.543957 0.0330106 0.
0.545958 0.0330102 0.
0.547959 0.0330099 0.
0.54996 0.0330095 0.
0.551961 0.0330088 0.
0.553962 0.0330081 0.
0.555963 0.0330074 0.
0.557964 0.033007 0.
0.559965 0.0330065 0.
0.561967 0.0330061 0.
0.563968 0.0330057 0.
0.56597 0.0330053 0.
0.567972 0.033005 0.
0.569973 0.0330048 0.
0.571974 0.0330046 0.
0.573976 0.033004 0.
0.575979 0.0330032 0.
0.577981 0.0330024 0.
0.579982 0.0330018 0.
0.581984 0.0330011 0.
0.583985 0.0330004 0.
0.585987 0.0329997 0.
0.587988 0.0329989 0.
0.58999 0.032998 0.
0.591991 0.0329971 0.
0.593993 0.0329961 0.
0.595995 0.0329957 0.
0.597998 0.0329954 0.
0.6 0.0329951 0.
0.602003 0.0329951 0.
0.604005 0.0329952 0.
0.606007 0.0329953 0.
0.608009 0.032996 0.
0.610011 0.0329966 0.
0.612013 0.0329974 0.
0.614014 0.0329983 0.
0.616016 0.0329993 0.
0.618018 0.0329999 0.
0.620019 0.0330005 0.
0.622021 0.0330011 0.
0.624023 0.0330019 0.
0.626025 0.0330027 0.
0.628027 0.0330035 0.
0.630029 0.0330043 0.
0.632031 0.0330052 0.
0.634032 0.0330058 0.
0.636034 0.0330061 0.
0.638035 0.0330063 0.
0.640037 0.0330067 0.
0.642038 0.0330072 0.
0.644039 0.0330077 0.
0.64604 0.0330085 0.
0.648041 0.0330094 0.
0.650043 0.0330102 0.
0.652043 0.0330106 0.
0.654044 0.033011 0.
0.656045 0.0330114 0.
0.658046 0.0330123 0.
0.660048 0.0330131 0.
0.662049 0.0330134 0.
0.664051 0.0330131 0.
0.666052 0.0330128 0.
0.668053 0.0330128 0.
0.670055 0.0330128 0.
0.672056 0.0330129 0.
0.674057 0.0330129 0.
0.676058 0.0330129 0.
0.678059 0.0330129 0.
0.68006 0.0330129 0.
0.68206 0.033013 0.
0.684061 0.0330134 0.
0.686061 0.0330143 0.
0.688062 0.0330153 0.
0.690062 0.0330158 0.
0.692063 0.033016 0.
0.694064 0.0330161 0.
0.696064 0.0330168 0.
0.698064 0.0330177 0.
0.499936 0.0350202 0.
0.501938 0.0350191 0.
0.503939 0.0350181 0.
0.50594 0.0350172 0.
0.50794 0.0350167 0.
0.50994 0.0350161 0.
0.51194 0.0350154 0.
0.513941 0.0350147 0.
0.515941 0.0350139 0.
0.517942 0.0350134 0.
0.519943 0.0350129 0.
0.521944 0.0350124 0.
0.523945 0.0350117 0.
0.525947 0.0350109 0.
0.527948 0.0350101 0.
0.529949 0.0350097 0.
0.531949 0.0350093 0.
0.533951 0.0350092 0.
0.535952 0.0350097 0.
0.537954 0.0350102 0.
0.539955 0.0350104 0.
0.541956 0.0350103 0.
0.543956 0.0350102 0.
0.545957 0.0350098 0.
0.547959 0.0350095 0.
0.54996 0.0350091 0.
0.551961 0.0350085 0.
0.553962 0.0350079 0.
0.555964 0.0350073 0.
0.557965 0.0350065 0.
0.559966 0.0350058 0.
0.561967 0.0350052 0.
0.563969 0.0350049 0.
0.565971 0.0350045 0.
0.567973 0.0350041 0.
0.569974 0.0350038 0.
0.571975 0.0350035 0.
0.573977 0.0350028 0.
0.575979 0.0350021 0.
0.577981 0.0350013 0.
0.579982 0.0350007 0.
0.581984 0.0350001 0.
0.583986 0.0349994 0.
0.585987 0.0349985 0.
0.587989 0.0349977 0.
0.58999 0.0349967 0.
0.591992 0.0349956 0.
0.593993 0.0349945 0.
0.595995 0.0349942 0.
0.597998 0.0349941 0.
0.6 0.034994 0.
0.602002 0.0349943 0.
0.604004 0.0349945 0.
0.606006 0.0349948 0.
0.608008 0.0349952 0.
0.61001 0.0349955 0.
0.612011 0.0349961 0.
0.614014 0.0349972 0.
0.616016 0.0349982 0.
0.618017 0.034999 0.
0.620019 0.0349996 0.
0.622021 0.0350002 0.
0.624023 0.0350007 0.
0.626025 0.0350013 0.
0.628026 0.0350019 0.
0.630028 0.0350031 0.
0.63203 0.0350043 0.
0.634031 0.0350051 0.
0.636033 0.0350051 0.
0.638035 0.0350051 0.
0.640037 0.0350055 0.
0.642038 0.0350061 0.
0.644039 0.0350067 0.
0.64604 0.0350076 0.
0.648041 0.0350087 0.
0.650042 0.0350097 0.
0.652043 0.03501 0.
0.654043 0.0350104 0.
0.656044 0.0350109 0.
0.658045 0.0350117 0.
0.660047 0.0350126 0.
0.662048 0.0350128 0.
0.664049 0.0350123 0.
0.666051 0.0350118 0.
0.668052 0.0350121 0.
0.670054 0.0350127 0.
0.672055 0.0350134 0.
0.674056 0.0350134 0.
0.676058 0.0350134 0.
0.678059 0.0350134 0.
0.680059 0.0350134 0.
0.68206 0.0350133 0.
0.684061 0.0350136 0.
0.686061 0.0350145 0.
0.688061 0.0350153 0.
0.690061 0.0350158 0.
0.692062 0.035016 0.
0.694063 0.0350162 0.
0.696063 0.0350169 0.
0.698062 0.0350178 0.
0.499938 0.0370203 0.
0.501939 0.0370196 0.
0.50394 0.0370188 0.
0.505941 0.037018 0.
0.507941 0.0370172 0.
0.509941 0.0370164 0.
0.511941 0.0370157 0.
0.513942 0.0370151 0.
0.515943 0.0370145 0.
0.517943 0.0370139 0.
0.519944 0.0370131 0.
0.521945 0.0370124 0.
0.523946 0.0370116 0.
0.525947 0.0370108 0.
0.527948 0.03701 0.
0.529949 0.0370099 0.
0.53195 0.0370097 0.
0.533951 0.0370095 0.
0.535952 0.0370092 0.
0.537954 0.0370089 0.
0.539955 0.0370089 0.
0.541956 0.0370092 0.
0.543957 0.0370095 0.
0.545958 0.0370092 0.
0.547959 0.0370088 0.
0.549961 0.0370084 0.
0.551962 0.0370077 0.
0.553963 0.037007 0.
0.555964 0.0370063 0.
0.557965 0.0370057 0.
0.559966 0.0370052 0.
0.561968 0.0370047 0.
0.563969 0.0370041 0.
0.565971 0.0370035 0.
0.567972 0.0370029 0.
0.569974 0.0370024 0.
0.571975 0.0370019 0.
0.573977 0.0370011 0.
0.575979 0.0370003 0.
0.577981 0.0369996 0.
0.579982 0.0369993 0.
0.581984 0.036999 0.
0.583986 0.0369985 0.
0.585987 0.0369975 0.
0.587989 0.0369966 0.
0.58999 0.0369956 0.
0.591992 0.0369946 0.
0.593994 0.0369936 0.
0.595996 0.036993 0.
0.597998 0.0369926 0.
0.600001 0.0369922 0.
0.602003 0.0369928 0.
0.604005 0.0369935 0.
0.606007 0.036994 0.
0.608008 0.0369938 0.
0.61001 0.0369936 0.
0.612011 0.0369941 0.
0.614013 0.0369954 0.
0.616015 0.0369967 0.
0.618017 0.0369977 0.
0.620019 0.0369985 0.
0.62202 0.0369993 0.
0.624022 0.0369998 0.
0.626024 0.0370002 0.
0.628026 0.0370007 0.
0.630027 0.037002 0.
0.632029 0.0370032 0.
0.634031 0.037004 0.
0.636033 0.037004 0.
0.638035 0.037004 0.
0.640036 0.0370045 0.
0.642037 0.0370055 0.
0.644038 0.0370065 0.
0.646039 0.0370075 0.
0.648041 0.0370084 0.
0.650042 0.0370094 0.
0.652042 0.0370096 0.
0.654043 0.0370098 0.
0.656044 0.0370102 0.
0.658045 0.0370112 0.
0.660046 0.0370121 0.
0.662048 0.0370124 0.
0.664049 0.0370119 0.
0.66605 0.0370114 0.
0.668052 0.0370118 0.
0.670053 0.0370127 0.
0.672054 0.0370136 0.
0.674055 0.0370133 0.
0.676056 0.0370129 0.
0.678057 0.0370126 0.
0.680058 0.0370129 0.
0.682059 0.0370132 0.
0.684059 0.0370136 0.
0.68606 0.0370145 0.
0.68806 0.0370153 0.
0.69006 0.0370159 0.
0.692061 0.0370165 0.
0.694062 0.037017 0.
0.696062 0.0370177 0.
0.698062 0.0370184 0.
0.49994 0.0390204 0.
0.50194 0.0390201 0.
0.503941 0.0390195 0.
0.505941 0.0390188 0.
0.507942 0.0390177 0.
0.509942 0.0390167 0.
0.511943 0.0390159 0.
0.513943 0.0390155 0.
0.515944 0.0390151 0.
0.517944 0.0390144 0.
0.519945 0.0390134 0.
0.521946 0.0390124 0.
0.523947 0.0390116 0.
0.525948 0.0390107 0.
0.527949 0.03901 0.
0.52995 0.03901 0.
0.531951 0.0390101 0.
0.533952 0.0390098 0.
0.535953 0.0390086 0.
0.537954 0.0390075 0.
0.539955 0.0390074 0.
0.541956 0.0390081 0.
0.543957 0.0390088 0.
0.545958 0.0390086 0.
0.54796 0.0390081 0.
0.549962 0.0390076 0.
0.551962 0.0390068 0.
0.553963 0.039006 0.
0.555964 0.0390052 0.
0.557965 0.0390049 0.
0.559967 0.0390047 0.
0.561968 0.0390042 0.
0.563969 0.0390033 0.
0.56597 0.0390025 0.
0.567972 0.0390017 0.
0.569974 0.039001 0.
0.571976 0.0390003 0.
0.573978 0.0389995 0.
0.575979 0.0389986 0.
0.577981 0.0389978 0.
0.579983 0.0389978 0.
0.581984 0.0389978 0.
0.583986 0.0389975 0.
0.585987 0.0389965 0.
0.587989 0.0389955 0.
0.589991 0.0389945 0.
0.591993 0.0389936 0.
0.593994 0.0389926 0.
0.595997 0.0389919 0.
0.597999 0.0389911 0.
0.600001 0.0389904 0.
0.602003 0.0389914 0.
0.604005 0.0389924 0.
0.606007 0.0389931 0.
0.608008 0.0389924 0.
0.61001 0.0389917 0.
0.612011 0.038992 0.
0.614013 0.0389936 0.
0.616015 0.0389951 0.
0.618017 0.0389963 0.
0.620018 0.0389974 0.
0.62202 0.0389985 0.
0.624022 0.0389989 0.
0.626023 0.0389991 0.
0.628025 0.0389995 0.
0.630027 0.0390008 0.
0.632029 0.0390021 0.
0.63403 0.0390029 0.
0.636032 0.0390029 0.
0.638034 0.0390028 0.
0.640035 0.0390036 0.
0.642037 0.0390049 0.
0.644038 0.0390063 0.
0.646039 0.0390073 0.
0.64804 0.0390082 0.
0.650041 0.0390091 0.
0.652042 0.0390092 0.
0.654043 0.0390093 0.
0.656044 0.0390096 0.
0.658045 0.0390106 0.
0.660046 0.0390116 0.
0.662047 0.0390119 0.
0.664049 0.0390114 0.
0.66605 0.0390109 0.
0.668051 0.0390115 0.
0.670052 0.0390126 0.
0.672053 0.0390137 0.
0.674054 0.0390132 0.
0.676055 0.0390124 0.
0.678056 0.0390118 0.
0.680056 0.0390124 0.
0.682057 0.039013 0.
0.684058 0.0390137 0.
0.686058 0.0390145 0.
0.688059 0.0390153 0.
0.690059 0.0390161 0.
0.69206 0.039017 0.
0.694061 0.0390178 0.
0.696061 0.0390184 0.
0.698062 0.039019 0.
0.499941 0.0410212 0.
0.501941 0.0410208 0.
0.503942 0.0410202 0.
0.505942 0.0410194 0.
0.507943 0.0410182 0.
0.509943 0.0410169 0.
0.511944 0.0410161 0.
0.513944 0.0410157 0.
0.515944 0.0410154 0.
0.517945 0.0410146 0.
0.519946 0.0410135 0.
0.521947 0.0410125 0.
0.523948 0.0410116 0.
0.525949 0.0410108 0.
0.52795 0.04101 0.
0.529951 0.0410101 0.
0.531951 0.0410102 0.
0.533952 0.0410098 0.
0.535953 0.0410082 0.
0.537954 0.0410067 0.
0.539955 0.0410064 0.
0.541956 0.0410071 0.
0.543958 0.0410078 0.
0.545959 0.0410078 0.
0.547961 0.0410074 0.
0.549962 0.0410071 0.
0.551963 0.0410063 0.
0.553964 0.0410055 0.
0.555965 0.0410047 0.
0.557966 0.0410043 0.
0.559967 0.0410039 0.
0.561969 0.0410033 0.
0.56397 0.0410023 0.
0.565971 0.0410014 0.
0.567972 0.0410006 0.
0.569974 0.0409999 0.
0.571976 0.0409991 0.
0.573978 0.0409982 0.
0.57598 0.0409974 0.
0.577982 0.0409965 0.
0.579983 0.0409966 0.
0.581985 0.0409966 0.
0.583986 0.0409963 0.
0.585988 0.0409953 0.
0.58799 0.0409944 0.
0.589991 0.0409934 0.
0.591993 0.0409924 0.
0.593995 0.0409914 0.
0.595997 0.0409907 0.
0.597999 0.0409901 0.
0.600001 0.0409895 0.
0.602003 0.0409905 0.
0.604005 0.0409915 0.
0.606007 0.0409921 0.
0.608008 0.0409911 0.
0.61001 0.0409901 0.
0.612011 0.0409904 0.
0.614013 0.0409921 0.
0.616014 0.0409939 0.
0.618016 0.0409952 0.
0.620018 0.0409964 0.
0.622019 0.0409975 0.
0.624021 0.0409978 0.
0.626023 0.040998 0.
0.628024 0.0409984 0.
0.630026 0.0409998 0.
0.632028 0.0410012 0.
0.634029 0.0410021 0.
0.636031 0.0410019 0.
0.638032 0.0410018 0.
0.640034 0.0410027 0.
0.642035 0.0410043 0.
0.644037 0.0410059 0.
0.646038 0.041007 0.
0.648039 0.0410078 0.
0.650041 0.0410087 0.
0.652041 0.0410088 0.
0.654042 0.041009 0.
0.656043 0.0410093 0.
0.658044 0.0410102 0.
0.660045 0.0410111 0.
0.662047 0.0410113 0.
0.664048 0.0410109 0.
0.666049 0.0410105 0.
0.66805 0.0410112 0.
0.670051 0.0410124 0.
0.672052 0.0410137 0.
0.674053 0.0410131 0.
0.676054 0.0410123 0.
0.678055 0.0410117 0.
0.680055 0.0410125 0.
0.682056 0.0410132 0.
0.684057 0.0410139 0.
0.686057 0.0410146 0.
0.688058 0.0410154 0.
0.690059 0.0410163 0.
0.692059 0.0410173 0.
0.69406 0.0410183 0.
0.696061 0.041019 0.
0.698062 0.0410197 0.
0.499943 0.0430224 0.
0.501943 0.0430217 0.
0.503943 0.0430208 0.
0.505943 0.0430199 0.
0.507943 0.0430186 0.
0.509944 0.0430172 0.
0.511944 0.0430162 0.
0.513945 0.0430158 0.
0.515945 0.0430153 0.
0.517946 0.0430145 0.
0.519947 0.0430135 0.
0.521948 0.0430126 0.
0.523949 0.0430117 0.
0.52595 0.0430109 0.
0.527951 0.0430101 0.
0.529952 0.04301 0.
0.531953 0.0430099 0.
0.533953 0.0430094 0.
0.535954 0.0430079 0.
0.537955 0.0430064 0.
0.539956 0.0430059 0.
0.541957 0.0430062 0.
0.543959 0.0430066 0.
0.54596 0.0430067 0.
0.547961 0.0430068 0.
0.549962 0.0430068 0.
0.551963 0.0430061 0.
0.553965 0.0430055 0.
0.555966 0.0430048 0.
0.557967 0.0430038 0.
0.559968 0.0430029 0.
0.561969 0.043002 0.
0.563971 0.0430011 0.
0.565972 0.0430002 0.
0.567974 0.0429994 0.
0.569975 0.0429988 0.
0.571977 0.0429982 0.
0.573979 0.0429974 0.
0.575981 0.0429966 0.
0.577983 0.0429958 0.
0.579984 0.0429956 0.
0.581985 0.0429954 0.
0.583987 0.0429949 0.
0.585988 0.042994 0.
0.58799 0.0429931 0.
0.589992 0.0429922 0.
0.591994 0.0429911 0.
0.593996 0.04299 0.
0.595998 0.0429897 0.
0.597999 0.0429896 0.
0.600001 0.0429895 0.
0.602003 0.0429902 0.
0.604005 0.0429908 0.
0.606007 0.0429911 0.
0.608008 0.04299 0.
0.610009 0.0429888 0.
0.612011 0.042989 0.
0.614012 0.042991 0.
0.616014 0.042993 0.
0.618015 0.0429943 0.
0.620017 0.0429953 0.
0.622019 0.0429963 0.
0.62402 0.0429966 0.
0.626022 0.0429969 0.
0.628024 0.0429974 0.
0.630025 0.042999 0.
0.632026 0.0430005 0.
0.634028 0.0430014 0.
0.636029 0.0430011 0.
0.638031 0.0430009 0.
0.640032 0.0430018 0.
0.642033 0.0430036 0.
0.644035 0.0430053 0.
0.646036 0.0430064 0.
0.648038 0.0430073 0.
0.65004 0.0430081 0.
0.652041 0.0430085 0.
0.654041 0.0430089 0.
0.656042 0.0430093 0.
0.658043 0.0430099 0.
0.660044 0.0430105 0.
0.662046 0.0430106 0.
0.664047 0.0430103 0.
0.666048 0.04301 0.
0.668049 0.0430108 0.
0.67005 0.0430121 0.
0.672051 0.0430134 0.
0.674052 0.0430131 0.
0.676053 0.0430126 0.
0.678054 0.0430123 0.
0.680054 0.043013 0.
0.682055 0.0430137 0.
0.684056 0.0430144 0.
0.686056 0.043015 0.
0.688057 0.0430156 0.
0.690058 0.0430165 0.
0.692059 0.0430175 0.
0.69406 0.0430185 0.
0.69606 0.0430195 0.
0.698061 0.0430206 0.
0.499944 0.0450236 0.
0.501944 0.0450225 0.
0.503944 0.0450215 0.
0.505944 0.0450203 0.
0.507944 0.0450189 0.
0.509945 0.0450175 0.
0.511945 0.0450164 0.
0.513945 0.0450158 0.
0.515946 0.0450152 0.
0.517947 0.0450144 0.
0.519948 0.0450135 0.
0.521949 0.0450127 0.
0.52395 0.0450119 0.
0.525951 0.045011 0.
0.527952 0.0450102 0.
0.529953 0.04501 0.
0.531954 0.0450097 0.
0.533954 0.045009 0.
0.535955 0.0450076 0.
0.537956 0.0450061 0.
0.539957 0.0450054 0.
0.541958 0.0450054 0.
0.54396 0.0450054 0.
0.54596 0.0450057 0.
0.547961 0.0450061 0.
0.549962 0.0450064 0.
0.551964 0.045006 0.
0.553965 0.0450055 0.
0.555967 0.0450048 0.
0.557968 0.0450034 0.
0.559968 0.045002 0.
0.56197 0.0450008 0.
0.563971 0.0449999 0.
0.565973 0.044999 0.
0.567975 0.0449983 0.
0.569976 0.0449978 0.
0.571977 0.0449973 0.
0.573979 0.0449966 0.
0.575982 0.0449958 0.
0.577984 0.0449951 0.
0.579985 0.0449946 0.
0.581986 0.0449941 0.
0.583987 0.0449935 0.
0.585989 0.0449927 0.
0.587991 0.0449919 0.
0.589992 0.0449909 0.
0.591995 0.0449898 0.
0.593997 0.0449886 0.
0.595998 0.0449887 0.
0.597999 0.0449891 0.
0.600001 0.0449895 0.
0.602003 0.0449898 0.
0.604005 0.0449901 0.
0.606007 0.0449901 0.
0.608008 0.0449888 0.
0.610009 0.0449874 0.
0.61201 0.0449877 0.
0.614012 0.04499 0.
0.616013 0.0449922 0.
0.618014 0.0449934 0.
0.620016 0.0449942 0.
0.622018 0.044995 0.
0.62402 0.0449954 0.
0.626021 0.0449959 0.
0.628023 0.0449964 0.
0.630024 0.0449981 0.
0.632025 0.0449998 0.
0.634026 0.0450007 0.
0.636028 0.0450004 0.
0.638029 0.045 0.
0.64003 0.0450009 0.
0.642031 0.0450028 0.
0.644033 0.0450047 0.
0.646035 0.0450058 0.
0.648037 0.0450067 0.
0.650039 0.0450075 0.
0.65204 0.0450082 0.
0.65404 0.0450088 0.
0.656041 0.0450093 0.
0.658042 0.0450096 0.
0.660043 0.0450099 0.
0.662045 0.0450099 0.
0.664046 0.0450098 0.
0.666047 0.0450096 0.
0.668048 0.0450105 0.
0.670049 0.0450118 0.
0.67205 0.0450131 0.
0.674051 0.0450131 0.
0.676052 0.045013 0.
0.678053 0.0450129 0.
0.680053 0.0450136 0.
0.682054 0.0450142 0.
0.684055 0.0450149 0.
0.686056 0.0450154 0.
0.688057 0.0450158 0.
0.690058 0.0450166 0.
0.692059 0.0450176 0.
0.694059 0.0450186 0.
0.69606 0.04502 0.
0.69806 0.0450215 0.
0.499943 0.0470237 0.
0.501944 0.0470228 0.
0.503945 0.0470218 0.
0.505946 0.0470207 0.
0.507946 0.0470195 0.
0.509946 0.0470183 0.
0.511946 0.0470171 0.
0.513947 0.0470159 0.
0.515947 0.0470148 0.
0.517948 0.0470138 0.
0.519949 0.0470129 0.
0.52195 0.047012 0.
0.523951 0.0470113 0.
0.525952 0.0470107 0.
0.527953 0.0470101 0.
0.529954 0.0470096 0.
0.531955 0.0470092 0.
0.533956 0.0470085 0.
0.535957 0.0470074 0.
0.537958 0.0470063 0.
0.539959 0.0470057 0.
0.54196 0.0470055 0.
0.543961 0.0470053 0.
0.545962 0.0470053 0.
0.547962 0.0470054 0.
0.549963 0.0470054 0.
0.551965 0.0470049 0.
0.553967 0.0470044 0.
0.555968 0.0470037 0.
0.557969 0.0470024 0.
0.55997 0.047001 0.
0.561971 0.0469999 0.
0.563973 0.0469991 0.
0.565974 0.0469982 0.
0.567975 0.0469975 0.
0.569976 0.0469969 0.
0.571978 0.0469963 0.
0.573979 0.0469955 0.
0.575982 0.0469948 0.
0.577984 0.046994 0.
0.579985 0.0469933 0.
0.581987 0.0469926 0.
0.583989 0.046992 0.
0.58599 0.0469913 0.
0.587992 0.0469906 0.
0.589993 0.0469898 0.
0.591995 0.0469891 0.
0.593997 0.0469883 0.
0.595998 0.0469884 0.
0.597999 0.0469887 0.
0.6 0.0469891 0.
0.602003 0.0469888 0.
0.604005 0.0469886 0.
0.606007 0.0469882 0.
0.608008 0.0469877 0.
0.610009 0.0469872 0.
0.61201 0.0469876 0.
0.614012 0.0469891 0.
0.616013 0.0469906 0.
0.618014 0.0469919 0.
0.620016 0.0469931 0.
0.622017 0.0469942 0.
0.624019 0.0469948 0.
0.62602 0.0469952 0.
0.628022 0.0469959 0.
0.630023 0.0469974 0.
0.632025 0.046999 0.
0.634026 0.047 0.
0.636027 0.0469998 0.
0.638028 0.0469996 0.
0.64003 0.0470005 0.
0.642031 0.0470022 0.
0.644032 0.0470039 0.
0.646034 0.047005 0.
0.648036 0.0470059 0.
0.650038 0.0470068 0.
0.652039 0.0470076 0.
0.654039 0.0470084 0.
0.65604 0.0470091 0.
0.658041 0.0470094 0.
0.660043 0.0470096 0.
0.662044 0.0470097 0.
0.664045 0.0470098 0.
0.666046 0.0470099 0.
0.668047 0.0470105 0.
0.670048 0.0470114 0.
0.672049 0.0470123 0.
0.67405 0.0470127 0.
0.676051 0.0470129 0.
0.678052 0.0470132 0.
0.680052 0.0470137 0.
0.682052 0.0470142 0.
0.684053 0.0470148 0.
0.686054 0.0470154 0.
0.688054 0.047016 0.
0.690055 0.0470168 0.
0.692056 0.0470177 0.
0.694057 0.0470186 0.
0.696058 0.0470204 0.
0.698058 0.0470224 0.
0.499943 0.0490239 0.
0.501944 0.049023 0.
0.503946 0.049022 0.
0.505947 0.0490211 0.
0.507947 0.04902 0.
0.509948 0.049019 0.
0.511948 0.0490177 0.
0.513948 0.049016 0.
0.515949 0.0490144 0.
0.51795 0.0490132 0.
0.519951 0.0490122 0.
0.521952 0.0490113 0.
0.523952 0.0490108 0.
0.525953 0.0490104 0.
0.527953 0.0490099 0.
0.529955 0.0490093 0.
0.531956 0.0490086 0.
0.533958 0.049008 0.
0.535959 0.0490072 0.
0.53796 0.0490065 0.
0.539961 0.049006 0.
0.541961 0.0490056 0.
0.543962 0.0490052 0.
0.545963 0.0490049 0.
0.547964 0.0490047 0.
0.549965 0.0490044 0.
0.551966 0.0490038 0.
0.553968 0.0490033 0.
0.555969 0.0490026 0.
0.55797 0.0490013 0.
0.559971 0.0490001 0.
0.561973 0.048999 0.
0.563974 0.0489983 0.
0.565975 0.0489975 0.
0.567976 0.0489968 0.
0.569977 0.0489961 0.
0.571978 0.0489953 0.
0.57398 0.0489945 0.
0.575981 0.0489937 0.
0.577983 0.0489929 0.
0.579985 0.048992 0.
0.581988 0.0489911 0.
0.58399 0.0489904 0.
0.585991 0.0489898 0.
0.587993 0.0489892 0.
0.589994 0.0489887 0.
0.591995 0.0489883 0.
0.593996 0.0489879 0.
0.595997 0.0489881 0.
0.597999 0.0489884 0.
0.6 0.0489888 0.
0.602002 0.0489879 0.
0.604005 0.048987 0.
0.606007 0.0489864 0.
0.608008 0.0489867 0.
0.610009 0.0489869 0.
0.61201 0.0489875 0.
0.614012 0.0489883 0.
0.616013 0.0489891 0.
0.618015 0.0489904 0.
0.620016 0.0489919 0.
0.622017 0.0489934 0.
0.624018 0.0489941 0.
0.62602 0.0489946 0.
0.628021 0.0489953 0.
0.630023 0.0489968 0.
0.632024 0.0489983 0.
0.634026 0.0489993 0.
0.636027 0.0489993 0.
0.638028 0.0489993 0.
0.640029 0.0490001 0.
0.64203 0.0490016 0.
0.644031 0.0490032 0.
0.646033 0.0490042 0.
0.648035 0.0490051 0.
0.650037 0.049006 0.
0.652037 0.0490071 0.
0.654038 0.0490081 0.
0.656039 0.0490089 0.
0.658041 0.0490091 0.
0.660042 0.0490093 0.
0.662043 0.0490095 0.
0.664044 0.0490098 0.
0.666045 0.0490101 0.
0.668046 0.0490105 0.
0.670047 0.049011 0.
0.672047 0.0490115 0.
0.674048 0.0490122 0.
0.676049 0.0490129 0.
0.67805 0.0490135 0.
0.680051 0.0490138 0.
0.682051 0.0490142 0.
0.684051 0.0490147 0.
0.686052 0.0490154 0.
0.688052 0.0490161 0.
0.690053 0.0490169 0.
0.692054 0.0490177 0.
0.694055 0.0490186 0.
0.696055 0.0490208 0.
0.698056 0.0490234 0.
0.499944 0.0510241 0.
0.501946 0.0510231 0.
0.503947 0.051022 0.
0.505948 0.051021 0.
0.507949 0.0510201 0.
0.509949 0.0510192 0.
0.511949 0.0510179 0.
0.51395 0.051016 0.
0.51595 0.0510142 0.
0.517951 0.0510129 0.
0.519952 0.0510119 0.
0.521953 0.0510109 0.
0.523954 0.0510105 0.
0.525954 0.0510101 0.
0.527954 0.0510097 0.
0.529956 0.051009 0.
0.531957 0.0510084 0.
0.533959 0.0510077 0.
0.53596 0.051007 0.
0.537961 0.0510062 0.
0.539962 0.0510057 0.
0.541962 0.0510052 0.
0.543963 0.0510047 0.
0.545964 0.0510044 0.
0.547965 0.051004 0.
0.549966 0.0510036 0.
0.551967 0.0510029 0.
0.553968 0.0510022 0.
0.55597 0.0510014 0.
0.557971 0.0510003 0.
0.559973 0.0509992 0.
0.561974 0.0509983 0.
0.563975 0.0509976 0.
0.565976 0.050997 0.
0.567977 0.0509961 0.
0.569978 0.0509952 0.
0.571979 0.0509943 0.
0.57398 0.0509935 0.
0.575982 0.0509926 0.
0.577983 0.0509918 0.
0.579986 0.0509909 0.
0.581988 0.05099 0.
0.58399 0.0509893 0.
0.585992 0.0509887 0.
0.587993 0.0509882 0.
0.589994 0.0509879 0.
0.591995 0.0509878 0.
0.593996 0.0509877 0.
0.595997 0.0509877 0.
0.597999 0.0509878 0.
0.6 0.0509879 0.
0.602002 0.0509869 0.
0.604004 0.050986 0.
0.606006 0.0509853 0.
0.608007 0.0509859 0.
0.610008 0.0509865 0.
0.612009 0.0509871 0.
0.614011 0.0509876 0.
0.616013 0.050988 0.
0.618014 0.0509893 0.
0.620015 0.0509909 0.
0.622016 0.0509926 0.
0.624017 0.0509933 0.
0.626019 0.050994 0.
0.628021 0.0509947 0.
0.630022 0.050996 0.
0.632024 0.0509974 0.
0.634025 0.0509983 0.
0.636026 0.0509985 0.
0.638027 0.0509988 0.
0.640029 0.0509997 0.
0.64203 0.0510011 0.
0.644031 0.0510025 0.
0.646032 0.0510036 0.
0.648034 0.0510045 0.
0.650035 0.0510054 0.
0.652036 0.0510065 0.
0.654037 0.0510076 0.
0.656038 0.0510085 0.
0.65804 0.0510087 0.
0.660041 0.0510089 0.
0.662042 0.0510093 0.
0.664043 0.0510097 0.
0.666044 0.0510102 0.
0.668045 0.0510105 0.
0.670046 0.0510109 0.
0.672046 0.0510112 0.
0.674047 0.051012 0.
0.676048 0.0510128 0.
0.678049 0.0510135 0.
0.680049 0.051014 0.
0.682049 0.0510146 0.
0.68405 0.0510151 0.
0.68605 0.0510157 0.
0.68805 0.0510164 0.
0.690051 0.0510172 0.
0.692052 0.051018 0.
0.694053 0.0510189 0.
0.696053 0.0510214 0.
0.698054 0.0510242 0.
0.499947 0.0530243 0.
0.501947 0.053023 0.
0.503948 0.0530218 0.
0.505949 0.0530207 0.
0.507949 0.0530198 0.
0.50995 0.0530189 0.
0.511951 0.0530177 0.
0.513952 0.0530159 0.
0.515952 0.0530142 0.
0.517953 0.0530129 0.
0.519953 0.053012 0.
0.521954 0.053011 0.
0.523954 0.0530104 0.
0.525955 0.0530098 0.
0.527956 0.0530093 0.
0.529957 0.0530088 0.
0.531958 0.0530084 0.
0.53396 0.0530077 0.
0.53596 0.0530066 0.
0.537961 0.0530055 0.
0.539962 0.0530048 0.
0.541963 0.0530043 0.
0.543964 0.0530039 0.
0.545965 0.0530036 0.
0.547965 0.0530034 0.
0.549965 0.0530032 0.
0.551967 0.0530021 0.
0.553969 0.053001 0.
0.55597 0.0529999 0.
0.557972 0.0529992 0.
0.559974 0.0529985 0.
0.561975 0.0529978 0.
0.563976 0.0529972 0.
0.565977 0.0529966 0.
0.567978 0.0529956 0.
0.569979 0.0529944 0.
0.57198 0.0529933 0.
0.573981 0.0529924 0.
0.575983 0.0529915 0.
0.577984 0.0529907 0.
0.579986 0.05299 0.
0.581988 0.0529893 0.
0.58399 0.0529886 0.
0.585991 0.0529881 0.
0.587993 0.0529876 0.
0.589994 0.0529874 0.
0.591995 0.0529875 0.
0.593996 0.0529875 0.
0.595997 0.0529873 0.
0.597999 0.0529869 0.
0.6 0.0529866 0.
0.602002 0.052986 0.
0.604003 0.0529855 0.
0.606005 0.0529852 0.
0.608006 0.0529856 0.
0.610007 0.0529859 0.
0.612009 0.0529864 0.
0.61401 0.052987 0.
0.616012 0.0529875 0.
0.618013 0.0529887 0.
0.620014 0.0529901 0.
0.622015 0.0529916 0.
0.624017 0.0529924 0.
0.626019 0.0529932 0.
0.628021 0.0529941 0.
0.630022 0.0529952 0.
0.632023 0.0529963 0.
0.634025 0.0529972 0.
0.636026 0.0529977 0.
0.638027 0.0529981 0.
0.640028 0.0529991 0.
0.642029 0.0530006 0.
0.64403 0.053002 0.
0.646031 0.0530031 0.
0.648032 0.0530039 0.
0.650033 0.0530049 0.
0.652035 0.0530058 0.
0.654036 0.0530068 0.
0.656037 0.0530077 0.
0.658038 0.0530081 0.
0.660039 0.0530085 0.
0.66204 0.0530089 0.
0.664042 0.0530095 0.
0.666043 0.05301 0.
0.668044 0.0530105 0.
0.670045 0.053011 0.
0.672046 0.0530114 0.
0.674046 0.053012 0.
0.676047 0.0530127 0.
0.678047 0.0530133 0.
0.680047 0.0530143 0.
0.682048 0.0530153 0.
0.684048 0.053016 0.
0.686049 0.0530164 0.
0.688049 0.0530168 0.
0.69005 0.0530175 0.
0.692051 0.0530186 0.
0.694051 0.0530196 0.
0.696052 0.053022 0.
0.698052 0.0530247 0.
0.499949 0.0550245 0.
0.501949 0.0550229 0.
0.503949 0.0550215 0.
0.505949 0.0550203 0.
0.50795 0.0550195 0.
0.509951 0.0550186 0.
0.511952 0.0550174 0.
0.513953 0.0550158 0.
0.515954 0.0550141 0.
0.517955 0.055013 0.
0.519955 0.055012 0.
0.521955 0.0550111 0.
0.523955 0.0550103 0.
0.525956 0.0550096 0.
0.527957 0.0550089 0.
0.529958 0.0550086 0.
0.531959 0.0550083 0.
0.53396 0.0550077 0.
0.535961 0.0550062 0.
0.537961 0.0550048 0.
0.539962 0.0550039 0.
0.541964 0.0550035 0.
0.543965 0.055003 0.
0.545965 0.0550029 0.
0.547965 0.0550029 0.
0.549966 0.0550028 0.
0.551967 0.0550013 0.
0.553969 0.0549998 0.
0.55597 0.0549985 0.
0.557973 0.0549981 0.
0.559975 0.0549977 0.
0.561976 0.0549972 0.
0.563977 0.0549967 0.
0.565978 0.0549962 0.
0.567979 0.054995 0.
0.56998 0.0549936 0.
0.571981 0.0549922 0.
0.573982 0.0549913 0.
0.575983 0.0549904 0.
0.577985 0.0549896 0.
0.579986 0.054989 0.
0.581988 0.0549885 0.
0.583989 0.054988 0.
0.585991 0.0549875 0.
0.587992 0.054987 0.
0.589994 0.054987 0.
0.591995 0.0549872 0.
0.593996 0.0549874 0.
0.595998 0.0549868 0.
0.597999 0.0549861 0.
0.600001 0.0549853 0.
0.602002 0.0549851 0.
0.604002 0.054985 0.
0.606003 0.054985 0.
0.608005 0.0549852 0.
0.610007 0.0549854 0.
0.612008 0.0549857 0.
0.614009 0.0549864 0.
0.616011 0.054987 0.
0.618012 0.0549881 0.
0.620013 0.0549893 0.
0.622014 0.0549906 0.
0.624016 0.0549916 0.
0.626019 0.0549925 0.
0.628021 0.0549934 0.
0.630022 0.0549943 0.
0.632023 0.0549952 0.
0.634024 0.0549961 0.
0.636025 0.0549968 0.
0.638026 0.0549975 0.
0.640027 0.0549986 0.
0.642028 0.0550001 0.
0.64403 0.0550015 0.
0.64603 0.0550025 0.
0.648031 0.0550034 0.
0.650032 0.0550043 0.
0.652033 0.0550052 0.
0.654035 0.0550061 0.
0.656036 0.0550069 0.
0.658037 0.0550075 0.
0.660038 0.055008 0.
0.662039 0.0550086 0.
0.664041 0.0550092 0.
0.666042 0.0550099 0.
0.668044 0.0550105 0.
0.670045 0.055011 0.
0.672046 0.0550116 0.
0.674046 0.0550121 0.
0.676045 0.0550126 0.
0.678045 0.0550131 0.
0.680046 0.0550145 0.
0.682046 0.055016 0.
0.684047 0.055017 0.
0.686048 0.0550171 0.
0.688048 0.0550172 0.
0.690049 0.0550179 0.
0.692049 0.0550191 0.
0.69405 0.0550203 0.
0.69605 0.0550226 0.
0.698051 0.0550252 0.
0.49995 0.0570249 0.
0.50195 0.0570233 0.
0.503951 0.0570217 0.
0.505951 0.0570204 0.
0.507952 0.0570194 0.
0.509953 0.0570184 0.
0.511954 0.0570172 0.
0.513954 0.0570155 0.
0.515955 0.0570138 0.
0.517956 0.0570127 0.
0.519956 0.0570121 0.
0.521956 0.0570114 0.
0.523957 0.0570106 0.
0.525958 0.0570096 0.
0.527959 0.0570088 0.
0.52996 0.0570082 0.
0.531961 0.0570077 0.
0.533962 0.0570069 0.
0.535962 0.0570054 0.
0.537962 0.057004 0.
0.539963 0.0570032 0.
0.541965 0.057003 0.
0.543966 0.0570027 0.
0.545967 0.0570026 0.
0.547967 0.0570025 0.
0.549967 0.0570024 0.
0.551968 0.057001 0.
0.55397 0.0569996 0.
0.555971 0.0569983 0.
0.557973 0.0569976 0.
0.559975 0.0569968 0.
0.561976 0.0569962 0.
0.563977 0.0569956 0.
0.565978 0.0569951 0.
0.567979 0.056994 0.
0.56998 0.0569927 0.
0.571982 0.0569914 0.
0.573983 0.0569905 0.
0.575984 0.0569898 0.
0.577986 0.056989 0.
0.579987 0.0569885 0.
0.581988 0.0569879 0.
0.58399 0.0569873 0.
0.585992 0.0569867 0.
0.587993 0.056986 0.
0.589994 0.0569859 0.
0.591995 0.0569861 0.
0.593996 0.0569864 0.
0.595998 0.0569861 0.
0.598 0.0569857 0.
0.600001 0.0569852 0.
0.602002 0.0569848 0.
0.604003 0.0569844 0.
0.606004 0.0569842 0.
0.608005 0.0569843 0.
0.610007 0.0569844 0.
0.612008 0.0569847 0.
0.614009 0.0569854 0.
0.61601 0.056986 0.
0.618011 0.0569869 0.
0.620013 0.0569879 0.
0.622014 0.0569889 0.
0.624016 0.05699 0.
0.626018 0.0569912 0.
0.62802 0.0569923 0.
0.630021 0.0569935 0.
0.632022 0.0569947 0.
0.634023 0.0569957 0.
0.636024 0.0569963 0.
0.638025 0.056997 0.
0.640026 0.056998 0.
0.642027 0.0569994 0.
0.644028 0.0570008 0.
0.646029 0.0570017 0.
0.648029 0.0570024 0.
0.65003 0.0570031 0.
0.652032 0.0570039 0.
0.654033 0.0570046 0.
0.656034 0.0570054 0.
0.658035 0.0570062 0.
0.660036 0.0570071 0.
0.662037 0.0570079 0.
0.664039 0.0570085 0.
0.666041 0.0570091 0.
0.668042 0.0570098 0.
0.670043 0.0570106 0.
0.672044 0.0570113 0.
0.674044 0.057012 0.
0.676044 0.0570127 0.
0.678044 0.0570134 0.
0.680045 0.0570148 0.
0.682045 0.0570162 0.
0.684046 0.0570172 0.
0.686047 0.0570174 0.
0.688047 0.0570176 0.
0.690048 0.0570185 0.
0.692048 0.0570199 0.
0.694048 0.0570212 0.
0.696049 0.0570232 0.
0.698049 0.0570254 0.
0.499951 0.0590254 0.
0.501952 0.0590237 0.
0.503952 0.059022 0.
0.505953 0.0590204 0.
0.507953 0.0590193 0.
0.509954 0.0590182 0.
0.511955 0.0590169 0.
0.513956 0.0590151 0.
0.515957 0.0590134 0.
0.517957 0.0590125 0.
0.519958 0.0590121 0.
0.521958 0.0590117 0.
0.523959 0.0590108 0.
0.52596 0.0590097 0.
0.527961 0.0590086 0.
0.529961 0.0590079 0.
0.531962 0.0590071 0.
0.533963 0.0590061 0.
0.535963 0.0590047 0.
0.537963 0.0590032 0.
0.539964 0.0590025 0.
0.541966 0.0590025 0.
0.543967 0.0590025 0.
0.545968 0.0590024 0.
0.547968 0.0590022 0.
0.549969 0.0590021 0.
0.55197 0.0590008 0.
0.553971 0.0589994 0.
0.555972 0.0589981 0.
0.557973 0.0589971 0.
0.559975 0.058996 0.
0.561976 0.0589951 0.
0.563977 0.0589945 0.
0.565978 0.0589939 0.
0.567979 0.0589929 0.
0.569981 0.0589917 0.
0.571982 0.0589905 0.
0.573984 0.0589898 0.
0.575985 0.0589891 0.
0.577986 0.0589885 0.
0.579988 0.0589879 0.
0.581989 0.0589873 0.
0.583991 0.0589866 0.
0.585992 0.0589858 0.
0.587994 0.058985 0.
0.589995 0.0589848 0.
0.591996 0.0589851 0.
0.593997 0.0589854 0.
0.595999 0.0589854 0.
0.598 0.0589853 0.
0.600002 0.0589852 0.
0.602003 0.0589845 0.
0.604004 0.0589838 0.
0.606004 0.0589833 0.
0.608005 0.0589834 0.
0.610006 0.0589834 0.
0.612007 0.0589837 0.
0.614008 0.0589843 0.
0.616009 0.058985 0.
0.618011 0.0589857 0.
0.620013 0.0589865 0.
0.622015 0.0589872 0.
0.624016 0.0589885 0.
0.626017 0.0589898 0.
0.628018 0.0589912 0.
0.63002 0.0589927 0.
0.632021 0.0589941 0.
0.634022 0.0589953 0.
0.636023 0.0589958 0.
0.638024 0.0589964 0.
0.640024 0.0589974 0.
0.642025 0.0589987 0.
0.644026 0.059 0.
0.646027 0.0590008 0.
0.648028 0.0590014 0.
0.650029 0.059002 0.
0.65203 0.0590026 0.
0.654031 0.0590031 0.
0.656032 0.0590039 0.
0.658033 0.059005 0.
0.660035 0.0590062 0.
0.662036 0.0590071 0.
0.664037 0.0590077 0.
0.666039 0.0590084 0.
0.66804 0.0590092 0.
0.670041 0.0590101 0.
0.672041 0.059011 0.
0.674042 0.0590119 0.
0.676042 0.0590128 0.
0.678043 0.0590138 0.
0.680044 0.0590151 0.
0.682044 0.0590164 0.
0.684045 0.0590174 0.
0.686045 0.0590177 0.
0.688046 0.0590181 0.
0.690046 0.0590191 0.
0.692047 0.0590206 0.
0.694047 0.0590222 0.
0.696048 0.0590238 0.
0.698048 0.0590255 0.
0.499953 0.0610254 0.
0.501953 0.0610238 0.
0.503954 0.0610221 0.
0.505955 0.0610205 0.
0.507955 0.0610192 0.
0.509956 0.0610179 0.
0.511956 0.0610165 0.
0.513957 0.0610149 0.
0.515958 0.0610133 0.
0.517958 0.0610126 0.
0.519959 0.0610123 0.
0.521959 0.061012 0.
0.52396 0.0610109 0.
0.525961 0.0610097 0.
0.527962 0.0610085 0.
0.529963 0.0610076 0.
0.531963 0.0610066 0.
0.533964 0.0610056 0.
0.535964 0.0610041 0.
0.537965 0.0610027 0.
0.539965 0.0610022 0.
0.541967 0.0610022 0.
0.543968 0.0610023 0.
0.545969 0.0610021 0.
0.547969 0.0610018 0.
0.54997 0.0610016 0.
0.551971 0.0610002 0.
0.553972 0.0609988 0.
0.555973 0.0609975 0.
0.557974 0.0609963 0.
0.559975 0.0609952 0.
0.561976 0.0609943 0.
0.563977 0.0609936 0.
0.565978 0.060993 0.
0.56798 0.060992 0.
0.569981 0.0609909 0.
0.571982 0.0609897 0.
0.573984 0.0609891 0.
0.575986 0.0609885 0.
0.577987 0.0609879 0.
0.579988 0.0609873 0.
0.58199 0.0609867 0.
0.583991 0.060986 0.
0.585993 0.060985 0.
0.587994 0.0609841 0.
0.589995 0.0609838 0.
0.591996 0.0609841 0.
0.593997 0.0609843 0.
0.595999 0.0609844 0.
0.598 0.0609845 0.
0.600002 0.0609846 0.
0.602003 0.0609839 0.
0.604004 0.0609832 0.
0.606005 0.0609826 0.
0.608005 0.0609826 0.
0.610006 0.0609826 0.
0.612007 0.0609828 0.
0.614008 0.0609834 0.
0.616009 0.060984 0.
0.61801 0.0609846 0.
0.620012 0.0609854 0.
0.622014 0.0609861 0.
0.624015 0.0609875 0.
0.626016 0.0609891 0.
0.628017 0.0609906 0.
0.630018 0.060992 0.
0.63202 0.0609935 0.
0.634021 0.0609947 0.
0.636022 0.0609954 0.
0.638023 0.0609962 0.
0.640023 0.0609972 0.
0.642024 0.0609983 0.
0.644025 0.0609995 0.
0.646026 0.0610001 0.
0.648027 0.0610007 0.
0.650028 0.0610012 0.
0.652029 0.0610017 0.
0.654029 0.0610021 0.
0.65603 0.0610028 0.
0.658032 0.0610041 0.
0.660033 0.0610053 0.
0.662035 0.0610064 0.
0.664036 0.0610072 0.
0.666037 0.0610079 0.
0.668038 0.0610089 0.
0.670039 0.0610098 0.
0.672039 0.0610108 0.
0.67404 0.0610118 0.
0.676041 0.0610129 0.
0.678042 0.061014 0.
0.680042 0.0610153 0.
0.682043 0.0610165 0.
0.684044 0.0610174 0.
0.686044 0.061018 0.
0.688045 0.0610185 0.
0.690045 0.0610197 0.
0.692045 0.0610214 0.
0.694046 0.0610231 0.
0.696046 0.0610247 0.
0.698046 0.0610261 0.
0.499955 0.0630252 0.
0.501956 0.0630236 0.
0.503957 0.0630221 0.
0.505957 0.0630207 0.
0.507958 0.0630191 0.
0.509958 0.0630175 0.
0.511958 0.063016 0.
0.513959 0.0630148 0.
0.515959 0.0630135 0.
0.517959 0.0630129 0.
0.51996 0.0630125 0.
0.52196 0.0630122 0.
0.523961 0.063011 0.
0.525962 0.0630097 0.
0.527963 0.0630085 0.
0.529963 0.0630074 0.
0.531964 0.0630063 0.
0.533965 0.0630052 0.
0.535966 0.0630039 0.
0.537966 0.0630026 0.
0.539967 0.063002 0.
0.541968 0.0630021 0.
0.543968 0.0630022 0.
0.545969 0.0630018 0.
0.54797 0.0630013 0.
0.549971 0.0630009 0.
0.551972 0.0629994 0.
0.553973 0.0629978 0.
0.555974 0.0629964 0.
0.557975 0.0629954 0.
0.559976 0.0629944 0.
0.561977 0.0629936 0.
0.563978 0.0629929 0.
0.565979 0.0629923 0.
0.56798 0.0629912 0.
0.569981 0.0629901 0.
0.571983 0.0629889 0.
0.573984 0.0629883 0.
0.575986 0.0629879 0.
0.577987 0.0629874 0.
0.579989 0.0629867 0.
0.58199 0.0629861 0.
0.583992 0.0629853 0.
0.585993 0.0629843 0.
0.587994 0.0629834 0.
0.589995 0.062983 0.
0.591996 0.062983 0.
0.593997 0.0629831 0.
0.595998 0.0629832 0.
0.598 0.0629833 0.
0.600001 0.0629834 0.
0.602003 0.0629829 0.
0.604004 0.0629824 0.
0.606005 0.062982 0.
0.608006 0.062982 0.
0.610007 0.062982 0.
0.612007 0.0629822 0.
0.614008 0.0629826 0.
0.616009 0.062983 0.
0.618011 0.0629838 0.
0.620012 0.0629847 0.
0.622013 0.0629855 0.
0.624014 0.0629872 0.
0.626015 0.0629889 0.
0.628016 0.0629905 0.
0.630017 0.0629916 0.
0.632019 0.0629927 0.
0.63402 0.0629938 0.
0.636021 0.0629951 0.
0.638022 0.0629963 0.
0.640023 0.0629973 0.
0.642024 0.0629983 0.
0.644024 0.0629992 0.
0.646025 0.0629998 0.
0.648026 0.0630003 0.
0.650027 0.0630007 0.
0.652028 0.0630012 0.
0.654029 0.0630016 0.
0.65603 0.0630022 0.
0.658031 0.0630033 0.
0.660032 0.0630044 0.
0.662034 0.0630055 0.
0.664035 0.0630067 0.
0.666036 0.0630079 0.
0.668036 0.0630088 0.
0.670037 0.0630097 0.
0.672038 0.0630106 0.
0.674038 0.0630118 0.
0.676039 0.063013 0.
0.67804 0.0630142 0.
0.680041 0.0630153 0.
0.682042 0.0630164 0.
0.684042 0.0630174 0.
0.686043 0.0630182 0.
0.688043 0.063019 0.
0.690043 0.0630204 0.
0.692044 0.0630223 0.
0.694044 0.0630241 0.
0.696044 0.0630257 0.
0.698044 0.0630272 0.
0.499957 0.0650246 0.
0.501958 0.0650234 0.
0.503959 0.0650222 0.
0.50596 0.0650209 0.
0.50796 0.065019 0.
0.50996 0.0650171 0.
0.51196 0.0650156 0.
0.51396 0.0650147 0.
0.51596 0.0650137 0.
0.517961 0.0650132 0.
0.519961 0.0650128 0.
0.521961 0.0650124 0.
0.523962 0.0650112 0.
0.525963 0.0650098 0.
0.527963 0.0650084 0.
0.529964 0.0650072 0.
0.531965 0.065006 0.
0.533966 0.0650048 0.
0.535967 0.0650036 0.
0.537968 0.0650024 0.
0.539969 0.0650019 0.
0.541969 0.065002 0.
0.543968 0.0650021 0.
0.545969 0.0650016 0.
0.547971 0.0650009 0.
0.549972 0.0650001 0.
0.551973 0.0649985 0.
0.553974 0.0649968 0.
0.555976 0.0649953 0.
0.557977 0.0649944 0.
0.559978 0.0649936 0.
0.561978 0.0649928 0.
0.563979 0.0649922 0.
0.56598 0.0649915 0.
0.567981 0.0649905 0.
0.569982 0.0649893 0.
0.571983 0.0649881 0.
0.573984 0.0649876 0.
0.575986 0.0649872 0.
0.577988 0.0649868 0.
0.579989 0.0649861 0.
0.581991 0.0649855 0.
0.583992 0.0649847 0.
0.585993 0.0649837 0.
0.587995 0.0649826 0.
0.589996 0.0649821 0.
0.591996 0.064982 0.
0.593997 0.0649819 0.
0.595998 0.064982 0.
0.597999 0.0649821 0.
0.600001 0.0649823 0.
0.602002 0.0649819 0.
0.604004 0.0649816 0.
0.606005 0.0649813 0.
0.608006 0.0649814 0.
0.610007 0.0649814 0.
0.612008 0.0649816 0.
0.614009 0.0649818 0.
0.61601 0.0649821 0.
0.618011 0.0649829 0.
0.620011 0.0649839 0.
0.622012 0.064985 0.
0.624013 0.0649868 0.
0.626014 0.0649887 0.
0.628015 0.0649904 0.
0.630016 0.0649912 0.
0.632018 0.0649919 0.
0.634019 0.064993 0.
0.63602 0.0649947 0.
0.638021 0.0649964 0.
0.640022 0.0649975 0.
0.642023 0.0649982 0.
0.644024 0.064999 0.
0.646024 0.0649995 0.
0.648025 0.0649999 0.
0.650026 0.0650003 0.
0.652027 0.0650007 0.
0.654029 0.065001 0.
0.65603 0.0650015 0.
0.658031 0.0650025 0.
0.660031 0.0650035 0.
0.662032 0.0650047 0.
0.664033 0.0650062 0.
0.666034 0.0650078 0.
0.668035 0.0650088 0.
0.670035 0.0650096 0.
0.672036 0.0650104 0.
0.674037 0.0650117 0.
0.676037 0.0650131 0.
0.678038 0.0650144 0.
0.680039 0.0650154 0.
0.68204 0.0650164 0.
0.684041 0.0650174 0.
0.686042 0.0650184 0.
0.688042 0.0650195 0.
0.690042 0.0650211 0.
0.692042 0.0650231 0.
0.694042 0.0650251 0.
0.696042 0.0650267 0.
0.698042 0.0650283 0.
0.499958 0.067025 0.
0.501959 0.0670236 0.
0.50396 0.0670223 0.
0.505961 0.0670209 0.
0.507961 0.0670192 0.
0.509961 0.0670175 0.
0.511962 0.067016 0.
0.513962 0.067015 0.
0.515962 0.0670139 0.
0.517962 0.0670131 0.
0.519963 0.0670125 0.
0.521963 0.0670119 0.
0.523964 0.0670108 0.
0.525965 0.0670096 0.
0.527966 0.0670084 0.
0.529966 0.0670072 0.
0.531967 0.0670061 0.
0.533967 0.0670049 0.
0.535968 0.0670037 0.
0.537969 0.0670025 0.
0.539969 0.0670019 0.
0.54197 0.0670017 0.
0.54397 0.0670016 0.
0.545971 0.067001 0.
0.547972 0.0670003 0.
0.549973 0.0669996 0.
0.551974 0.066998 0.
0.553976 0.0669965 0.
0.555977 0.066995 0.
0.557978 0.066994 0.
0.559979 0.0669931 0.
0.56198 0.0669921 0.
0.563981 0.0669912 0.
0.565982 0.0669903 0.
0.567983 0.0669893 0.
0.569984 0.0669883 0.
0.571985 0.0669873 0.
0.573986 0.066987 0.
0.575987 0.0669867 0.
0.577988 0.0669864 0.
0.57999 0.0669856 0.
0.581991 0.0669849 0.
0.583993 0.066984 0.
0.585994 0.066983 0.
0.587995 0.0669819 0.
0.589996 0.0669814 0.
0.591997 0.0669813 0.
0.593997 0.0669812 0.
0.595998 0.0669813 0.
0.598 0.0669814 0.
0.600001 0.0669814 0.
0.602002 0.0669814 0.
0.604003 0.0669813 0.
0.606005 0.0669813 0.
0.608006 0.0669812 0.
0.610007 0.066981 0.
0.612008 0.066981 0.
0.614009 0.0669813 0.
0.61601 0.0669816 0.
0.618011 0.0669823 0.
0.620011 0.0669831 0.
0.622012 0.0669839 0.
0.624013 0.0669859 0.
0.626013 0.0669881 0.
0.628014 0.0669901 0.
0.630015 0.0669907 0.
0.632017 0.0669913 0.
0.634018 0.0669922 0.
0.636019 0.0669938 0.
0.63802 0.0669954 0.
0.640021 0.0669966 0.
0.642022 0.0669975 0.
0.644023 0.0669984 0.
0.646024 0.066999 0.
0.648025 0.0669995 0.
0.650026 0.067 0.
0.652027 0.0670004 0.
0.654028 0.0670008 0.
0.656028 0.0670013 0.
0.658029 0.0670024 0.
0.66003 0.0670035 0.
0.662031 0.0670047 0.
0.664032 0.0670058 0.
0.666032 0.067007 0.
0.668033 0.0670079 0.
0.670034 0.0670088 0.
0.672035 0.0670096 0.
0.674035 0.0670109 0.
0.676036 0.0670122 0.
0.678037 0.0670135 0.
0.680037 0.0670146 0.
0.682038 0.0670158 0.
0.684039 0.067017 0.
0.686039 0.0670184 0.
0.688039 0.0670197 0.
0.690039 0.0670214 0.
0.69204 0.0670232 0.
0.69404 0.0670251 0.
0.69604 0.0670266 0.
0.698041 0.0670279 0.
0.499959 0.069025 0.
0.50196 0.0690237 0.
0.503961 0.0690224 0.
0.505962 0.069021 0.
0.507962 0.0690194 0.
0.509963 0.0690178 0.
0.511963 0.0690164 0.
0.513963 0.0690152 0.
0.515964 0.0690141 0.
0.517964 0.0690131 0.
0.519965 0.0690122 0.
0.521966 0.0690114 0.
0.523966 0.0690104 0.
0.525967 0.0690094 0.
0.527968 0.0690084 0.
0.529968 0.0690072 0.
0.531969 0.0690061 0.
0.533969 0.0690049 0.
0.535969 0.0690038 0.
0.537969 0.0690026 0.
0.53997 0.0690019 0.
0.54197 0.0690015 0.
0.543971 0.069001 0.
0.545972 0.0690004 0.
0.547973 0.0689997 0.
0.549974 0.068999 0.
0.551975 0.0689975 0.
0.553977 0.0689961 0.
0.555978 0.0689947 0.
0.557979 0.0689936 0.
0.55998 0.0689926 0.
0.561981 0.0689914 0.
0.563982 0.0689902 0.
0.565983 0.068989 0.
0.567984 0.0689881 0.
0.569986 0.0689873 0.
0.571987 0.0689865 0.
0.573987 0.0689863 0.
0.575988 0.0689862 0.
0.577989 0.068986 0.
0.57999 0.0689851 0.
0.581992 0.0689843 0.
0.583993 0.0689834 0.
0.585995 0.0689822 0.
0.587996 0.0689811 0.
0.589997 0.0689806 0.
0.591997 0.0689806 0.
0.593998 0.0689805 0.
0.595999 0.0689806 0.
0.598 0.0689806 0.
0.600001 0.0689806 0.
0.602002 0.0689809 0.
0.604003 0.0689811 0.
0.606004 0.0689812 0.
0.608005 0.0689809 0.
0.610007 0.0689806 0.
0.612008 0.0689805 0.
0.614009 0.0689809 0.
0.61601 0.0689812 0.
0.618011 0.0689817 0.
0.620011 0.0689822 0.
0.622012 0.0689828 0.
0.624012 0.068985 0.
0.626013 0.0689875 0.
0.628013 0.0689897 0.
0.630015 0.0689902 0.
0.632016 0.0689906 0.
0.634017 0.0689914 0.
0.636018 0.0689929 0.
0.638019 0.0689944 0.
0.64002 0.0689956 0.
0.642021 0.0689967 0.
0.644022 0.0689978 0.
0.646023 0.0689985 0.
0.648024 0.0689991 0.
0.650026 0.0689998 0.
0.652026 0.0690001 0.
0.654027 0.0690005 0.
0.656027 0.0690011 0.
0.658028 0.0690023 0.
0.660028 0.0690036 0.
0.662029 0.0690046 0.
0.66403 0.0690054 0.
0.666031 0.0690062 0.
0.668032 0.069007 0.
0.670033 0.069008 0.
0.672033 0.0690089 0.
0.674034 0.0690101 0.
0.676035 0.0690113 0.
0.678035 0.0690126 0.
0.680036 0.0690139 0.
0.682036 0.0690152 0.
0.684036 0.0690166 0.
0.686036 0.0690183 0.
0.688037 0.06902 0.
0.690037 0.0690217 0.
0.692037 0.0690234 0.
0.694038 0.0690251 0.
0.696039 0.0690264 0.
0.69804 0.0690276 0.
0.499961 0.0710249 0.
0.501962 0.0710237 0.
0.503963 0.0710224 0.
0.505963 0.0710211 0.
0.507964 0.0710195 0.
0.509964 0.071018 0.
0.511965 0.0710166 0.
0.513965 0.0710153 0.
0.515965 0.0710141 0.
0.517966 0.071013 0.
0.519967 0.071012 0.
0.521968 0.071011 0.
0.523968 0.07101 0.
0.525969 0.071009 0.
0.52797 0.071008 0.
0.52997 0.071007 0.
0.531971 0.0710061 0.
0.533971 0.0710051 0.
0.535971 0.0710039 0.
0.537971 0.0710027 0.
0.539971 0.0710018 0.
0.541972 0.0710012 0.
0.543973 0.0710006 0.
0.545973 0.0709998 0.
0.547974 0.0709989 0.
0.549975 0.0709979 0.
0.551976 0.0709966 0.
0.553978 0.0709952 0.
0.555979 0.0709939 0.
0.55798 0.0709929 0.
0.559982 0.0709919 0.
0.561983 0.0709907 0.
0.563984 0.0709893 0.
0.565984 0.0709878 0.
0.567986 0.070987 0.
0.569987 0.0709865 0.
0.571988 0.070986 0.
0.573988 0.0709858 0.
0.575989 0.0709855 0.
0.577989 0.0709853 0.
0.579991 0.0709843 0.
0.581992 0.0709834 0.
0.583994 0.0709825 0.
0.585995 0.0709816 0.
0.587997 0.0709806 0.
0.589997 0.0709802 0.
0.591998 0.0709802 0.
0.593998 0.0709801 0.
0.595999 0.07098 0.
0.598 0.0709799 0.
0.600001 0.0709798 0.
0.602002 0.0709802 0.
0.604003 0.0709806 0.
0.606004 0.0709809 0.
0.608005 0.0709805 0.
0.610006 0.0709801 0.
0.612008 0.0709801 0.
0.614009 0.0709803 0.
0.61601 0.0709806 0.
0.61801 0.0709811 0.
0.620011 0.0709818 0.
0.622012 0.0709824 0.
0.624012 0.0709846 0.
0.626012 0.0709869 0.
0.628013 0.070989 0.
0.630014 0.0709895 0.
0.632015 0.07099 0.
0.634016 0.0709908 0.
0.636017 0.0709921 0.
0.638017 0.0709933 0.
0.640018 0.0709945 0.
0.642019 0.0709957 0.
0.64402 0.0709968 0.
0.646022 0.0709977 0.
0.648023 0.0709985 0.
0.650025 0.0709993 0.
0.652025 0.0709998 0.
0.654026 0.0710004 0.
0.656026 0.0710011 0.
0.658026 0.0710024 0.
0.660027 0.0710036 0.
0.662027 0.0710046 0.
0.664029 0.0710053 0.
0.66603 0.0710059 0.
0.668031 0.0710068 0.
0.670031 0.0710077 0.
0.672032 0.0710087 0.
0.674033 0.0710099 0.
0.676033 0.0710112 0.
0.678034 0.0710125 0.
0.680034 0.0710138 0.
0.682034 0.0710152 0.
0.684034 0.0710166 0.
0.686035 0.0710185 0.
0.688035 0.0710203 0.
0.690035 0.0710219 0.
0.692036 0.0710234 0.
0.694036 0.0710248 0.
0.696037 0.0710261 0.
0.698038 0.0710273 0.
0.499964 0.0730248 0.
0.501964 0.0730235 0.
0.503965 0.0730224 0.
0.505965 0.0730212 0.
0.507966 0.0730196 0.
0.509966 0.0730179 0.
0.511967 0.0730165 0.
0.513967 0.0730152 0.
0.515967 0.0730139 0.
0.517968 0.0730128 0.
0.519969 0.0730117 0.
0.521969 0.0730106 0.
0.52397 0.0730095 0.
0.525971 0.0730083 0.
0.527971 0.0730072 0.
0.529972 0.0730066 0.
0.531972 0.073006 0.
0.533972 0.0730052 0.
0.535972 0.073004 0.
0.537973 0.0730027 0.
0.539973 0.0730018 0.
0.541974 0.0730011 0.
0.543974 0.0730003 0.
0.545975 0.0729992 0.
0.547976 0.0729978 0.
0.549976 0.0729964 0.
0.551978 0.0729951 0.
0.553979 0.0729938 0.
0.55598 0.0729926 0.
0.557982 0.0729918 0.
0.559983 0.0729911 0.
0.561984 0.0729899 0.
0.563985 0.0729883 0.
0.565985 0.0729867 0.
0.567986 0.0729861 0.
0.569987 0.0729859 0.
0.571988 0.0729858 0.
0.573989 0.0729853 0.
0.575989 0.0729848 0.
0.57799 0.0729842 0.
0.579992 0.0729832 0.
0.581993 0.0729822 0.
0.583994 0.0729814 0.
0.585995 0.0729809 0.
0.587996 0.0729805 0.
0.589997 0.0729802 0.
0.591998 0.07298 0.
0.593998 0.0729799 0.
0.595999 0.0729796 0.
0.598 0.0729794 0.
0.600001 0.0729791 0.
0.602002 0.0729795 0.
0.604004 0.0729799 0.
0.606005 0.0729802 0.
0.608006 0.0729799 0.
0.610007 0.0729797 0.
0.612007 0.0729796 0.
0.614008 0.0729798 0.
0.616009 0.0729799 0.
0.61801 0.0729807 0.
0.620011 0.0729817 0.
0.622011 0.0729828 0.
0.624012 0.0729845 0.
0.626013 0.0729864 0.
0.628013 0.072988 0.
0.630014 0.0729888 0.
0.632014 0.0729896 0.
0.634015 0.0729904 0.
0.636015 0.0729913 0.
0.638016 0.0729922 0.
0.640017 0.0729932 0.
0.642018 0.0729944 0.
0.644019 0.0729956 0.
0.64602 0.0729966 0.
0.648022 0.0729976 0.
0.650024 0.0729986 0.
0.652025 0.0729995 0.
0.654025 0.0730004 0.
0.656026 0.0730014 0.
0.658026 0.0730025 0.
0.660026 0.0730037 0.
0.662027 0.0730047 0.
0.664028 0.0730055 0.
0.666029 0.0730062 0.
0.66803 0.0730072 0.
0.67003 0.0730081 0.
0.672031 0.0730091 0.
0.674031 0.0730105 0.
0.676032 0.0730119 0.
0.678032 0.0730133 0.
0.680033 0.0730144 0.
0.682033 0.0730156 0.
0.684033 0.0730169 0.
0.686034 0.0730187 0.
0.688034 0.0730206 0.
0.690034 0.073022 0.
0.692035 0.0730233 0.
0.694035 0.0730245 0.
0.696035 0.0730257 0.
0.698035 0.073027 0.
0.499966 0.0750244 0.
0.501967 0.0750233 0.
0.503967 0.0750224 0.
0.505967 0.0750212 0.
0.507968 0.0750196 0.
0.509968 0.0750179 0.
0.511969 0.0750164 0.
0.513969 0.0750151 0.
0.515969 0.0750138 0.
0.51797 0.0750126 0.
0.51997 0.0750114 0.
0.521971 0.0750103 0.
0.523972 0.075009 0.
0.525972 0.0750077 0.
0.527973 0.0750065 0.
0.529973 0.0750063 0.
0.531974 0.075006 0.
0.533974 0.0750054 0.
0.535974 0.0750041 0.
0.537975 0.0750028 0.
0.539975 0.0750017 0.
0.541975 0.0750009 0.
0.543976 0.0750001 0.
0.545976 0.0749985 0.
0.547977 0.0749967 0.
0.549977 0.0749949 0.
0.551979 0.0749936 0.
0.55398 0.0749924 0.
0.555981 0.0749913 0.
0.557983 0.0749908 0.
0.559984 0.0749903 0.
0.561985 0.0749892 0.
0.563986 0.0749874 0.
0.565987 0.0749856 0.
0.567987 0.0749851 0.
0.569988 0.0749853 0.
0.571988 0.0749855 0.
0.573989 0.0749849 0.
0.57599 0.074984 0.
0.577991 0.0749832 0.
0.579992 0.0749821 0.
0.581994 0.074981 0.
0.583995 0.0749802 0.
0.585996 0.0749803 0.
0.587996 0.0749803 0.
0.589997 0.0749802 0.
0.591997 0.0749799 0.
0.593998 0.0749797 0.
0.595999 0.0749792 0.
0.598 0.0749788 0.
0.600001 0.0749784 0.
0.602003 0.0749788 0.
0.604004 0.0749791 0.
0.606006 0.0749794 0.
0.608006 0.0749793 0.
0.610007 0.0749793 0.
0.612007 0.0749792 0.
0.614008 0.0749792 0.
0.616009 0.0749792 0.
0.61801 0.0749802 0.
0.62001 0.0749817 0.
0.622011 0.0749832 0.
0.624012 0.0749845 0.
0.626013 0.0749858 0.
0.628013 0.0749871 0.
0.630013 0.0749881 0.
0.632013 0.0749891 0.
0.634013 0.07499 0.
0.636014 0.0749905 0.
0.638014 0.074991 0.
0.640015 0.074992 0.
0.642016 0.0749931 0.
0.644017 0.0749943 0.
0.646019 0.0749955 0.
0.648021 0.0749967 0.
0.650023 0.0749979 0.
0.652024 0.0749992 0.
0.654025 0.0750004 0.
0.656025 0.0750016 0.
0.658025 0.0750027 0.
0.660025 0.0750037 0.
0.662026 0.0750047 0.
0.664027 0.0750057 0.
0.666028 0.0750066 0.
0.668028 0.0750075 0.
0.670029 0.0750085 0.
0.67203 0.0750095 0.
0.67403 0.075011 0.
0.67603 0.0750126 0.
0.678031 0.075014 0.
0.680031 0.075015 0.
0.682032 0.075016 0.
0.684032 0.0750172 0.
0.686033 0.075019 0.
0.688033 0.0750208 0.
0.690034 0.0750222 0.
0.692033 0.0750231 0.
0.694033 0.0750241 0.
0.696033 0.0750254 0.
0.698033 0.0750267 0.
0.499968 0.0770244 0.
0.501968 0.0770232 0.
0.503969 0.0770219 0.
0.505969 0.0770207 0.
0.507969 0.0770193 0.
0.50997 0.0770179 0.
0.51197 0.0770165 0.
0.513971 0.0770151 0.
0.515971 0.0770137 0.
0.517972 0.0770124 0.
0.519972 0.0770113 0.
0.521973 0.0770101 0.
0.523973 0.0770089 0.
0.525973 0.0770076 0.
0.527974 0.0770064 0.
0.529974 0.0770062 0.
0.531975 0.0770059 0.
0.533975 0.0770053 0.
0.535975 0.0770039 0.
0.537976 0.0770025 0.
0.539976 0.0770014 0.
0.541977 0.0770007 0.
0.543977 0.0769999 0.
0.545978 0.0769984 0.
0.547979 0.0769966 0.
0.549979 0.0769948 0.
0.551981 0.0769935 0.
0.553982 0.0769922 0.
0.555983 0.076991 0.
0.557984 0.0769902 0.
0.559985 0.0769894 0.
0.561986 0.0769883 0.
0.563987 0.0769869 0.
0.565987 0.0769855 0.
0.567988 0.076985 0.
0.569988 0.076985 0.
0.571989 0.0769849 0.
0.57399 0.0769842 0.
0.575991 0.0769834 0.
0.577991 0.0769825 0.
0.579993 0.0769816 0.
0.581994 0.0769807 0.
0.583995 0.07698 0.
0.585996 0.0769798 0.
0.587997 0.0769797 0.
0.589997 0.0769794 0.
0.591998 0.0769791 0.
0.593998 0.0769788 0.
0.595999 0.0769785 0.
0.598 0.0769783 0.
0.600001 0.0769781 0.
0.602002 0.0769782 0.
0.604004 0.0769784 0.
0.606005 0.0769785 0.
0.608006 0.0769786 0.
0.610006 0.0769787 0.
0.612007 0.0769787 0.
0.614007 0.0769787 0.
0.616008 0.0769786 0.
0.618008 0.0769795 0.
0.620009 0.076981 0.
0.622009 0.0769825 0.
0.62401 0.0769837 0.
0.626011 0.0769848 0.
0.628012 0.076986 0.
0.630013 0.0769871 0.
0.632013 0.0769883 0.
0.634013 0.0769892 0.
0.636014 0.0769897 0.
0.638014 0.0769902 0.
0.640015 0.0769911 0.
0.642016 0.0769922 0.
0.644017 0.0769933 0.
0.646018 0.0769945 0.
0.648019 0.0769957 0.
0.650021 0.0769969 0.
0.652021 0.0769983 0.
0.654022 0.0769997 0.
0.656023 0.0770011 0.
0.658023 0.0770023 0.
0.660024 0.0770035 0.
0.662025 0.0770046 0.
0.664025 0.0770056 0.
0.666026 0.0770066 0.
0.668027 0.0770075 0.
0.670028 0.0770083 0.
0.672028 0.0770092 0.
0.674029 0.0770107 0.
0.676029 0.0770122 0.
0.67803 0.0770136 0.
0.68003 0.0770149 0.
0.682031 0.0770162 0.
0.684031 0.0770175 0.
0.686031 0.0770189 0.
0.688032 0.0770204 0.
0.690032 0.0770218 0.
0.692032 0.0770231 0.
0.694032 0.0770245 0.
0.696032 0.0770256 0.
0.698032 0.0770266 0.
0.49997 0.0790243 0.
0.50197 0.079023 0.
0.50397 0.0790215 0.
0.505971 0.0790201 0.
0.507971 0.079019 0.
0.509971 0.0790179 0.
0.511972 0.0790167 0.
0.513973 0.0790151 0.
0.515973 0.0790135 0.
0.517974 0.0790122 0.
0.519974 0.0790111 0.
0.521974 0.0790099 0.
0.523974 0.0790087 0.
0.525975 0.0790074 0.
0.527975 0.0790063 0.
0.529975 0.0790061 0.
0.531975 0.0790058 0.
0.533976 0.0790052 0.
0.535977 0.0790037 0.
0.537977 0.0790022 0.
0.539978 0.0790011 0.
0.541979 0.0790004 0.
0.543979 0.0789997 0.
0.54598 0.0789982 0.
0.547981 0.0789964 0.
0.549982 0.0789947 0.
0.551982 0.0789934 0.
0.553983 0.0789921 0.
0.555984 0.0789908 0.
0.557985 0.0789897 0.
0.559986 0.0789886 0.
0.561986 0.0789875 0.
0.563987 0.0789865 0.
0.565988 0.0789855 0.
0.567988 0.0789849 0.
0.569989 0.0789846 0.
0.571989 0.0789843 0.
0.57399 0.0789836 0.
0.575991 0.0789827 0.
0.577992 0.0789819 0.
0.579993 0.0789811 0.
0.581994 0.0789804 0.
0.583995 0.0789798 0.
0.585996 0.0789794 0.
0.587997 0.078979 0.
0.589997 0.0789787 0.
0.591998 0.0789783 0.
0.593998 0.0789779 0.
0.595999 0.0789778 0.
0.598 0.0789778 0.
0.6 0.0789778 0.
0.602002 0.0789777 0.
0.604003 0.0789776 0.
0.606005 0.0789776 0.
0.608005 0.0789779 0.
0.610006 0.0789782 0.
0.612006 0.0789782 0.
0.614006 0.0789781 0.
0.616006 0.0789779 0.
0.618007 0.0789789 0.
0.620007 0.0789804 0.
0.622008 0.0789818 0.
0.624009 0.0789829 0.
0.62601 0.0789839 0.
0.628012 0.0789849 0.
0.630012 0.0789862 0.
0.632013 0.0789874 0.
0.634013 0.0789884 0.
0.636014 0.0789889 0.
0.638014 0.0789894 0.
0.640015 0.0789902 0.
0.642015 0.0789912 0.
0.644016 0.0789923 0.
0.646017 0.0789934 0.
0.648018 0.0789946 0.
0.650018 0.0789958 0.
0.652019 0.0789974 0.
0.65402 0.078999 0.
0.656021 0.0790005 0.
0.658022 0.0790019 0.
0.660022 0.0790032 0.
0.662023 0.0790045 0.
0.664024 0.0790055 0.
0.666025 0.0790065 0.
0.668025 0.0790074 0.
0.670026 0.0790082 0.
0.672027 0.0790089 0.
0.674027 0.0790103 0.
0.676028 0.0790118 0.
0.678029 0.0790132 0.
0.680029 0.0790148 0.
0.68203 0.0790163 0.
0.68403 0.0790177 0.
0.68603 0.0790188 0.
0.68803 0.0790199 0.
0.69003 0.0790214 0.
0.69203 0.0790231 0.
0.694031 0.0790249 0.
0.696031 0.0790258 0.
0.698031 0.0790264 0.
0.499973 0.0810245 0.
0.501973 0.081023 0.
0.503973 0.0810213 0.
0.505973 0.0810198 0.
0.507973 0.0810187 0.
0.509973 0.0810176 0.
0.511974 0.0810164 0.
0.513974 0.0810149 0.
0.515975 0.0810135 0.
0.517975 0.0810122 0.
0.519975 0.0810111 0.
0.521975 0.0810099 0.
0.523975 0.0810087 0.
0.525976 0.0810074 0.
0.527976 0.0810061 0.
0.529976 0.0810058 0.
0.531977 0.0810055 0.
0.533977 0.0810049 0.
0.535978 0.0810035 0.
0.537979 0.081002 0.
0.539979 0.0810009 0.
0.54198 0.081 0.
0.543981 0.0809992 0.
0.545982 0.0809977 0.
0.547982 0.0809961 0.
0.549983 0.0809944 0.
0.551984 0.0809931 0.
0.553985 0.0809918 0.
0.555985 0.0809905 0.
0.557986 0.0809893 0.
0.559986 0.0809881 0.
0.561987 0.080987 0.
0.563988 0.0809862 0.
0.565988 0.0809853 0.
0.567989 0.0809847 0.
0.569989 0.0809844 0.
0.571989 0.0809841 0.
0.57399 0.0809832 0.
0.575991 0.0809823 0.
0.577992 0.0809814 0.
0.579993 0.0809807 0.
0.581994 0.0809799 0.
0.583995 0.0809793 0.
0.585996 0.0809788 0.
0.587997 0.0809784 0.
0.589997 0.080978 0.
0.591998 0.0809775 0.
0.593998 0.0809771 0.
0.595999 0.0809772 0.
0.598 0.0809774 0.
0.6 0.0809776 0.
0.602002 0.0809774 0.
0.604003 0.0809772 0.
0.606004 0.0809772 0.
0.608005 0.0809774 0.
0.610005 0.0809777 0.
0.612006 0.0809778 0.
0.614006 0.0809776 0.
0.616006 0.0809775 0.
0.618006 0.0809784 0.
0.620007 0.0809798 0.
0.622007 0.0809813 0.
0.624008 0.0809821 0.
0.62601 0.0809829 0.
0.628011 0.0809838 0.
0.630011 0.0809852 0.
0.632012 0.0809866 0.
0.634013 0.0809877 0.
0.636013 0.0809882 0.
0.638014 0.0809888 0.
0.640015 0.0809896 0.
0.642015 0.0809905 0.
0.644015 0.0809915 0.
0.646016 0.0809927 0.
0.648016 0.080994 0.
0.650017 0.0809953 0.
0.652017 0.0809969 0.
0.654018 0.0809985 0.
0.656019 0.081 0.
0.65802 0.0810013 0.
0.660021 0.0810027 0.
0.662022 0.081004 0.
0.664023 0.0810051 0.
0.666023 0.0810063 0.
0.668024 0.0810072 0.
0.670025 0.0810081 0.
0.672025 0.0810089 0.
0.674026 0.0810102 0.
0.676027 0.0810115 0.
0.678027 0.0810128 0.
0.680028 0.0810146 0.
0.682028 0.0810163 0.
0.684028 0.0810178 0.
0.686028 0.0810189 0.
0.688028 0.0810199 0.
0.690029 0.0810214 0.
0.692029 0.0810232 0.
0.694029 0.0810251 0.
0.696029 0.0810258 0.
0.69803 0.0810262 0.
0.499976 0.0830249 0.
0.501975 0.0830231 0.
0.503975 0.0830214 0.
0.505975 0.0830197 0.
0.507975 0.0830183 0.
0.509976 0.083017 0.
0.511976 0.0830158 0.
0.513976 0.0830147 0.
0.515976 0.0830135 0.
0.517977 0.0830124 0.
0.519977 0.0830113 0.
0.521977 0.0830102 0.
0.523977 0.0830088 0.
0.525977 0.0830073 0.
0.527978 0.0830059 0.
0.529978 0.0830054 0.
0.531978 0.083005 0.
0.533979 0.0830043 0.
0.535979 0.0830031 0.
0.53798 0.0830019 0.
0.539981 0.0830007 0.
0.541982 0.0829994 0.
0.543983 0.0829982 0.
0.545983 0.0829968 0.
0.547984 0.0829955 0.
0.549984 0.0829941 0.
0.551985 0.0829927 0.
0.553986 0.0829913 0.
0.555986 0.08299 0.
0.557987 0.082989 0.
0.559987 0.0829879 0.
0.561988 0.0829869 0.
0.563988 0.0829859 0.
0.565988 0.0829849 0.
0.567989 0.0829845 0.
0.56999 0.0829843 0.
0.57199 0.0829842 0.
0.573991 0.0829832 0.
0.575991 0.0829821 0.
0.577992 0.0829811 0.
0.579993 0.0829802 0.
0.581994 0.0829793 0.
0.583995 0.0829785 0.
0.585995 0.0829781 0.
0.587996 0.0829777 0.
0.589997 0.0829773 0.
0.591997 0.0829767 0.
0.593998 0.0829762 0.
0.595999 0.0829765 0.
0.598 0.082977 0.
0.600001 0.0829776 0.
0.602002 0.0829774 0.
0.604003 0.0829772 0.
0.606004 0.0829771 0.
0.608004 0.0829772 0.
0.610004 0.0829773 0.
0.612005 0.0829773 0.
0.614005 0.0829772 0.
0.616006 0.0829771 0.
0.618006 0.082978 0.
0.620007 0.0829794 0.
0.622007 0.0829808 0.
0.624008 0.0829814 0.
0.626009 0.0829819 0.
0.62801 0.0829826 0.
0.630011 0.0829841 0.
0.632011 0.0829856 0.
0.634012 0.0829868 0.
0.636013 0.0829876 0.
0.638014 0.0829883 0.
0.640014 0.0829891 0.
0.642014 0.0829901 0.
0.644015 0.082991 0.
0.646015 0.0829924 0.
0.648015 0.0829939 0.
0.650015 0.0829954 0.
0.652016 0.0829968 0.
0.654017 0.0829982 0.
0.656018 0.0829996 0.
0.658019 0.0830007 0.
0.66002 0.0830019 0.
0.662021 0.0830031 0.
0.664021 0.0830045 0.
0.666022 0.0830059 0.
0.668023 0.083007 0.
0.670023 0.083008 0.
0.672023 0.0830091 0.
0.674024 0.0830101 0.
0.676025 0.0830112 0.
0.678026 0.0830123 0.
0.680026 0.0830142 0.
0.682026 0.0830161 0.
0.684026 0.0830178 0.
0.686026 0.0830191 0.
0.688026 0.0830203 0.
0.690027 0.0830218 0.
0.692027 0.0830234 0.
0.694028 0.0830251 0.
0.696028 0.0830257 0.
0.698029 0.083026 0.
0.499979 0.0850256 0.
0.501978 0.0850233 0.
0.503978 0.0850214 0.
0.505978 0.0850195 0.
0.507978 0.085018 0.
0.509978 0.0850164 0.
0.511978 0.0850152 0.
0.513978 0.0850144 0.
0.515978 0.0850136 0.
0.517978 0.0850126 0.
0.519978 0.0850116 0.
0.521978 0.0850105 0.
0.523979 0.0850089 0.
0.525979 0.0850072 0.
0.527979 0.0850056 0.
0.52998 0.0850051 0.
0.53198 0.0850045 0.
0.53398 0.0850038 0.
0.535981 0.0850028 0.
0.537981 0.0850018 0.
0.539982 0.0850005 0.
0.541983 0.0849989 0.
0.543984 0.0849972 0.
0.545984 0.084996 0.
0.547985 0.0849949 0.
0.549985 0.0849938 0.
0.551986 0.0849923 0.
0.553986 0.0849909 0.
0.555987 0.0849895 0.
0.557988 0.0849887 0.
0.559988 0.0849878 0.
0.561988 0.0849868 0.
0.563988 0.0849857 0.
0.565988 0.0849846 0.
0.567989 0.0849842 0.
0.56999 0.0849843 0.
0.571991 0.0849843 0.
0.573991 0.0849832 0.
0.575991 0.0849819 0.
0.577992 0.0849807 0.
0.579993 0.0849796 0.
0.581994 0.0849786 0.
0.583995 0.0849778 0.
0.585995 0.0849774 0.
0.587995 0.0849771 0.
0.589996 0.0849766 0.
0.591997 0.084976 0.
0.593998 0.0849754 0.
0.595999 0.0849759 0.
0.598 0.0849767 0.
0.600001 0.0849775 0.
0.602002 0.0849773 0.
0.604003 0.0849772 0.
0.606003 0.084977 0.
0.608003 0.084977 0.
0.610003 0.0849769 0.
0.612004 0.0849768 0.
0.614005 0.0849768 0.
0.616006 0.0849767 0.
0.618006 0.0849776 0.
0.620007 0.084979 0.
0.622007 0.0849804 0.
0.624008 0.0849807 0.
0.626009 0.084981 0.
0.628009 0.0849813 0.
0.63001 0.084983 0.
0.632011 0.0849846 0.
0.634012 0.084986 0.
0.636013 0.0849869 0.
0.638013 0.0849878 0.
0.640014 0.0849887 0.
0.642014 0.0849896 0.
0.644014 0.0849905 0.
0.646014 0.084992 0.
0.648014 0.0849937 0.
0.650014 0.0849954 0.
0.652015 0.0849967 0.
0.654016 0.0849979 0.
0.656017 0.0849991 0.
0.658018 0.0850001 0.
0.660019 0.0850011 0.
0.66202 0.0850023 0.
0.66402 0.0850039 0.
0.666021 0.0850055 0.
0.668021 0.0850068 0.
0.670021 0.085008 0.
0.672022 0.0850092 0.
0.674022 0.08501 0.
0.676023 0.0850109 0.
0.678024 0.0850118 0.
0.680024 0.0850139 0.
0.682024 0.0850159 0.
0.684024 0.0850177 0.
0.686024 0.0850192 0.
0.688024 0.0850207 0.
0.690025 0.0850222 0.
0.692025 0.0850236 0.
0.694026 0.0850251 0.
0.696027 0.0850256 0.
0.698028 0.0850258 0.
0.499979 0.0870246 0.
0.501979 0.0870229 0.
0.503979 0.0870213 0.
0.505979 0.0870196 0.
0.507979 0.087018 0.
0.509979 0.0870164 0.
0.511979 0.0870152 0.
0.513979 0.0870146 0.
0.51598 0.0870139 0.
0.51798 0.0870128 0.
0.51998 0.0870115 0.
0.52198 0.0870102 0.
0.52398 0.0870088 0.
0.52598 0.0870074 0.
0.527981 0.087006 0.
0.529981 0.087005 0.
0.531981 0.0870041 0.
0.533982 0.0870031 0.
0.535982 0.0870019 0.
0.537983 0.0870007 0.
0.539984 0.0869994 0.
0.541984 0.086998 0.
0.543985 0.0869966 0.
0.545986 0.0869954 0.
0.547986 0.0869943 0.
0.549986 0.0869931 0.
0.551987 0.0869918 0.
0.553987 0.0869904 0.
0.555988 0.0869892 0.
0.557988 0.0869884 0.
0.559989 0.0869875 0.
0.561989 0.0869867 0.
0.56399 0.0869859 0.
0.56599 0.086985 0.
0.56799 0.0869845 0.
0.569991 0.0869841 0.
0.571991 0.0869837 0.
0.573992 0.0869825 0.
0.575992 0.086981 0.
0.577993 0.0869797 0.
0.579994 0.0869789 0.
0.581995 0.0869782 0.
0.583996 0.0869776 0.
0.585996 0.0869772 0.
0.587996 0.0869768 0.
0.589997 0.0869763 0.
0.591998 0.0869755 0.
0.593999 0.0869748 0.
0.595999 0.0869752 0.
0.598 0.0869759 0.
0.600001 0.0869766 0.
0.602002 0.0869767 0.
0.604003 0.0869768 0.
0.606003 0.0869769 0.
0.608003 0.0869766 0.
0.610003 0.0869764 0.
0.612004 0.0869763 0.
0.614004 0.0869765 0.
0.616005 0.0869767 0.
0.618005 0.0869777 0.
0.620006 0.086979 0.
0.622006 0.0869804 0.
0.624007 0.0869808 0.
0.626007 0.086981 0.
0.628008 0.0869814 0.
0.630009 0.0869828 0.
0.632009 0.0869842 0.
0.63401 0.0869855 0.
0.636011 0.0869866 0.
0.638011 0.0869876 0.
0.640012 0.0869886 0.
0.642012 0.0869895 0.
0.644012 0.0869904 0.
0.646012 0.086992 0.
0.648013 0.0869937 0.
0.650013 0.0869955 0.
0.652013 0.0869966 0.
0.654014 0.0869977 0.
0.656015 0.0869988 0.
0.658016 0.0869998 0.
0.660017 0.0870009 0.
0.662017 0.0870021 0.
0.664018 0.0870035 0.
0.666019 0.0870048 0.
0.668019 0.0870061 0.
0.67002 0.0870074 0.
0.67202 0.0870087 0.
0.674021 0.0870098 0.
0.676021 0.087011 0.
0.678022 0.0870122 0.
0.680022 0.087014 0.
0.682022 0.0870158 0.
0.684023 0.0870175 0.
0.686023 0.0870189 0.
0.688023 0.0870203 0.
0.690023 0.0870218 0.
0.692024 0.0870234 0.
0.694024 0.087025 0.
0.696024 0.0870257 0.
0.698025 0.0870262 0.
0.49998 0.089024 0.
0.50198 0.0890226 0.
0.50398 0.0890211 0.
0.50598 0.0890197 0.
0.50798 0.089018 0.
0.50998 0.0890164 0.
0.51198 0.0890153 0.
0.513981 0.0890148 0.
0.515981 0.0890142 0.
0.517982 0.089013 0.
0.519982 0.0890115 0.
0.521982 0.0890099 0.
0.523982 0.0890087 0.
0.525982 0.0890075 0.
0.527982 0.0890063 0.
0.529982 0.089005 0.
0.531983 0.0890037 0.
0.533983 0.0890024 0.
0.535984 0.0890009 0.
0.537984 0.0889995 0.
0.539985 0.0889983 0.
0.541986 0.0889972 0.
0.543986 0.0889961 0.
0.545987 0.0889949 0.
0.547987 0.0889937 0.
0.549987 0.0889925 0.
0.551987 0.0889912 0.
0.553988 0.08899 0.
0.555989 0.0889888 0.
0.557989 0.088988 0.
0.55999 0.0889873 0.
0.56199 0.0889866 0.
0.563991 0.088986 0.
0.565991 0.0889854 0.
0.567992 0.0889847 0.
0.569992 0.0889839 0.
0.571992 0.0889832 0.
0.573993 0.0889817 0.
0.575993 0.0889801 0.
0.577994 0.0889787 0.
0.579995 0.0889783 0.
0.581996 0.0889778 0.
0.583996 0.0889774 0.
0.585997 0.088977 0.
0.587997 0.0889766 0.
0.589998 0.088976 0.
0.591998 0.0889751 0.
0.593999 0.0889743 0.
0.596 0.0889745 0.
0.598001 0.0889751 0.
0.600002 0.0889756 0.
0.602002 0.088976 0.
0.604002 0.0889765 0.
0.606003 0.0889767 0.
0.608003 0.0889763 0.
0.610003 0.0889759 0.
0.612004 0.0889759 0.
0.614004 0.0889762 0.
0.616005 0.0889766 0.
0.618005 0.0889777 0.
0.620005 0.0889791 0.
0.622004 0.0889805 0.
0.624005 0.0889808 0.
0.626006 0.0889811 0.
0.628007 0.0889814 0.
0.630008 0.0889825 0.
0.632008 0.0889837 0.
0.634009 0.0889849 0.
0.636009 0.0889862 0.
0.638009 0.0889875 0.
0.64001 0.0889886 0.
0.64201 0.0889895 0.
0.644011 0.0889904 0.
0.646011 0.088992 0.
0.648011 0.0889937 0.
0.650012 0.0889955 0.
0.652012 0.0889965 0.
0.654013 0.0889974 0.
0.656013 0.0889984 0.
0.658014 0.0889996 0.
0.660015 0.0890008 0.
0.662015 0.0890019 0.
0.664016 0.0890031 0.
0.666017 0.0890042 0.
0.668018 0.0890055 0.
0.670018 0.0890068 0.
0.672019 0.0890082 0.
0.674019 0.0890096 0.
0.676019 0.0890111 0.
0.678019 0.0890125 0.
0.68002 0.0890142 0.
0.682021 0.0890158 0.
0.684021 0.0890173 0.
0.686021 0.0890186 0.
0.688022 0.0890199 0.
0.690022 0.0890214 0.
0.692022 0.0890231 0.
0.694022 0.0890248 0.
0.696022 0.0890258 0.
0.698022 0.0890266 0.
0.499981 0.0910235 0.
0.501981 0.0910225 0.
0.503981 0.0910212 0.
0.505981 0.0910199 0.
0.507981 0.0910182 0.
0.509981 0.0910165 0.
0.511981 0.0910153 0.
0.513982 0.0910146 0.
0.515983 0.091014 0.
0.517983 0.0910129 0.
0.519983 0.0910114 0.
0.521984 0.09101 0.
0.523984 0.0910089 0.
0.525983 0.0910077 0.
0.527983 0.0910066 0.
0.529984 0.0910051 0.
0.531984 0.0910035 0.
0.533984 0.091002 0.
0.535985 0.0910004 0.
0.537985 0.0909988 0.
0.539986 0.0909976 0.
0.541987 0.0909967 0.
0.543987 0.0909958 0.
0.545987 0.0909946 0.
0.547988 0.0909931 0.
0.549988 0.0909918 0.
0.551989 0.0909906 0.
0.553989 0.0909894 0.
0.55599 0.0909883 0.
0.55799 0.0909876 0.
0.559991 0.0909869 0.
0.561991 0.0909863 0.
0.563992 0.0909858 0.
0.565992 0.0909854 0.
0.567993 0.0909846 0.
0.569993 0.0909837 0.
0.571993 0.0909828 0.
0.573993 0.0909812 0.
0.575994 0.0909794 0.
0.577995 0.0909778 0.
0.579995 0.0909775 0.
0.581996 0.0909773 0.
0.583997 0.0909769 0.
0.585997 0.0909766 0.
0.587998 0.0909763 0.
0.589998 0.0909756 0.
0.591999 0.0909748 0.
0.593999 0.090974 0.
0.596 0.0909741 0.
0.598001 0.0909745 0.
0.600002 0.0909749 0.
0.602002 0.0909756 0.
0.604003 0.0909763 0.
0.606003 0.0909767 0.
0.608003 0.0909761 0.
0.610003 0.0909754 0.
0.612004 0.0909753 0.
0.614004 0.0909759 0.
0.616004 0.0909765 0.
0.618004 0.0909776 0.
0.620004 0.090979 0.
0.622004 0.0909803 0.
0.624005 0.0909806 0.
0.626005 0.0909807 0.
0.628006 0.090981 0.
0.630007 0.090982 0.
0.632007 0.090983 0.
0.634007 0.0909842 0.
0.636008 0.0909857 0.
0.638008 0.0909872 0.
0.640008 0.0909883 0.
0.642009 0.0909892 0.
0.64401 0.0909901 0.
0.64601 0.0909918 0.
0.64801 0.0909937 0.
0.650011 0.0909957 0.
0.652011 0.0909963 0.
0.654012 0.090997 0.
0.656012 0.0909979 0.
0.658013 0.0909993 0.
0.660013 0.0910007 0.
0.662014 0.0910019 0.
0.664014 0.0910028 0.
0.666015 0.0910037 0.
0.668016 0.0910049 0.
0.670016 0.0910062 0.
0.672017 0.0910074 0.
0.674017 0.0910091 0.
0.676017 0.0910108 0.
0.678017 0.0910125 0.
0.680018 0.0910142 0.
0.682019 0.0910158 0.
0.684019 0.0910172 0.
0.68602 0.0910185 0.
0.68802 0.0910197 0.
0.69002 0.0910212 0.
0.69202 0.0910229 0.
0.69402 0.0910247 0.
0.69602 0.091026 0.
0.69802 0.0910271 0.
0.499982 0.0930238 0.
0.501982 0.0930226 0.
0.503982 0.0930215 0.
0.505982 0.0930203 0.
0.507983 0.0930184 0.
0.509983 0.0930166 0.
0.511983 0.0930152 0.
0.513983 0.0930143 0.
0.515984 0.0930133 0.
0.517984 0.0930124 0.
0.519984 0.0930114 0.
0.521985 0.0930104 0.
0.523985 0.0930092 0.
0.525985 0.093008 0.
0.527985 0.0930068 0.
0.529985 0.0930052 0.
0.531986 0.0930036 0.
0.533986 0.093002 0.
0.535986 0.0930003 0.
0.537986 0.0929987 0.
0.539987 0.0929975 0.
0.541987 0.0929967 0.
0.543987 0.092996 0.
0.545988 0.0929944 0.
0.547989 0.0929927 0.
0.549989 0.0929909 0.
0.55199 0.0929898 0.
0.553991 0.0929887 0.
0.555991 0.0929877 0.
0.557992 0.0929871 0.
0.559992 0.0929865 0.
0.561992 0.0929859 0.
0.563993 0.0929854 0.
0.565993 0.0929848 0.
0.567993 0.0929842 0.
0.569993 0.0929835 0.
0.571993 0.0929828 0.
0.573994 0.0929809 0.
0.575994 0.0929789 0.
0.577995 0.092977 0.
0.579996 0.0929768 0.
0.581996 0.0929765 0.
0.583997 0.0929762 0.
0.585997 0.092976 0.
0.587998 0.0929758 0.
0.589998 0.0929753 0.
0.591999 0.0929746 0.
0.593999 0.0929739 0.
0.596 0.0929739 0.
0.598001 0.0929741 0.
0.600002 0.0929743 0.
0.602002 0.0929753 0.
0.604003 0.0929764 0.
0.606003 0.0929769 0.
0.608004 0.0929759 0.
0.610004 0.0929749 0.
0.612004 0.0929747 0.
0.614004 0.0929756 0.
0.616004 0.0929765 0.
0.618004 0.0929776 0.
0.620004 0.0929788 0.
0.622004 0.0929799 0.
0.624005 0.09298 0.
0.626005 0.09298 0.
0.628005 0.0929801 0.
0.630006 0.0929811 0.
0.632006 0.0929821 0.
0.634006 0.0929834 0.
0.636007 0.092985 0.
0.638007 0.0929866 0.
0.640007 0.0929878 0.
0.642008 0.0929887 0.
0.644009 0.0929896 0.
0.646009 0.0929915 0.
0.648009 0.0929937 0.
0.65001 0.0929959 0.
0.65201 0.0929962 0.
0.654011 0.0929966 0.
0.656011 0.0929972 0.
0.658012 0.092999 0.
0.660012 0.0930008 0.
0.662013 0.0930021 0.
0.664013 0.0930028 0.
0.666013 0.0930035 0.
0.668014 0.0930044 0.
0.670014 0.0930054 0.
0.672015 0.0930065 0.
0.674015 0.0930083 0.
0.676016 0.0930103 0.
0.678016 0.0930122 0.
0.680016 0.093014 0.
0.682017 0.0930157 0.
0.684017 0.0930173 0.
0.686018 0.0930185 0.
0.688018 0.0930197 0.
0.690018 0.0930212 0.
0.692018 0.0930229 0.
0.694018 0.0930246 0.
0.696018 0.0930262 0.
0.698018 0.0930278 0.
0.499983 0.0950234 0.
0.501983 0.0950226 0.
0.503983 0.0950218 0.
0.505984 0.0950207 0.
0.507984 0.0950187 0.
0.509985 0.0950167 0.
0.511985 0.0950151 0.
0.513985 0.0950139 0.
0.515985 0.0950127 0.
0.517985 0.0950119 0.
0.519985 0.0950113 0.
0.521986 0.0950108 0.
0.523987 0.0950096 0.
0.525987 0.0950083 0.
0.527987 0.095007 0.
0.529987 0.0950053 0.
0.531987 0.0950037 0.
0.533987 0.095002 0.
0.535987 0.0950002 0.
0.537987 0.0949985 0.
0.539987 0.0949974 0.
0.541987 0.0949967 0.
0.543988 0.0949961 0.
0.545988 0.0949943 0.
0.547989 0.0949922 0.
0.54999 0.0949901 0.
0.551991 0.0949891 0.
0.553992 0.094988 0.
0.555993 0.0949871 0.
0.557993 0.0949866 0.
0.559993 0.0949861 0.
0.561993 0.0949856 0.
0.563994 0.0949849 0.
0.565994 0.0949843 0.
0.567994 0.0949837 0.
0.569994 0.0949832 0.
0.571994 0.0949827 0.
0.573994 0.0949806 0.
0.575995 0.0949783 0.
0.577996 0.0949762 0.
0.579996 0.094976 0.
0.581997 0.0949757 0.
0.583997 0.0949755 0.
0.585998 0.0949754 0.
0.587998 0.0949753 0.
0.589998 0.0949749 0.
0.591998 0.0949744 0.
0.593999 0.0949738 0.
0.596 0.0949737 0.
0.598001 0.0949737 0.
0.600002 0.0949737 0.
0.602003 0.0949751 0.
0.604003 0.0949764 0.
0.606004 0.0949771 0.
0.608004 0.0949757 0.
0.610004 0.0949743 0.
0.612004 0.0949741 0.
0.614004 0.0949752 0.
0.616003 0.0949764 0.
0.618004 0.0949775 0.
0.620004 0.0949785 0.
0.622005 0.0949796 0.
0.624005 0.0949795 0.
0.626005 0.0949793 0.
0.628005 0.0949792 0.
0.630005 0.0949802 0.
0.632005 0.0949812 0.
0.634005 0.0949825 0.
0.636005 0.0949843 0.
0.638006 0.0949861 0.
0.640006 0.0949874 0.
0.642007 0.0949883 0.
0.644008 0.0949891 0.
0.646008 0.0949912 0.
0.648008 0.0949937 0.
0.650009 0.0949961 0.
0.652009 0.0949961 0.
0.65401 0.0949961 0.
0.656011 0.0949965 0.
0.658011 0.0949987 0.
0.660012 0.0950009 0.
0.662012 0.0950023 0.
0.664012 0.0950028 0.
0.666012 0.0950033 0.
0.668012 0.0950039 0.
0.670012 0.0950047 0.
0.672013 0.0950055 0.
0.674014 0.0950076 0.
0.676014 0.0950098 0.
0.678015 0.0950119 0.
0.680015 0.0950138 0.
0.682015 0.0950157 0.
0.684015 0.0950173 0.
0.686016 0.0950185 0.
0.688016 0.0950197 0.
0.690017 0.0950211 0.
0.692017 0.0950228 0.
0.694017 0.0950245 0.
0.696017 0.0950265 0.
0.698016 0.0950285 0.
0.499985 0.0970249 0.
0.501985 0.0970233 0.
0.503985 0.0970217 0.
0.505986 0.0970201 0.
0.507986 0.0970183 0.
0.509986 0.0970164 0.
0.511986 0.0970149 0.
0.513986 0.0970138 0.
0.515986 0.0970127 0.
0.517986 0.0970118 0.
0.519987 0.097011 0.
0.521987 0.0970103 0.
0.523987 0.0970093 0.
0.525988 0.0970082 0.
0.527988 0.0970071 0.
0.529988 0.0970057 0.
0.531988 0.0970042 0.
0.533988 0.0970026 0.
0.535989 0.0970006 0.
0.537989 0.0969986 0.
0.539989 0.0969971 0.
0.541989 0.096996 0.
0.54399 0.096995 0.
0.54599 0.0969933 0.
0.547991 0.0969914 0.
0.549992 0.0969895 0.
0.551993 0.0969886 0.
0.553993 0.0969877 0.
0.555993 0.0969869 0.
0.557993 0.0969862 0.
0.559994 0.0969856 0.
0.561994 0.0969851 0.
0.563994 0.0969847 0.
0.565995 0.0969843 0.
0.567995 0.0969837 0.
0.569995 0.0969828 0.
0.571995 0.096982 0.
0.573995 0.09698 0.
0.575995 0.096978 0.
0.577996 0.0969761 0.
0.579996 0.0969758 0.
0.581996 0.0969755 0.
0.583997 0.0969753 0.
0.585998 0.0969754 0.
0.587998 0.0969756 0.
0.589999 0.0969752 0.
0.591999 0.0969744 0.
0.593999 0.0969736 0.
0.596 0.0969735 0.
0.598001 0.0969735 0.
0.600001 0.0969736 0.
0.602002 0.0969745 0.
0.604003 0.0969755 0.
0.606004 0.096976 0.
0.608004 0.0969753 0.
0.610004 0.0969746 0.
0.612004 0.0969746 0.
0.614003 0.0969756 0.
0.616003 0.0969765 0.
0.618003 0.0969773 0.
0.620004 0.096978 0.
0.622004 0.0969786 0.
0.624004 0.0969788 0.
0.626004 0.0969788 0.
0.628004 0.0969789 0.
0.630004 0.0969797 0.
0.632004 0.0969806 0.
0.634004 0.0969818 0.
0.636004 0.0969837 0.
0.638005 0.0969856 0.
0.640005 0.096987 0.
0.642006 0.0969878 0.
0.644006 0.0969887 0.
0.646007 0.0969907 0.
0.648008 0.0969929 0.
0.650009 0.0969952 0.
0.652009 0.0969955 0.
0.654009 0.0969958 0.
0.656009 0.0969965 0.
0.65801 0.0969982 0.
0.66001 0.0969999 0.
0.662011 0.0970013 0.
0.664011 0.0970024 0.
0.666011 0.0970035 0.
0.668011 0.0970044 0.
0.670011 0.0970052 0.
0.672011 0.0970059 0.
0.674012 0.0970076 0.
0.676012 0.0970094 0.
0.678013 0.0970113 0.
0.680014 0.0970135 0.
0.682014 0.0970157 0.
0.684014 0.0970174 0.
0.686014 0.0970184 0.
0.688015 0.0970193 0.
0.690015 0.0970208 0.
0.692015 0.0970226 0.
0.694015 0.0970244 0.
0.696014 0.0970264 0.
0.698014 0.0970285 0.
0.499986 0.0990261 0.
0.501987 0.099024 0.
0.503987 0.0990217 0.
0.505988 0.0990196 0.
0.507988 0.0990178 0.
0.509988 0.0990161 0.
0.511988 0.0990147 0.
0.513987 0.0990137 0.
0.515987 0.0990128 0.
0.517987 0.0990118 0.
0.519988 0.0990108 0.
0.521988 0.0990098 0.
0.523988 0.0990089 0.
0.525989 0.0990081 0.
0.527989 0.0990073 0.
0.529989 0.099006 0.
0.531989 0.0990048 0.
0.53399 0.0990032 0.
0.53599 0.0990009 0.
0.537991 0.0989987 0.
0.539992 0.0989968 0.
0.541992 0.0989953 0.
0.543992 0.0989938 0.
0.545992 0.0989922 0.
0.547993 0.0989906 0.
0.549994 0.098989 0.
0.551994 0.0989882 0.
0.553994 0.0989874 0.
0.555994 0.0989866 0.
0.557994 0.0989859 0.
0.559994 0.0989851 0.
0.561994 0.0989846 0.
0.563995 0.0989845 0.
0.565995 0.0989844 0.
0.567995 0.0989836 0.
0.569995 0.0989824 0.
0.571996 0.0989813 0.
0.573996 0.0989795 0.
0.575996 0.0989776 0.
0.577996 0.0989759 0.
0.579996 0.0989756 0.
0.581996 0.0989752 0.
0.583997 0.0989751 0.
0.585997 0.0989755 0.
0.587998 0.0989758 0.
0.589999 0.0989754 0.
0.591999 0.0989743 0.
0.594 0.0989733 0.
0.596 0.0989732 0.
0.598 0.0989733 0.
0.6 0.0989735 0.
0.602002 0.098974 0.
0.604003 0.0989745 0.
0.606005 0.0989749 0.
0.608004 0.0989749 0.
0.610004 0.0989749 0.
0.612003 0.0989752 0.
0.614003 0.0989759 0.
0.616002 0.0989767 0.
0.618002 0.0989771 0.
0.620003 0.0989774 0.
0.622004 0.0989777 0.
0.624004 0.098978 0.
0.626004 0.0989783 0.
0.628003 0.0989786 0.
0.630003 0.0989793 0.
0.632003 0.09898 0.
0.634003 0.0989811 0.
0.636003 0.0989831 0.
0.638004 0.0989851 0.
0.640004 0.0989865 0.
0.642004 0.0989874 0.
0.644004 0.0989883 0.
0.646006 0.0989901 0.
0.648007 0.0989922 0.
0.650009 0.0989943 0.
0.652008 0.0989949 0.
0.654007 0.0989956 0.
0.656007 0.0989964 0.
0.658008 0.0989976 0.
0.660009 0.0989989 0.
0.66201 0.0990004 0.
0.66401 0.0990021 0.
0.66601 0.0990038 0.
0.66801 0.0990049 0.
0.67001 0.0990056 0.
0.672009 0.0990064 0.
0.67401 0.0990077 0.
0.676011 0.0990091 0.
0.678011 0.0990106 0.
0.680012 0.0990131 0.
0.682013 0.0990156 0.
0.684013 0.0990175 0.
0.686013 0.0990183 0.
0.688013 0.099019 0.
0.690013 0.0990204 0.
0.692013 0.0990224 0.
0.694012 0.0990243 0.
0.696012 0.0990263 0.
0.698012 0.0990284 0.
CELLS 5000 10000
1 0
1 1
1 2
1 3
1 4
1 5
1 6
1 7
1 8
1 9
1 10
1 11
1 12
1 13
1 14
1 15
1 16
1 17
1 18
1 19
1 20
1 21
1 22
1 23
1 24
1 25
1 26
1 27
1 28
1 29
1 30
1 31
1 32
1 33
1 34
1 35
1 36
1 37
1 38
1 39
1 40
1 41
1 42
1 43
1 44
1 45
1 46
1 47
1 48
1 49
1 50
1 51
1 52
1 53
1 54
1 55
1 56
1 57
1 58
1 59
1 60
1 61
1 62
1 63
1 64
1 65
1 66
1 67
1 68
1 69
1 70
1 71
1 72
1 73
1 74
1 75
1 76
1 77
1 78
1 79
1 80
1 81
1 82
1 83
1 84
1 85
1 86
1 87
1 88
1 89
1 90
1 91
1 92
1 93
1 94
1 95
1 96
1 97
1 98
1 99
1 100
1 101
1 102
1 103
1 104
1 105
1 106
1 107
1 108
1 109
1 110
1 111
1 112
1 113
1 114
1 115
1 116
1 117
1 118
1 119
1 120
1 121
1 122
1 123
1 124
1 125
1 126
1 127
1 128
1 129
1 130
1 131
1 132
1 133
1 134
1 135
1 136
1 137
1 138
1 139
1 140
1 141
1 142
1 143
1 144
1 145
1 146
1 147
1 148
1 149
1 150
1 151
1 152
1 153
1 154
1 155
1 156
1 157
1 158
1 159
1 160
1 161
1 162
1 163
1 164
1 165
1 166
1 167
1 168
1 169
1 170
1 171
1 172
1 173
1 174
1 175
1 176
1 177
1 178
1 179
1 180
1 181
1 182
1 183
1 184
1 185
1 186
1 187
1 188
1 189
1 190
1 191
1 192
1 193
1 194
1 195
1 196
1 197
1 198
1 199
1 200
1 201
1 202
1 203
1 204
1 205
1 206
1 207
1 208
1 209
1 210
1 211
1 212
1 213
1 214
1 215
1 216
1 217
1 218
1 219
1 220
1 221
1 222
1 223
1 224
1 225
1 226
1 227
1 228
1 229
1 230
1 231
1 232
1 233
1 234
1 235
1 236
1 237
1 238
1 239
1 240
1 241
1 242
1 243
1 244
1 245
1 246
1 247
1 248
1 249
1 250
1 251
1 252
1 253
1 254
1 255
1 256
1 257
1 258
1 259
1 260
1 261
1 262
1 263
1 264
1 265
1 266
1 267
1 268
1 269
1 270
1 271
1 272
1 273
1 274
1 275
1 276
1 277
1 278
1 279
1 280
1 281
1 282
1 283
1 284
1 285
1 286
1 287
1 288
1 289
1 290
1 291
1 292
1 293
1 294
1 295
1 296
1 297
1 298
1 299
1 300
1 301
1 302
1 303
1 304
1 305
1 306
1 307
1 308
1 309
1 310
1 311
1 312
1 313
1 314
1 315
1 316
1 317
1 318
1 319
1 320
1 321
1 322
1 323
1 324
1 325
1 326
1 327
1 328
1 329
1 330
1 331
1 332
1 333
1 334
1 335
1 336
1 337
1 338
1 339
1 340
1 341
1 342
1 343
1 344
1 345
1 346
1 347
1 348
1 349
1 350
1 351
1 352
1 353
1 354
1 355
1 356
1 357
1 358
1 359
1 360
1 361
1 362
1 363
1 364
1 365
1 366
1 367
1 368
1 369
1 370
1 371
1 372
1 373
1 374
1 375
1 376
1 377
1 378
1 379
1 380
1 381
1 382
1 383
1 384
1 385
1 386
1 387
1 388
1 389
1 390
1 391
1 392
1 393
1 394
1 395
1 396
1 397
1 398
1 399
1 400
1 401
1 402
1 403
1 404
1 405
1 406
1 407
1 408
1 409
1 410
1 411
1 412
1 413
1 414
1 415
1 416
1 417
1 418
1 419
1 420
1 421
1 422
1 423
1 424
1 425
1 426
1 427
1 428
1 429
1 430
1 431
1 432
1 433
1 434
1 435
1 436
1 437
1 438
1 439
1 440
1 441
1 442
1 443
1 444
1 445
1 446
1 447
1 448
1 449
1 450
1 451
1 452
1 453
1 454
1 455
1 456
1 457
1 458
1 459
1 460
1 461
1 462
1 463
1 464
1 465
1 466
1 467
1 468
1 469
1 470
1 471
1 472
1 473
1 474
1 475
1 476
1 477
1 478
1 479
1 480
1 481
1 482
1 483
1 484
1 485
1 486
1 487
1 488
1 489
1 490
1 491
1 492
1 493
1 494
1 495
1 496
1 497
1 498
1 499
1 500
1 501
1 502
1 503
1 504
1 505
1 506
1 507
1 508
1 509
1 510
1 511
1 512
1 513
1 514
1 515
1 516
1 517
1 518
1 519
1 520
1 521
1 522
1 523
1 524
1 525
1 526
1 527
1 528
1 529
1 530
1 531
1 532
1 533
1 534
1 535
1 536
1 537
1 538
1 539
1 540
1 541
1 542
1 543
1 544
1 545
1 546
1 547
1 548
1 549
1 550
1 551
1 552
1 553
1 554
1 555
1 556
1 557
1 558
1 559
1 560
1 561
1 562
1 563
1 564
1 565
1 566
1 567
1 568
1 569
1 570
1 571
1 572
1 573
1 574
1 575
1 576
1 577
1 578
1 579
1 580
1 581
1 582
1 583
1 584
1 585
1 586
1 587
1 588
1 589
1 590
1 591
1 592
1 593
1 594
1 595
1 596
1 597
1 598
1 599
1 600
1 601
1 602
1 603
1 604
1 605
1 606
1 607
1 608
1 609
1 610
1 611
1 612
1 613
1 614
1 615
1 616
1 617
1 618
1 619
1 620
1 621
1 622
1 623
1 624
1 625
1 626
1 627
1 628
1 629
1 630
1 631
1 632
1 633
1 634
1 635
1 636
1 637
1 638
1 639
1 640
1 641
1 642
1 643
1 644
1 645
1 646
1 647
1 648
1 649
1 650
1 651
1 652
1 653
1 654
1 655
1 656
1 657
1 658
1 659
1 660
1 661
1 662
1 663
1 664
1 665
1 666
1 667
1 668
1 669
1 670
1 671
1 672
1 673
1 674
1 675
1 676
1 677
1 678
1 679
1 680
1 681
1 682
1 683
1 684
1 685
1 686
1 687
1 688
1 689
1 690
1 691
1 692
1 693
1 694
1 695
1 696
1 697
1 698
1 699
1 700
1 701
1 702
1 703
1 704
1 705
1 706
1 707
1 708
1 709
1 710
1 711
1 712
1 713
1 714
1 715
1 716
1 717
1 718
1 719
1 720
1 721
1 722
1 723
1 724
1 725
1 726
1 727
1 728
1 729
1 730
1 731
1 732
1 733
1 734
1 735
1 736
1 737
1 738
1 739
1 740
1 741
1 742
1 743
1 744
1 745
1 746
1 747
1 748
1 749
1 750
1 751
1 752
1 753
1 754
1 755
1 756
1 757
1 758
1 759
1 760
1 761
1 762
1 763
1 764
1 765
1 766
1 767
1 768
1 769
1 770
1 771
1 772
1 773
1 774
1 775
1 776
1 777
1 778
1 779
1 780
1 781
1 782
1 783
1 784
1 785
1 786
1 787
1 788
1 789
1 790
1 791
1 792
1 793
1 794
1 795
1 796
1 797
1 798
1 799
1 800
1 801
1 802
1 803
1 804
1 805
1 806
1 807
1 808
1 809
1 810
1 811
1 812
1 813
1 814
1 815
1 816
1 817
1 818
1 819
1 820
1 821
1 822
1 823
1 824
1 825
1 826
1 827
1 828
1 829
1 830
1 831
1 832
1 833
1 834
1 835
1 836
1 837
1 838
1 839
1 840
1 841
1 842
1 843
1 844
1 845
1 846
1 847
1 848
1 849
1 850
1 851
1 852
1 853
1 854
1 855
1 856
1 857
1 858
1 859
1 860
1 861
1 862
1 863
1 864
1 865
1 866
1 867
1 868
1 869
1 870
1 871
1 872
1 873
1 874
1 875
1 876
1 877
1 878
1 879
1 880
1 881
1 882
1 883
1 884
1 885
1 886
1 887
1 888
1 889
1 890
1 891
1 892
1 893
1 894
1 895
1 896
1 897
1 898
1 899
1 900
1 901
1 902
1 903
1 904
1 905
1 906
1 907
1 908
1 909
1 910
1 911
1 912
1 913
1 914
1 915
1 916
1 917
1 918
1 919
1 920
1 921
1 922
1 923
1 924
1 925
1 926
1 927
1 928
1 929
1 930
1 931
1 932
1 933
1 934
1 935
1 936
1 937
1 938
1 939
1 940
1 941
1 942
1 943
1 944
1 945
1 946
1 947
1 948
1 949
1 950
1 951
1 952
1 953
1 954
1 955
1 956
1 957
1 958
1 959
1 960
1 961
1 962
1 963
1 964
1 965
1 966
1 967
1 968
1 969
1 970
1 971
1 972
1 973
1 974
1 975
1 976
1 977
1 978
1 979
1 980
1 981
1 982
1 983
1 984
1 985
1 986
1 987
1 988
1 989
1 990
1 991
1 992
1 993
1 994
1 995
1 996
1 997
1 998
1 999
1 1000
1 1001
1 1002
1 1003
1 1004
1 1005
1 1006
1 1007
1 1008
1 1009
1 1010
1 1011
1 1012
1 1013
1 1014
1 1015
1 1016
1 1017
1 1018
1 1019
1 1020
1 1021
1 1022
1 1023
1 1024
1 1025
1 1026
1 1027
1 1028
1 1029
1 1030
1 1031
1 1032
1 1033
1 1034
1 1035
1 1036
1 1037
1 1038
1 1039
1 1040
1 1041
1 1042
1 1043
1 1044
1 1045
1 1046
1 1047
1 1048
1 1049
1 1050
1 1051
1 1052
1 1053
1 1054
1 1055
1 1056
1 1057
1 1058
1 1059
1 1060
1 1061
1 1062
1 1063
1 1064
1 1065
1 1066
1 1067
1 1068
1 1069
1 1070
1 1071
1 1072
1 1073
1 1074
1 1075
1 1076
1 1077
1 1078
1 1079
1 1080
1 1081
1 1082
1 1083
1 1084
1 1085
1 1086
1 1087
1 1088
1 1089
1 1090
1 1091
1 1092
1 1093
1 1094
1 1095
1 1096
1 1097
1 1098
1 1099
1 1100
1 1101
1 1102
1 1103
1 1104
1 1105
1 1106
1 1107
1 1108
1 1109
1 1110
1 1111
1 1112
1 1113
1 1114
1 1115
1 1116
1 1117
1 1118
1 1119
1 1120
1 1121
1 1122
1 1123
1 1124
1 1125
1 1126
1 1127
1 1128
1 1129
1 1130
1 1131
1 1132
1 1133
1 1134
1 1135
1 1136
1 1137
1 1138
1 1139
1 1140
1 1141
1 1142
1 1143
1 1144
1 1145
1 1146
1 1147
1 1148
1 1149
1 1150
1 1151
1 1152
1 1153
1 1154
1 1155
1 1156
1 1157
1 1158
1 1159
1 1160
1 1161
1 1162
1 1163
1 1164
1 1165
1 1166
1 1167
1 1168
1 1169
1 1170
1 1171
1 1172
1 1173
1 1174
1 1175
1 1176
1 1177
1 1178
1 1179
1 1180
1 1181
1 1182
1 1183
1 1184
1 1185
1 1186
1 1187
1 1188
1 1189
1 1190
1 1191
1 1192
1 1193
1 1194
1 1195
1 1196
1 1197
1 1198
1 1199
1 1200
1 1201
1 1202
1 1203
1 1204
1 1205
1 1206
1 1207
1 1208
1 1209
1 1210
1 1211
1 1212
1 1213
1 1214
1 1215
1 1216
1 1217
1 1218
1 1219
1 1220
1 1221
1 1222
1 1223
1 1224
1 1225
1 1226
1 1227
1 1228
1 1229
1 1230
1 1231
1 1232
1 1233
1 1234
1 1235
1 1236
1 1237
1 1238
1 1239
1 1240
1 1241
1 1242
1 1243
1 1244
1 1245
1 1246
1 1247
1 1248
1 1249
1 1250
1 1251
1 1252
1 1253
1 1254
1 1255
1 1256
1 1257
1 1258
1 1259
1 1260
1 1261
1 1262
1 1263
1 1264
1 1265
1 1266
1 1267
1 1268
1 1269
1 1270
1 1271
1 1272
1 1273
1 1274
1 1275
1 1276
1 1277
1 1278
1 1279
1 1280
1 1281
1 1282
1 1283
1 1284
1 1285
1 1286
1 1287
1 1288
1 1289
1 1290
1 1291
1 1292
1 1293
1 1294
1 1295
1 1296
1 1297
1 1298
1 1299
1 1300
1 1301
1 1302
1 1303
1 1304
1 1305
1 1306
1 1307
1 1308
1 1309
1 1310
1 1311
1 1312
1 1313
1 1314
1 1315
1 1316
1 1317
1 1318
1 1319
1 1320
1 1321
1 1322
1 1323
1 1324
1 1325
1 1326
1 1327
1 1328
1 1329
1 1330
1 1331
1 1332
1 1333
1 1334
1 1335
1 1336
1 1337
1 1338
1 1339
1 1340
1 1341
1 1342
1 1343
1 1344
1 1345
1 1346
1 1347
1 1348
1 1349
1 1350
1 1351
1 1352
1 1353
1 1354
1 1355
1 1356
1 1357
1 1358
1 1359
1 1360
1 1361
1 1362
1 1363
1 1364
1 1365
1 1366
1 1367
1 1368
1 1369
1 1370
1 1371
1 1372
1 1373
1 1374
1 1375
1 1376
1 1377
1 1378
1 1379
1 1380
1 1381
1 1382
1 1383
1 1384
1 1385
1 1386
1 1387
1 1388
1 1389
1 1390
1 1391
1 1392
1 1393
1 1394
1 1395
1 1396
1 1397
1 1398
1 1399
1 1400
1 1401
1 1402
1 1403
1 1404
1 1405
1 1406
1 1407
1 1408
1 1409
1 1410
1 1411
1 1412
1 1413
1 1414
1 1415
1 1416
1 1417
1 1418
1 1419
1 1420
1 1421
1 1422
1 1423
1 1424
1 1425
1 1426
1 1427
1 1428
1 1429
1 1430
1 1431
1 1432
1 1433
1 1434
1 1435
1 1436
1 1437
1 1438
1 1439
1 1440
1 1441
1 1442
1 1443
1 1444
1 1445
1 1446
1 1447
1 1448
1 1449
1 1450
1 1451
1 1452
1 1453
1 1454
1 1455
1 1456
1 1457
1 1458
1 1459
1 1460
1 1461
1 1462
1 1463
1 1464
1 1465
1 1466
1 1467
1 1468
1 1469
1 1470
1 1471
1 1472
1 1473
1 1474
1 1475
1 1476
1 1477
1 1478
1 1479
1 1480
1 1481
1 1482
1 1483
1 1484
1 1485
1 1486
1 1487
1 1488
1 1489
1 1490
1 1491
1 1492
1 1493
1 1494
1 1495
1 1496
1 1497
1 1498
1 1499
1 1500
1 1501
1 1502
1 1503
1 1504
1 1505
1 1506
1 1507
1 1508
1 1509
1 1510
1 1511
1 1512
1 1513
1 1514
1 1515
1 1516
1 1517
1 1518
1 1519
1 1520
1 1521
1 1522
1 1523
1 1524
1 1525
1 1526
1 1527
1 1528
1 1529
1 1530
1 1531
1 1532
1 1533
1 1534
1 1535
1 1536
1 1537
1 1538
1 1539
1 1540
1 1541
1 1542
1 1543
1 1544
1 1545
1 1546
1 1547
1 1548
1 1549
1 1550
1 1551
1 1552
1 1553
1 1554
1 1555
1 1556
1 1557
1 1558
1 1559
1 1560
1 1561
1 1562
1 1563
1 1564
1 1565
1 1566
1 1567
1 1568
1 1569
1 1570
1 1571
1 1572
1 1573
1 1574
1 1575
1 1576
1 1577
1 1578
1 1579
1 1580
1 1581
1 1582
1 1583
1 1584
1 1585
1 1586
1 1587
1 1588
1 1589
1 1590
1 1591
1 1592
1 1593
1 1594
1 1595
1 1596
1 1597
1 1598
1 1599
1 1600
1 1601
1 1602
1 1603
1 1604
1 1605
1 1606
1 1607
1 1608
1 1609
1 1610
1 1611
1 1612
1 1613
1 1614
1 1615
1 1616
1 1617
1 1618
1 1619
1 1620
1 1621
1 1622
1 1623
1 1624
1 1625
1 1626
1 1627
1 1628
1 1629
1 1630
1 1631
1 1632
1 1633
1 1634
1 1635
1 1636
1 1637
1 1638
1 1639
1 1640
1 1641
1 1642
1 1643
1 1644
1 1645
1 1646
1 1647
1 1648
1 1649
1 1650
1 1651
1 1652
1 1653
1 1654
1 1655
1 1656
1 1657
1 1658
1 1659
1 1660
1 1661
1 1662
1 1663
1 1664
1 1665
1 1666
1 1667
1 1668
1 1669
1 1670
1 1671
1 1672
1 1673
1 1674
1 1675
1 1676
1 1677
1 1678
1 1679
1 1680
1 1681
1 1682
1 1683
1 1684
1 1685
1 1686
1 1687
1 1688
1 1689
1 1690
1 1691
1 1692
1 1693
1 1694
1 1695
1 1696
1 1697
1 1698
1 1699
1 1700
1 1701
1 1702
1 1703
1 1704
1 1705
1 1706
1 1707
1 1708
1 1709
1 1710
1 1711
1 1712
1 1713
1 1714
1 1715
1 1716
1 1717
1 1718
1 1719
1 1720
1 1721
1 1722
1 1723
1 1724
1 1725
1 1726
1 1727
1 1728
1 1729
1 1730
1 1731
1 1732
1 1733
1 1734
1 1735
1 1736
1 1737
1 1738
1 1739
1 1740
1 1741
1 1742
1 1743
1 1744
1 1745
1 1746
1 1747
1 1748
1 1749
1 1750
1 1751
1 1752
1 1753
1 1754
1 1755
1 1756
1 1757
1 1758
1 1759
1 1760
1 1761
1 1762
1 1763
1 1764
1 1765
1 1766
1 1767
1 1768
1 1769
1 1770
1 1771
1 1772
1 1773
1 1774
1 1775
1 1776
1 1777
1 1778
1 1779
1 1780
1 1781
1 1782
1 1783
1 1784
1 1785
1 1786
1 1787
1 1788
1 1789
1 1790
1 1791
1 1792
1 1793
1 1794
1 1795
1 1796
1 1797
1 1798
1 1799
1 1800
1 1801
1 1802
1 1803
1 1804
1 1805
1 1806
1 1807
1 1808
1 1809
1 1810
1 1811
1 1812
1 1813
1 1814
1 1815
1 1816
1 1817
1 1818
1 1819
1 1820
1 1821
1 1822
1 1823
1 1824
1 1825
1 1826
1 1827
1 1828
1 1829
1 1830
1 1831
1 1832
1 1833
1 1834
1 1835
1 1836
1 1837
1 1838
1 1839
1 1840
1 1841
1 1842
1 1843
1 1844
1 1845
1 1846
1 1847
1 1848
1 1849
1 1850
1 1851
1 1852
1 1853
1 1854
1 1855
1 1856
1 1857
1 1858
1 1859
1 1860
1 1861
1 1862
1 1863
1 1864
1 1865
1 1866
1 1867
1 1868
1 1869
1 1870
1 1871
1 1872
1 1873
1 1874
1 1875
1 1876
1 1877
1 1878
1 1879
1 1880
1 1881
1 1882
1 1883
1 1884
1 1885
1 1886
1 1887
1 1888
1 1889
1 1890
1 1891
1 1892
1 1893
1 1894
1 1895
1 1896
1 1897
1 1898
1 1899
1 1900
1 1901
1 1902
1 1903
1 1904
1 1905
1 1906
1 1907
1 1908
1 1909
1 1910
1 1911
1 1912
1 1913
1 1914
1 1915
1 1916
1 1917
1 1918
1 1919
1 1920
1 1921
1 1922
1 1923
1 1924
1 1925
1 1926
1 1927
1 1928
1 1929
1 1930
1 1931
1 1932
1 1933
1 1934
1 1935
1 1936
1 1937
1 1938
1 1939
1 1940
1 1941
1 1942
1 1943
1 1944
1 1945
1 1946
1 1947
1 1948
1 1949
1 1950
1 1951
1 1952
1 1953
1 1954
1 1955
1 1956
1 1957
1 1958
1 1959
1 1960
1 1961
1 1962
1 1963
1 1964
1 1965
1 1966
1 1967
1 1968
1 1969
1 1970
1 1971
1 1972
1 1973
1 1974
1 1975
1 1976
1 1977
1 1978
1 1979
1 1980
1 1981
1 1982
1 1983
1 1984
1 1985
1 1986
1 1987
1 1988
1 1989
1 1990
1 1991
1 1992
1 1993
1 1994
1 1995
1 1996
1 1997
1 1998
1 1999
1 2000
1 2001
1 2002
1 2003
1 2004
1 2005
1 2006
1 2007
1 2008
1 2009
1 2010
1 2011
1 2012
1 2013
1 2014
1 2015
1 2016
1 2017
1 2018
1 2019
1 2020
1 2021
1 2022
1 2023
1 2024
1 2025
1 2026
1 2027
1 2028
1 2029
1 2030
1 2031
1 2032
1 2033
1 2034
1 2035
1 2036
1 2037
1 2038
1 2039
1 2040
1 2041
1 2042
1 2043
1 2044
1 2045
1 2046
1 2047
1 2048
1 2049
1 2050
1 2051
1 2052
1 2053
1 2054
1 2055
1 2056
1 2057
1 2058
1 2059
1 2060
1 2061
1 2062
1 2063
1 2064
1 2065
1 2066
1 2067
1 2068
1 2069
1 2070
1 2071
1 2072
1 2073
1 2074
1 2075
1 2076
1 2077
1 2078
1 2079
1 2080
1 2081
1 2082
1 2083
1 2084
1 2085
1 2086
1 2087
1 2088
1 2089
1 2090
1 2091
1 2092
1 2093
1 2094
1 2095
1 2096
1 2097
1 2098
1 2099
1 2100
1 2101
1 2102
1 2103
1 2104
1 2105
1 2106
1 2107
1 2108
1 2109
1 2110
1 2111
1 2112
1 2113
1 2114
1 2115
1 2116
1 2117
1 2118
1 2119
1 2120
1 2121
1 2122
1 2123
1 2124
1 2125
1 2126
1 2127
1 2128
1 2129
1 2130
1 2131
1 2132
1 2133
1 2134
1 2135
1 2136
1 2137
1 2138
1 2139
1 2140
1 2141
1 2142
1 2143
1 2144
1 2145
1 2146
1 2147
1 2148
1 2149
1 2150
1 2151
1 2152
1 2153
1 2154
1 2155
1 2156
1 2157
1 2158
1 2159
1 2160
1 2161
1 2162
1 2163
1 2164
1 2165
1 2166
1 2167
1 2168
1 2169
1 2170
1 2171
1 2172
1 2173
1 2174
1 2175
1 2176
1 2177
1 2178
1 2179
1 2180
1 2181
1 2182
1 2183
1 2184
1 2185
1 2186
1 2187
1 2188
1 2189
1 2190
1 2191
1 2192
1 2193
1 2194
1 2195
1 2196
1 2197
1 2198
1 2199
1 2200
1 2201
1 2202
1 2203
1 2204
1 2205
1 2206
1 2207
1 2208
1 2209
1 2210
1 2211
1 2212
1 2213
1 2214
1 2215
1 2216
1 2217
1 2218
1 2219
1 2220
1 2221
1 2222
1 2223
1 2224
1 2225
1 2226
1 2227
1 2228
1 2229
1 2230
1 2231
1 2232
1 2233
1 2234
1 2235
1 2236
1 2237
1 2238
1 2239
1 2240
1 2241
1 2242
1 2243
1 2244
1 2245
1 2246
1 2247
1 2248
1 2249
1 2250
1 2251
1 2252
1 2253
1 2254
1 2255
1 2256
1 2257
1 2258
1 2259
1 2260
1 2261
1 2262
1 2263
1 2264
1 2265
1 2266
1 2267
1 2268
1 2269
1 2270
1 2271
1 2272
1 2273
1 2274
1 2275
1 2276
1 2277
1 2278
1 2279
1 2280
1 2281
1 2282
1 2283
1 2284
1 2285
1 2286
1 2287
1 2288
1 2289
1 2290
1 2291
1 2292
1 2293
1 2294
1 2295
1 2296
1 2297
1 2298
1 2299
1 2300
1 2301
1 2302
1 2303
1 2304
1 2305
1 2306
1 2307
1 2308
1 2309
1 2310
1 2311
1 2312
1 2313
1 2314
1 2315
1 2316
1 2317
1 2318
1 2319
1 2320
1 2321
1 2322
1 2323
1 2324
1 2325
1 2326
1 2327
1 2328
1 2329
1 2330
1 2331
1 2332
1 2333
1 2334
1 2335
1 2336
1 2337
1 2338
1 2339
1 2340
1 2341
1 2342
1 2343
1 2344
1 2345
1 2346
1 2347
1 2348
1 2349
1 2350
1 2351
1 2352
1 2353
1 2354
1 2355
1 2356
1 2357
1 2358
1 2359
1 2360
1 2361
1 2362
1 2363
1 2364
1 2365
1 2366
1 2367
1 2368
1 2369
1 2370
1 2371
1 2372
1 2373
1 2374
1 2375
1 2376
1 2377
1 2378
1 2379
1 2380
1 2381
1 2382
1 2383
1 2384
1 2385
1 2386
1 2387
1 2388
1 2389
1 2390
1 2391
1 2392
1 2393
1 2394
1 2395
1 2396
1 2397
1 2398
1 2399
1 2400
1 2401
1 2402
1 2403
1 2404
1 2405
1 2406
1 2407
1 2408
1 2409
1 2410
1 2411
1 2412
1 2413
1 2414
1 2415
1 2416
1 2417
1 2418
1 2419
1 2420
1 2421
1 2422
1 2423
1 2424
1 2425
1 2426
1 2427
1 2428
1 2429
1 2430
1 2431
1 2432
1 2433
1 2434
1 2435
1 2436
1 2437
1 2438
1 2439
1 2440
1 2441
1 2442
1 2443
1 2444
1 2445
1 2446
1 2447
1 2448
1 2449
1 2450
1 2451
1 2452
1 2453
1 2454
1 2455
1 2456
1 2457
1 2458
1 2459
1 2460
1 2461
1 2462
1 2463
1 2464
1 2465
1 2466
1 2467
1 2468
1 2469
1 2470
1 2471
1 2472
1 2473
1 2474
1 2475
1 2476
1 2477
1 2478
1 2479
1 2480
1 2481
1 2482
1 2483
1 2484
1 2485
1 2486
1 2487
1 2488
1 2489
1 2490
1 2491
1 2492
1 2493
1 2494
1 2495
1 2496
1 2497
1 2498
1 2499
1 2500
1 2501
1 2502
1 2503
1 2504
1 2505
1 2506
1 2507
1 2508
1 2509
1 2510
1 2511
1 2512
1 2513
1 2514
1 2515
1 2516
1 2517
1 2518
1 2519
1 2520
1 2521
1 2522
1 2523
1 2524
1 2525
1 2526
1 2527
1 2528
1 2529
1 2530
1 2531
1 2532
1 2533
1 2534
1 2535
1 2536
1 2537
1 2538
1 2539
1 2540
1 2541
1 2542
1 2543
1 2544
1 2545
1 2546
1 2547
1 2548
1 2549
1 2550
1 2551
1 2552
1 2553
1 2554
1 2555
1 2556
1 2557
1 2558
1 2559
1 2560
1 2561
1 2562
1 2563
1 2564
1 2565
1 2566
1 2567
1 2568
1 2569
1 2570
1 2571
1 2572
1 2573
1 2574
1 2575
1 2576
1 2577
1 2578
1 2579
1 2580
1 2581
1 2582
1 2583
1 2584
1 2585
1 2586
1 2587
1 2588
1 2589
1 2590
1 2591
1 2592
1 2593
1 2594
1 2595
1 2596
1 2597
1 2598
1 2599
1 2600
1 2601
1 2602
1 2603
1 2604
1 2605
1 2606
1 2607
1 2608
1 2609
1 2610
1 2611
1 2612
1 2613
1 2614
1 2615
1 2616
1 2617
1 2618
1 2619
1 2620
1 2621
1 2622
1 2623
1 2624
1 2625
1 2626
1 2627
1 2628
1 2629
1 2630
1 2631
1 2632
1 2633
1 2634
1 2635
1 2636
1 2637
1 2638
1 2639
1 2640
1 2641
1 2642
1 2643
1 2644
1 2645
1 2646
1 2647
1 2648
1 2649
1 2650
1 2651
1 2652
1 2653
1 2654
1 2655
1 2656
1 2657
1 2658
1 2659
1 2660
1 2661
1 2662
1 2663
1 2664
1 2665
1 2666
1 2667
1 2668
1 2669
1 2670
1 2671
1 2672
1 2673
1 2674
1 2675
1 2676
1 2677
1 2678
1 2679
1 2680
1 2681
1 2682
1 2683
1 2684
1 2685
1 2686
1 2687
1 2688
1 2689
1 2690
1 2691
1 2692
1 2693
1 2694
1 2695
1 2696
1 2697
1 2698
1 2699
1 2700
1 2701
1 2702
1 2703
1 2704
1 2705
1 2706
1 2707
1 2708
1 2709
1 2710
1 2711
1 2712
1 2713
1 2714
1 2715
1 2716
1 2717
1 2718
1 2719
1 2720
1 2721
1 2722
1 2723
1 2724
1 2725
1 2726
1 2727
1 2728
1 2729
1 2730
1 2731
1 2732
1 2733
1 2734
1 2735
1 2736
1 2737
1 2738
1 2739
1 2740
1 2741
1 2742
1 2743
1 2744
1 2745
1 2746
1 2747
1 2748
1 2749
1 2750
1 2751
1 2752
1 2753
1 2754
1 2755
1 2756
1 2757
1 2758
1 2759
1 2760
1 2761
1 2762
1 2763
1 2764
1 2765
1 2766
1 2767
1 2768
1 2769
1 2770
1 2771
1 2772
1 2773
1 2774
1 2775
1 2776
1 2777
1 2778
1 2779
1 2780
1 2781
1 2782
1 2783
1 2784
1 2785
1 2786
1 2787
1 2788
1 2789
1 2790
1 2791
1 2792
1 2793
1 2794
1 2795
1 2796
1 2797
1 2798
1 2799
1 2800
1 2801
1 2802
1 2803
1 2804
1 2805
1 2806
1 2807
1 2808
1 2809
1 2810
1 2811
1 2812
1 2813
1 2814
1 2815
1 2816
1 2817
1 2818
1 2819
1 2820
1 2821
1 2822
1 2823
1 2824
1 2825
1 2826
1 2827
1 2828
1 2829
1 2830
1 2831
1 2832
1 2833
1 2834
1 2835
1 2836
1 2837
1 2838
1 2839
1 2840
1 2841
1 2842
1 2843
1 2844
1 2845
1 2846
1 2847
1 2848
1 2849
1 2850
1 2851
1 2852
1 2853
1 2854
1 2855
1 2856
1 2857
1 2858
1 2859
1 2860
1 2861
1 2862
1 2863
1 2864
1 2865
1 2866
1 2867
1 2868
1 2869
1 2870
1 2871
1 2872
1 2873
1 2874
1 2875
1 2876
1 2877
1 2878
1 2879
1 2880
1 2881
1 2882
1 2883
1 2884
1 2885
1 2886
1 2887
1 2888
1 2889
1 2890
1 2891
1 2892
1 2893
1 2894
1 2895
1 2896
1 2897
1 2898
1 2899
1 2900
1 2901
1 2902
1 2903
1 2904
1 2905
1 2906
1 2907
1 2908
1 2909
1 2910
1 2911
1 2912
1 2913
1 2914
1 2915
1 2916
1 2917
1 2918
1 2919
1 2920
1 2921
1 2922
1 2923
1 2924
1 2925
1 2926
1 2927
1 2928
1 2929
1 2930
1 2931
1 2932
1 2933
1 2934
1 2935
1 2936
1 2937
1 2938
1 2939
1 2940
1 2941
1 2942
1 2943
1 2944
1 2945
1 2946
1 2947
1 2948
1 2949
1 2950
1 2951
1 2952
1 2953
1 2954
1 2955
1 2956
1 2957
1 2958
1 2959
1 2960
1 2961
1 2962
1 2963
1 2964
1 2965
1 2966
1 2967
1 2968
1 2969
1 2970
1 2971
1 2972
1 2973
1 2974
1 2975
1 2976
1 2977
1 2978
1 2979
1 2980
1 2981
1 2982
1 2983
1 2984
1 2985
1 2986
1 2987
1 2988
1 2989
1 2990
1 2991
1 2992
1 2993
1 2994
1 2995
1 2996
1 2997
1 2998
1 2999
1 3000
1 3001
1 3002
1 3003
1 3004
1 3005
1 3006
1 3007
1 3008
1 3009
1 3010
1 3011
1 3012
1 3013
1 3014
1 3015
1 3016
1 3017
1 3018
1 3019
1 3020
1 3021
1 3022
1 3023
1 3024
1 3025
1 3026
1 3027
1 3028
1 3029
1 3030
1 3031
1 3032
1 3033
1 3034
1 3035
1 3036
1 3037
1 3038
1 3039
1 3040
1 3041
1 3042
1 3043
1 3044
1 3045
1 3046
1 3047
1 3048
1 3049
1 3050
1 3051
1 3052
1 3053
1 3054
1 3055
1 3056
1 3057
1 3058
1 3059
1 3060
1 3061
1 3062
1 3063
1 3064
1 3065
1 3066
1 3067
1 3068
1 3069
1 3070
1 3071
1 3072
1 3073
1 3074
1 3075
1 3076
1 3077
1 3078
1 3079
1 3080
1 3081
1 3082
1 3083
1 3084
1 3085
1 3086
1 3087
1 3088
1 3089
1 3090
1 3091
1 3092
1 3093
1 3094
1 3095
1 3096
1 3097
1 3098
1 3099
1 3100
1 3101
1 3102
1 3103
1 3104
1 3105
1 3106
1 3107
1 3108
1 3109
1 3110
1 3111
1 3112
1 3113
1 3114
1 3115
1 3116
1 3117
1 3118
1 3119
1 3120
1 3121
1 3122
1 3123
1 3124
1 3125
1 3126
1 3127
1 3128
1 3129
1 3130
1 3131
1 3132
1 3133
1 3134
1 3135
1 3136
1 3137
1 3138
1 3139
1 3140
1 3141
1 3142
1 3143
1 3144
1 3145
1 3146
1 3147
1 3148
1 3149
1 3150
1 3151
1 3152
1 3153
1 3154
1 3155
1 3156
1 3157
1 3158
1 3159
1 3160
1 3161
1 3162
1 3163
1 3164
1 3165
1 3166
1 3167
1 3168
1 3169
1 3170
1 3171
1 3172
1 3173
1 3174
1 3175
1 3176
1 3177
1 3178
1 3179
1 3180
1 3181
1 3182
1 3183
1 3184
1 3185
1 3186
1 3187
1 3188
1 3189
1 3190
1 3191
1 3192
1 3193
1 3194
1 3195
1 3196
1 3197
1 3198
1 3199
1 3200
1 3201
1 3202
1 3203
1 3204
1 3205
1 3206
1 3207
1 3208
1 3209
1 3210
1 3211
1 3212
1 3213
1 3214
1 3215
1 3216
1 3217
1 3218
1 3219
1 3220
1 3221
1 3222
1 3223
1 3224
1 3225
1 3226
1 3227
1 3228
1 3229
1 3230
1 3231
1 3232
1 3233
1 3234
1 3235
1 3236
1 3237
1 3238
1 3239
1 3240
1 3241
1 3242
1 3243
1 3244
1 3245
1 3246
1 3247
1 3248
1 3249
1 3250
1 3251
1 3252
1 3253
1 3254
1 3255
1 3256
1 3257
1 3258
1 3259
1 3260
1 3261
1 3262
1 3263
1 3264
1 3265
1 3266
1 3267
1 3268
1 3269
1 3270
1 3271
1 3272
1 3273
1 3274
1 3275
1 3276
1 3277
1 3278
1 3279
1 3280
1 3281
1 3282
1 3283
1 3284
1 3285
1 3286
1 3287
1 3288
1 3289
1 3290
1 3291
1 3292
1 3293
1 3294
1 3295
1 3296
1 3297
1 3298
1 3299
1 3300
1 3301
1 3302
1 3303
1 3304
1 3305
1 3306
1 3307
1 3308
1 3309
1 3310
1 3311
1 3312
1 3313
1 3314
1 3315
1 3316
1 3317
1 3318
1 3319
1 3320
1 3321
1 3322
1 3323
1 3324
1 3325
1 3326
1 3327
1 3328
1 3329
1 3330
1 3331
1 3332
1 3333
1 3334
1 3335
1 3336
1 3337
1 3338
1 3339
1 3340
1 3341
1 3342
1 3343
1 3344
1 3345
1 3346
1 3347
1 3348
1 3349
1 3350
1 3351
1 3352
1 3353
1 3354
1 3355
1 3356
1 3357
1 3358
1 3359
1 3360
1 3361
1 3362
1 3363
1 3364
1 3365
1 3366
1 3367
1 3368
1 3369
1 3370
1 3371
1 3372
1 3373
1 3374
1 3375
1 3376
1 3377
1 3378
1 3379
1 3380
1 3381
1 3382
1 3383
1 3384
1 3385
1 3386
1 3387
1 3388
1 3389
1 3390
1 3391
1 3392
1 3393
1 3394
1 3395
1 3396
1 3397
1 3398
1 3399
1 3400
1 3401
1 3402
1 3403
1 3404
1 3405
1 3406
1 3407
1 3408
1 3409
1 3410
1 3411
1 3412
1 3413
1 3414
1 3415
1 3416
1 3417
1 3418
1 3419
1 3420
1 3421
1 3422
1 3423
1 3424
1 3425
1 3426
1 3427
1 3428
1 3429
1 3430
1 3431
1 3432
1 3433
1 3434
1 3435
1 3436
1 3437
1 3438
1 3439
1 3440
1 3441
1 3442
1 3443
1 3444
1 3445
1 3446
1 3447
1 3448
1 3449
1 3450
1 3451
1 3452
1 3453
1 3454
1 3455
1 3456
1 3457
1 3458
1 3459
1 3460
1 3461
1 3462
1 3463
1 3464
1 3465
1 3466
1 3467
1 3468
1 3469
1 3470
1 3471
1 3472
1 3473
1 3474
1 3475
1 3476
1 3477
1 3478
1 3479
1 3480
1 3481
1 3482
1 3483
1 3484
1 3485
1 3486
1 3487
1 3488
1 3489
1 3490
1 3491
1 3492
1 3493
1 3494
1 3495
1 3496
1 3497
1 3498
1 3499
1 3500
1 3501
1 3502
1 3503
1 3504
1 3505
1 3506
1 3507
1 3508
1 3509
1 3510
1 3511
1 3512
1 3513
1 3514
1 3515
1 3516
1 3517
1 3518
1 3519
1 3520
1 3521
1 3522
1 3523
1 3524
1 3525
1 3526
1 3527
1 3528
1 3529
1 3530
1 3531
1 3532
1 3533
1 3534
1 3535
1 3536
1 3537
1 3538
1 3539
1 3540
1 3541
1 3542
1 3543
1 3544
1 3545
1 3546
1 3547
1 3548
1 3549
1 3550
1 3551
1 3552
1 3553
1 3554
1 3555
1 3556
1 3557
1 3558
1 3559
1 3560
1 3561
1 3562
1 3563
1 3564
1 3565
1 3566
1 3567
1 3568
1 3569
1 3570
1 3571
1 3572
1 3573
1 3574
1 3575
1 3576
1 3577
1 3578
1 3579
1 3580
1 3581
1 3582
1 3583
1 3584
1 3585
1 3586
1 3587
1 3588
1 3589
1 3590
1 3591
1 3592
1 3593
1 3594
1 3595
1 3596
1 3597
1 3598
1 3599
1 3600
1 3601
1 3602
1 3603
1 3604
1 3605
1 3606
1 3607
1 3608
1 3609
1 3610
1 3611
1 3612
1 3613
1 3614
1 3615
1 3616
1 3617
1 3618
1 3619
1 3620
1 3621
1 3622
1 3623
1 3624
1 3625
1 3626
1 3627
1 3628
1 3629
1 3630
1 3631
1 3632
1 3633
1 3634
1 3635
1 3636
1 3637
1 3638
1 3639
1 3640
1 3641
1 3642
1 3643
1 3644
1 3645
1 3646
1 3647
1 3648
1 3649
1 3650
1 3651
1 3652
1 3653
1 3654
1 3655
1 3656
1 3657
1 3658
1 3659
1 3660
1 3661
1 3662
1 3663
1 3664
1 3665
1 3666
1 3667
1 3668
1 3669
1 3670
1 3671
1 3672
1 3673
1 3674
1 3675
1 3676
1 3677
1 3678
1 3679
1 3680
1 3681
1 3682
1 3683
1 3684
1 3685
1 3686
1 3687
1 3688
1 3689
1 3690
1 3691
1 3692
1 3693
1 3694
1 3695
1 3696
1 3697
1 3698
1 3699
1 3700
1 3701
1 3702
1 3703
1 3704
1 3705
1 3706
1 3707
1 3708
1 3709
1 3710
1 3711
1 3712
1 3713
1 3714
1 3715
1 3716
1 3717
1 3718
1 3719
1 3720
1 3721
1 3722
1 3723
1 3724
1 3725
1 3726
1 3727
1 3728
1 3729
1 3730
1 3731
1 3732
1 3733
1 3734
1 3735
1 3736
1 3737
1 3738
1 3739
1 3740
1 3741
1 3742
1 3743
1 3744
1 3745
1 3746
1 3747
1 3748
1 3749
1 3750
1 3751
1 3752
1 3753
1 3754
1 3755
1 3756
1 3757
1 3758
1 3759
1 3760
1 3761
1 3762
1 3763
1 3764
1 3765
1 3766
1 3767
1 3768
1 3769
1 3770
1 3771
1 3772
1 3773
1 3774
1 3775
1 3776
1 3777
1 3778
1 3779
1 3780
1 3781
1 3782
1 3783
1 3784
1 3785
1 3786
1 3787
1 3788
1 3789
1 3790
1 3791
1 3792
1 3793
1 3794
1 3795
1 3796
1 3797
1 3798
1 3799
1 3800
1 3801
1 3802
1 3803
1 3804
1 3805
1 3806
1 3807
1 3808
1 3809
1 3810
1 3811
1 3812
1 3813
1 3814
1 3815
1 3816
1 3817
1 3818
1 3819
1 3820
1 3821
1 3822
1 3823
1 3824
1 3825
1 3826
1 3827
1 3828
1 3829
1 3830
1 3831
1 3832
1 3833
1 3834
1 3835
1 3836
1 3837
1 3838
1 3839
1 3840
1 3841
1 3842
1 3843
1 3844
1 3845
1 3846
1 3847
1 3848
1 3849
1 3850
1 3851
1 3852
1 3853
1 3854
1 3855
1 3856
1 3857
1 3858
1 3859
1 3860
1 3861
1 3862
1 3863
1 3864
1 3865
1 3866
1 3867
1 3868
1 3869
1 3870
1 3871
1 3872
1 3873
1 3874
1 3875
1 3876
1 3877
1 3878
1 3879
1 3880
1 3881
1 3882
1 3883
1 3884
1 3885
1 3886
1 3887
1 3888
1 3889
1 3890
1 3891
1 3892
1 3893
1 3894
1 3895
1 3896
1 3897
1 3898
1 3899
1 3900
1 3901
1 3902
1 3903
1 3904
1 3905
1 3906
1 3907
1 3908
1 3909
1 3910
1 3911
1 3912
1 3913
1 3914
1 3915
1 3916
1 3917
1 3918
1 3919
1 3920
1 3921
1 3922
1 3923
1 3924
1 3925
1 3926
1 3927
1 3928
1 3929
1 3930
1 3931
1 3932
1 3933
1 3934
1 3935
1 3936
1 3937
1 3938
1 3939
1 3940
1 3941
1 3942
1 3943
1 3944
1 3945
1 3946
1 3947
1 3948
1 3949
1 3950
1 3951
1 3952
1 3953
1 3954
1 3955
1 3956
1 3957
1 3958
1 3959
1 3960
1 3961
1 3962
1 3963
1 3964
1 3965
1 3966
1 3967
1 3968
1 3969
1 3970
1 3971
1 3972
1 3973
1 3974
1 3975
1 3976
1 3977
1 3978
1 3979
1 3980
1 3981
1 3982
1 3983
1 3984
1 3985
1 3986
1 3987
1 3988
1 3989
1 3990
1 3991
1 3992
1 3993
1 3994
1 3995
1 3996
1 3997
1 3998
1 3999
1 4000
1 4001
1 4002
1 4003
1 4004
1 4005
1 4006
1 4007
1 4008
1 4009
1 4010
1 4011
1 4012
1 4013
1 4014
1 4015
1 4016
1 4017
1 4018
1 4019
1 4020
1 4021
1 4022
1 4023
1 4024
1 4025
1 4026
1 4027
1 4028
1 4029
1 4030
1 4031
1 4032
1 4033
1 4034
1 4035
1 4036
1 4037
1 4038
1 4039
1 4040
1 4041
1 4042
1 4043
1 4044
1 4045
1 4046
1 4047
1 4048
1 4049
1 4050
1 4051
1 4052
1 4053
1 4054
1 4055
1 4056
1 4057
1 4058
1 4059
1 4060
1 4061
1 4062
1 4063
1 4064
1 4065
1 4066
1 4067
1 4068
1 4069
1 4070
1 4071
1 4072
1 4073
1 4074
1 4075
1 4076
1 4077
1 4078
1 4079
1 4080
1 4081
1 4082
1 4083
1 4084
1 4085
1 4086
1 4087
1 4088
1 4089
1 4090
1 4091
1 4092
1 4093
1 4094
1 4095
1 4096
1 4097
1 4098
1 4099
1 4100
1 4101
1 4102
1 4103
1 4104
1 4105
1 4106
1 4107
1 4108
1 4109
1 4110
1 4111
1 4112
1 4113
1 4114
1 4115
1 4116
1 4117
1 4118
1 4119
1 4120
1 4121
1 4122
1 4123
1 4124
1 4125
1 4126
1 4127
1 4128
1 4129
1 4130
1 4131
1 4132
1 4133
1 4134
1 4135
1 4136
1 4137
1 4138
1 4139
1 4140
1 4141
1 4142
1 4143
1 4144
1 4145
1 4146
1 4147
1 4148
1 4149
1 4150
1 4151
1 4152
1 4153
1 4154
1 4155
1 4156
1 4157
1 4158
1 4159
1 4160
1 4161
1 4162
1 4163
1 4164
1 4165
1 4166
1 4167
1 4168
1 4169
1 4170
1 4171
1 4172
1 4173
1 4174
1 4175
1 4176
1 4177
1 4178
1 4179
1 4180
1 4181
1 4182
1 4183
1 4184
1 4185
1 4186
1 4187
1 4188
1 4189
1 4190
1 4191
1 4192
1 4193
1 4194
1 4195
1 4196
1 4197
1 4198
1 4199
1 4200
1 4201
1 4202
1 4203
1 4204
1 4205
1 4206
1 4207
1 4208
1 4209
1 4210
1 4211
1 4212
1 4213
1 4214
1 4215
1 4216
1 4217
1 4218
1 4219
1 4220
1 4221
1 4222
1 4223
1 4224
1 4225
1 4226
1 4227
1 4228
1 4229
1 4230
1 4231
1 4232
1 4233
1 4234
1 4235
1 4236
1 4237
1 4238
1 4239
1 4240
1 4241
1 4242
1 4243
1 4244
1 4245
1 4246
1 4247
1 4248
1 4249
1 4250
1 4251
1 4252
1 4253
1 4254
1 4255
1 4256
1 4257
1 4258
1 4259
1 4260
1 4261
1 4262
1 4263
1 4264
1 4265
1 4266
1 4267
1 4268
1 4269
1 4270
1 4271
1 4272
1 4273
1 4274
1 4275
1 4276
1 4277
1 4278
1 4279
1 4280
1 4281
1 4282
1 4283
1 4284
1 4285
1 4286
1 4287
1 4288
1 4289
1 4290
1 4291
1 4292
1 4293
1 4294
1 4295
1 4296
1 4297
1 4298
1 4299
1 4300
1 4301
1 4302
1 4303
1 4304
1 4305
1 4306
1 4307
1 4308
1 4309
1 4310
1 4311
1 4312
1 4313
1 4314
1 4315
1 4316
1 4317
1 4318
1 4319
1 4320
1 4321
1 4322
1 4323
1 4324
1 4325
1 4326
1 4327
1 4328
1 4329
1 4330
1 4331
1 4332
1 4333
1 4334
1 4335
1 4336
1 4337
1 4338
1 4339
1 4340
1 4341
1 4342
1 4343
1 4344
1 4345
1 4346
1 4347
1 4348
1 4349
1 4350
1 4351
1 4352
1 4353
1 4354
1 4355
1 4356
1 4357
1 4358
1 4359
1 4360
1 4361
1 4362
1 4363
1 4364
1 4365
1 4366
1 4367
1 4368
1 4369
1 4370
1 4371
1 4372
1 4373
1 4374
1 4375
1 4376
1 4377
1 4378
1 4379
1 4380
1 4381
1 4382
1 4383
1 4384
1 4385
1 4386
1 4387
1 4388
1 4389
1 4390
1 4391
1 4392
1 4393
1 4394
1 4395
1 4396
1 4397
1 4398
1 4399
1 4400
1 4401
1 4402
1 4403
1 4404
1 4405
1 4406
1 4407
1 4408
1 4409
1 4410
1 4411
1 4412
1 4413
1 4414
1 4415
1 4416
1 4417
1 4418
1 4419
1 4420
1 4421
1 4422
1 4423
1 4424
1 4425
1 4426
1 4427
1 4428
1 4429
1 4430
1 4431
1 4432
1 4433
1 4434
1 4435
1 4436
1 4437
1 4438
1 4439
1 4440
1 4441
1 4442
1 4443
1 4444
1 4445
1 4446
1 4447
1 4448
1 4449
1 4450
1 4451
1 4452
1 4453
1 4454
1 4455
1 4456
1 4457
1 4458
1 4459
1 4460
1 4461
1 4462
1 4463
1 4464
1 4465
1 4466
1 4467
1 4468
1 4469
1 4470
1 4471
1 4472
1 4473
1 4474
1 4475
1 4476
1 4477
1 4478
1 4479
1 4480
1 4481
1 4482
1 4483
1 4484
1 4485
1 4486
1 4487
1 4488
1 4489
1 4490
1 4491
1 4492
1 4493
1 4494
1 4495
1 4496
1 4497
1 4498
1 4499
1 4500
1 4501
1 4502
1 4503
1 4504
1 4505
1 4506
1 4507
1 4508
1 4509
1 4510
1 4511
1 4512
1 4513
1 4514
1 4515
1 4516
1 4517
1 4518
1 4519
1 4520
1 4521
1 4522
1 4523
1 4524
1 4525
1 4526
1 4527
1 4528
1 4529
1 4530
1 4531
1 4532
1 4533
1 4534
1 4535
1 4536
1 4537
1 4538
1 4539
1 4540
1 4541
1 4542
1 4543
1 4544
1 4545
1 4546
1 4547
1 4548
1 4549
1 4550
1 4551
1 4552
1 4553
1 4554
1 4555
1 4556
1 4557
1 4558
1 4559
1 4560
1 4561
1 4562
1 4563
1 4564
1 4565
1 4566
1 4567
1 4568
1 4569
1 4570
1 4571
1 4572
1 4573
1 4574
1 4575
1 4576
1 4577
1 4578
1 4579
1 4580
1 4581
1 4582
1 4583
1 4584
1 4585
1 4586
1 4587
1 4588
1 4589
1 4590
1 4591
1 4592
1 4593
1 4594
1 4595
1 4596
1 4597
1 4598
1 4599
1 4600
1 4601
1 4602
1 4603
1 4604
1 4605
1 4606
1 4607
1 4608
1 4609
1 4610
1 4611
1 4612
1 4613
1 4614
1 4615
1 4616
1 4617
1 4618
1 4619
1 4620
1 4621
1 4622
1 4623
1 4624
1 4625
1 4626
1 4627
1 4628
1 4629
1 4630
1 4631
1 4632
1 4633
1 4634
1 4635
1 4636
1 4637
1 4638
1 4639
1 4640
1 4641
1 4642
1 4643
1 4644
1 4645
1 4646
1 4647
1 4648
1 4649
1 4650
1 4651
1 4652
1 4653
1 4654
1 4655
1 4656
1 4657
1 4658
1 4659
1 4660
1 4661
1 4662
1 4663
1 4664
1 4665
1 4666
1 4667
1 4668
1 4669
1 4670
1 4671
1 4672
1 4673
1 4674
1 4675
1 4676
1 4677
1 4678
1 4679
1 4680
1 4681
1 4682
1 4683
1 4684
1 4685
1 4686
1 4687
1 4688
1 4689
1 4690
1 4691
1 4692
1 4693
1 4694
1 4695
1 4696
1 4697
1 4698
1 4699
1 4700
1 4701
1 4702
1 4703
1 4704
1 4705
1 4706
1 4707
1 4708
1 4709
1 4710
1 4711
1 4712
1 4713
1 4714
1 4715
1 4716
1 4717
1 4718
1 4719
1 4720
1 4721
1 4722
1 4723
1 4724
1 4725
1 4726
1 4727
1 4728
1 4729
1 4730
1 4731
1 4732
1 4733
1 4734
1 4735
1 4736
1 4737
1 4738
1 4739
1 4740
1 4741
1 4742
1 4743
1 4744
1 4745
1 4746
1 4747
1 4748
1 4749
1 4750
1 4751
1 4752
1 4753
1 4754
1 4755
1 4756
1 4757
1 4758
1 4759
1 4760
1 4761
1 4762
1 4763
1 4764
1 4765
1 4766
1 4767
1 4768
1 4769
1 4770
1 4771
1 4772
1 4773
1 4774
1 4775
1 4776
1 4777
1 4778
1 4779
1 4780
1 4781
1 4782
1 4783
1 4784
1 4785
1 4786
1 4787
1 4788
1 4789
1 4790
1 4791
1 4792
1 4793
1 4794
1 4795
1 4796
1 4797
1 4798
1 4799
1 4800
1 4801
1 4802
1 4803
1 4804
1 4805
1 4806
1 4807
1 4808
1 4809
1 4810
1 4811
1 4812
1 4813
1 4814
1 4815
1 4816
1 4817
1 4818
1 4819
1 4820
1 4821
1 4822
1 4823
1 4824
1 4825
1 4826
1 4827
1 4828
1 4829
1 4830
1 4831
1 4832
1 4833
1 4834
1 4835
1 4836
1 4837
1 4838
1 4839
1 4840
1 4841
1 4842
1 4843
1 4844
1 4845
1 4846
1 4847
1 4848
1 4849
1 4850
1 4851
1 4852
1 4853
1 4854
1 4855
1 4856
1 4857
1 4858
1 4859
1 4860
1 4861
1 4862
1 4863
1 4864
1 4865
1 4866
1 4867
1 4868
1 4869
1 4870
1 4871
1 4872
1 4873
1 4874
1 4875
1 4876
1 4877
1 4878
1 4879
1 4880
1 4881
1 4882
1 4883
1 4884
1 4885
1 4886
1 4887
1 4888
1 4889
1 4890
1 4891
1 4892
1 4893
1 4894
1 4895
1 4896
1 4897
1 4898
1 4899
1 4900
1 4901
1 4902
1 4903
1 4904
1 4905
1 4906
1 4907
1 4908
1 4909
1 4910
1 4911
1 4912
1 4913
1 4914
1 4915
1 4916
1 4917
1 4918
1 4919
1 4920
1 4921
1 4922
1 4923
1 4924
1 4925
1 4926
1 4927
1 4928
1 4929
1 4930
1 4931
1 4932
1 4933
1 4934
1 4935
1 4936
1 4937
1 4938
1 4939
1 4940
1 4941
1 4942
1 4943
1 4944
1 4945
1 4946
1 4947
1 4948
1 4949
1 4950
1 4951
1 4952
1 4953
1 4954
1 4955
1 4956
1 4957
1 4958
1 4959
1 4960
1 4961
1 4962
1 4963
1 4964
1 4965
1 4966
1 4967
1 4968
1 4969
1 4970
1 4971
1 4972
1 4973
1 4974
1 4975
1 4976
1 4977
1 4978
1 4979
1 4980
1 4981
1 4982
1 4983
1 4984
1 4985
1 4986
1 4987
1 4988
1 4989
1 4990
1 4991
1 4992
1 4993
1 4994
1 4995
1 4996
1 4997
1 4998
1 4999
CELL_TYPES 5000
1 
1 
1 
1 
1 
1 
1 
1 
1 
1 
1 
1 
1 
1 
1 
1 
1 
1 
1 
1 
1 
1 
1 
1 
1 
1 
1 
1 
1 
1 
1 
1 
1 
1 
1 
1 
1 
1 
1 
1 
1 
1 
1 
1 
1 
1 
1 
1 
1 
1 
1 
1 
1 
1 
1 
1 
1 
1 
1 
1 
1 
1 
1 
1 
1 
1 
1 
1 
1 
1 
1 
1 
1 
1 
1 
1 
1 
1 
1 
1 
1 
1 
1 
1 
1 
1 
1 
1 
1 
1 
1 
1 
1 
1 
1 
1 
1 
1 
1 
1 
1 
1 
1 
1 
1 
1 
1 
1 
1 
1 
1 
1 
1 
1 
1 
1 
1 
1 
1 
1 
1 
1 
1 
1 
1 
1 
1 
1 
1 
1 
1 
1 
1 
1 
1 
1 
1 
1 
1 
1 
1 
1 
1 
1 
1 
1 
1 
1 
1 
1 
1 
1 
1 
1 
1 
1 
1 
1 
1 
1 
1 
1 
1 
1 
1 
1 
1 
1 
1 
1 
1 
1 
1 
1 
1 
1 
1 
1 
1 
1 
1 
1 
1 
1 
1 
1 
1 
1 
1 
1 
1 
1 
1 
1 
1 
1 
1 
1 
1 
1 
1 
1 
1 
1 
1 
1 
1 
1 
1 
1 
1 
1 
1 
1 
1 
1 
1 
1 
1 
1 
1 
1 
1 
1 
1 
1 
1 
1 
1 
1 
1 
1 
1 
1 
1 
1 
1 
1 
1 
1 
1 
1 
1 
1 
1 
1 
1 
1 
1 
1 
1 
1 
1 
1 
1 
1 
1 
1 
1 
1 
1 
1 
1 
1 
1 
1 
1 
1 
1 
1 
1 
1 
1 
1 
1 
1 
1 
1 
1 
1 
1 
1 
1 
1 
1 
1 
1 
1 
1 
1 
1 
1 
1 
1 
1 
1 
1 
1 
1 
1 
1 
1 
1 
1 
1 
1 
1 
1 
1 
1 
1 
1 
1 
1 
1 
1 
1 
1 
1 
1 
1 
1 
1 
1 
1 
1 
1 
1 
1 
1 
1 
1 
1 
1 
1 
1 
1 
1 
1 
1 
1 
1 
1 
1 
1 
1 
1 
1 
1 
1 
1 
1 
1 
1 
1 
1 
1 
1 
1 
1 
1 
1 
1 
1 
1 
1 
1 
1 
1 
1 
1 
1 
1 
1 
1 
1 
1 
1 
1 
1 
1 
1 
1 
1 
1 
1 
1 
1 
1 
1 
1 
1 
1 
1 
1 
1 
1 
1 
1 
1 
1 
1 
1 
1 
1 
1 
1 
1 
1 
1 
1 
1 
1 
1 
1 
1 
1 
1 
1 
1 
1 
1 
1 
1 
1 
1 
1 
1 
1 
1 
1 
1 
1 
1 
1 
1 
1 
1 
1 
1 
1 
1 
1 
1 
1 
1 
1 
1 
1 
1 
1 
1 
1 
1 
1 
1 
1 
1 
1 
1 
1 
1 
1 
1 
1 
1 
1 
1 
1 
1 
1 
1 
1 
1 
1 
1 
1 
1 
1 
1 
1 
1 
1 
1 
1 
1 
1 
1 
1 
1 
1 
1 
1 
1 
1 
1 
1 
1 
1 
1 
1 
1 
1 
1 
1 
1 
1 
1 
1 
1 
1 
1 
1 
1 
1 
1 
1 
1 
1 
1 
1 
1 
1 
1 
1 
1 
1 
1 
1 
1 
1 
1 
1 
1 
1 
1 
1 
1 
1 
1 
1 
1 
1 
1 
1 
1 
1 
1 
1 
1 
1 
1 
1 
1 
1 
1 
1 
1 
1 
1 
1 
1 
1 
1 
1 
1 
1 
1 
1 
1 
1 
1 
1 
1 
1 
1 
1 
1 
1 
1 
1 
1 
1 
1 
1 
1 
1 
1 
1 
1 
1 
1 
1 
1 
1 
1 
1 
1 
1 
1 
1 
1 
1 
1 
1 
1 
1 
1 
1 
1 
1 
1 
1 
1 
1 
1 
1 
1 
1 
1 
1 
1 
1 
1 
1 
1 
1 
1 
1 
1 
1 
1 
1 
1 
1 
1 
1 
1 
1 
1 
1 
1 
1 
1 
1 
1 
1 
1 
1 
1 
1 
1 
1 
1 
1 
1 
1 
1 
1 
1 
1 
1 
1 
1 
1 
1 
1 
1 
1 
1 
1 
1 
1 
1 
1 
1 
1 
1 
1 
1 
1 
1 
1 
1 
1 
1 
1 
1 
1 
1 
1 
1 
1 
1 
1 
1 
1 
1 
1 
1 
1 
1 
1 
1 
1 
1 
1 
1 
1 
1 
1 
1 
1 
1 
1 
1 
1 
1 
1 
1 
1 
1 
1 
1 
1 
1 
1 
1 
1 
1 
1 
1 
1 
1 
1 
1 
1 
1 
1 
1 
1 
1 
1 
1 
1 
1 
1 
1 
1 
1 
1 
1 
1 
1 
1 
1 
1 
1 
1 
1 
1 
1 
1 
1 
1 
1 
1 
1 
1 
1 
1 
1 
1 
1 
1 
1 
1 
1 
1 
1 
1 
1 
1 
1 
1 
1 
1 
1 
1 
1 
1 
1 
1 
1 
1 
1 
1 
1 
1 
1 
1 
1 
1 
1 
1 
1 
1 
1 
1 
1 
1 
1 
1 
1 
1 
1 
1 
1 
1 
1 
1 
1 
1 
1 
1 
1 
1 
1 
1 
1 
1 
1 
1 
1 
1 
1 
1 
1 
1 
1 
1 
1 
1 
1 
1 
1 
1 
1 
1 
1 
1 
1 
1 
1 
1 
1 
1 
1 
1 
1 
1 
1 
1 
1 
1 
1 
1 
1 
1 
1 
1 
1 
1 
1 
1 
1 
1 
1 
1 
1 
1 
1 
1 
1 
1 
1 
1 
1 
1 
1 
1 
1 
1 
1 
1 
1 
1 
1 
1 
1 
1 
1 
1 
1 
1 
1 
1 
1 
1 
1 
1 
1 
1 
1 
1 
1 
1 
1 
1 
1 
1 
1 
1 
1 
1 
1 
1 
1 
1 
1 
1 
1 
1 
1 
1 
1 
1 
1 
1 
1 
1 
1 
1 
1 
1 
1 
1 
1 
1 
1 
1 
1 
1 
1 
1 
1 
1 
1 
1 
1 
1 
1 
1 
1 
1 
1 
1 
1 
1 
1 
1 
1 
1 
1 
1 
1 
1 
1 
1 
1 
1 
1 
1 
1 
1 
1 
1 
1 
1 
1 
1 
1 
1 
1 
1 
1 
1 
1 
1 
1 
1 
1 
1 
1 
1 
1 
1 
1 
1 
1 
1 
1 
1 
1 
1 
1 
1 
1 
1 
1 
1 
1 
1 
1 
1 
1 
1 
1 
1 
1 
1 
1 
1 
1 
1 
1 
1 
1 
1 
1 
1 
1 
1 
1 
1 
1 
1 
1 
1 
1 
1 
1 
1 
1 
1 
1 
1 
1 
1 
1 
1 
1 
1 
1 
1 
1 
1 
1 
1 
1 
1 
1 
1 
1 
1 
1 
1 
1 
1 
1 
1 
1 
1 
1 
1 
1 
1 
1 
1 
1 
1 
1 
1 
1 
1 
1 
1 
1 
1 
1 
1 
1 
1 
1 
1 
1 
1 
1 
1 
1 
1 
1 
1 
1 
1 
1 
1 
1 
1 
1 
1 
1 
1 
1 
1 
1 
1 
1 
1 
1 
1 
1 
1 
1 
1 
1 
1 
1 
1 
1 
1 
1 
1 
1 
1 
1 
1 
1 
1 
1 
1 
1 
1 
1 
1 
1 
1 
1 
1 
1 
1 
1 
1 
1 
1 
1 
1 
1 
1 
1 
1 
1 
1 
1 
1 
1 
1 
1 
1 
1 
1 
1 
1 
1 
1 
1 
1 
1 
1 
1 
1 
1 
1 
1 
1 
1 
1 
1 
1 
1 
1 
1 
1 
1 
1 
1 
1 
1 
1 
1 
1 
1 
1 
1 
1 
1 
1 
1 
1 
1 
1 
1 
1 
1 
1 
1 
1 
1 
1 
1 
1 
1 
1 
1 
1 
1 
1 
1 
1 
1 
1 
1 
1 
1 
1 
1 
1 
1 
1 
1 
1 
1 
1 
1 
1 
1 
1 
1 
1 
1 
1 
1 
1 
1 
1 
1 
1 
1 
1 
1 
1 
1 
1 
1 
1 
1 
1 
1 
1 
1 
1 
1 
1 
1 
1 
1 
1 
1 
1 
1 
1 
1 
1 
1 
1 
1 
1 
1 
1 
1 
1 
1 
1 
1 
1 
1 
1 
1 
1 
1 
1 
1 
1 
1 
1 
1 
1 
1 
1 
1 
1 
1 
1 
1 
1 
1 
1 
1 
1 
1 
1 
1 
1 
1 
1 
1 
1 
1 
1 
1 
1 
1 
1 
1 
1 
1 
1 
1 
1 
1 
1 
1 
1 
1 
1 
1 
1 
1 
1 
1 
1 
1 
1 
1 
1 
1 
1 
1 
1 
1 
1 
1 
1 
1 
1 
1 
1 
1 
1 
1 
1 
1 
1 
1 
1 
1 
1 
1 
1 
1 
1 
1 
1 
1 
1 
1 
1 
1 
1 
1 
1 
1 
1 
1 
1 
1 
1 
1 
1 
1 
1 
1 
1 
1 
1 
1 
1 
1 
1 
1 
1 
1 
1 
1 
1 
1 
1 
1 
1 
1 
1 
1 
1 
1 
1 
1 
1 
1 
1 
1 
1 
1 
1 
1 
1 
1 
1 
1 
1 
1 
1 
1 
1 
1 
1 
1 
1 
1 
1 
1 
1 
1 
1 
1 
1 
1 
1 
1 
1 
1 
1 
1 
1 
1 
1 
1 
1 
1 
1 
1 
1 
1 
1 
1 
1 
1 
1 
1 
1 
1 
1 
1 
1 
1 
1 
1 
1 
1 
1 
1 
1 
1 
1 
1 
1 
1 
1 
1 
1 
1 
1 
1 
1 
1 
1 
1 
1 
1 
1 
1 
1 
1 
1 
1 
1 
1 
1 
1 
1 
1 
1 
1 
1 
1 
1 
1 
1 
1 
1 
1 
1 
1 
1 
1 
1 
1 
1 
1 
1 
1 
1 
1 
1 
1 
1 
1 
1 
1 
1 
1 
1 
1 
1 
1 
1 
1 
1 
1 
1 
1 
1 
1 
1 
1 
1 
1 
1 
1 
1 
1 
1 
1 
1 
1 
1 
1 
1 
1 
1 
1 
1 
1 
1 
1 
1 
1 
1 
1 
1 
1 
1 
1 
1 
1 
1 
1 
1 
1 
1 
1 
1 
1 
1 
1 
1 
1 
1 
1 
1 
1 
1 
1 
1 
1 
1 
1 
1 
1 
1 
1 
1 
1 
1 
1 
1 
1 
1 
1 
1 
1 
1 
1 
1 
1 
1 
1 
1 
1 
1 
1 
1 
1 
1 
1 
1 
1 
1 
1 
1 
1 
1 
1 
1 
1 
1 
1 
1 
1 
1 
1 
1 
1 
1 
1 
1 
1 
1 
1 
1 
1 
1 
1 
1 
1 
1 
1 
1 
1 
1 
1 
1 
1 
1 
1 
1 
1 
1 
1 
1 
1 
1 
1 
1 
1 
1 
1 
1 
1 
1 
1 
1 
1 
1 
1 
1 
1 
1 
1 
1 
1 
1 
1 
1 
1 
1 
1 
1 
1 
1 
1 
1 
1 
1 
1 
1 
1 
1 
1 
1 
1 
1 
1 
1 
1 
1 
1 
1 
1 
1 
1 
1 
1 
1 
1 
1 
1 
1 
1 
1 
1 
1 
1 
1 
1 
1 
1 
1 
1 
1 
1 
1 
1 
1 
1 
1 
1 
1 
1 
1 
1 
1 
1 
1 
1 
1 
1 
1 
1 
1 
1 
1 
1 
1 
1 
1 
1 
1 
1 
1 
1 
1 
1 
1 
1 
1 
1 
1 
1 
1 
1 
1 
1 
1 
1 
1 
1 
1 
1 
1 
1 
1 
1 
1 
1 
1 
1 
1 
1 
1 
1 
1 
1 
1 
1 
1 
1 
1 
1 
1 
1 
1 
1 
1 
1 
1 
1 
1 
1 
1 
1 
1 
1 
1 
1 
1 
1 
1 
1 
1 
1 
1 
1 
1 
1 
1 
1 
1 
1 
1 
1 
1 
1 
1 
1 
1 
1 
1 
1 
1 
1 
1 
1 
1 
1 
1 
1 
1 
1 
1 
1 
1 
1 
1 
1 
1 
1 
1 
1 
1 
1 
1 
1 
1 
1 
1 
1 
1 
1 
1 
1 
1 
1 
1 
1 
1 
1 
1 
1 
1 
1 
1 
1 
1 
1 
1 
1 
1 
1 
1 
1 
1 
1 
1 
1 
1 
1 
1 
1 
1 
1 
1 
1 
1 
1 
1 
1 
1 
1 
1 
1 
1 
1 
1 
1 
1 
1 
1 
1 
1 
1 
1 
1 
1 
1 
1 
1 
1 
1 
1 
1 
1 
1 
1 
1 
1 
1 
1 
1 
1 
1 
1 
1 
1 
1 
1 
1 
1 
1 
1 
1 
1 
1 
1 
1 
1 
1 
1 
1 
1 
1 
1 
1 
1 
1 
1 
1 
1 
1 
1 
1 
1 
1 
1 
1 
1 
1 
1 
1 
1 
1 
1 
1 
1 
1 
1 
1 
1 
1 
1 
1 
1 
1 
1 
1 
1 
1 
1 
1 
1 
1 
1 
1 
1 
1 
1 
1 
1 
1 
1 
1 
1 
1 
1 
1 
1 
1 
1 
1 
1 
1 
1 
1 
1 
1 
1 
1 
1 
1 
1 
1 
1 
1 
1 
1 
1 
1 
1 
1 
1 
1 
1 
1 
1 
1 
1 
1 
1 
1 
1 
1 
1 
1 
1 
1 
1 
1 
1 
1 
1 
1 
1 
1 
1 
1 
1 
1 
1 
1 
1 
1 
1 
1 
1 
1 
1 
1 
1 
1 
1 
1 
1 
1 
1 
1 
1 
1 
1 
1 
1 
1 
1 
1 
1 
1 
1 
1 
1 
1 
1 
1 
1 
1 
1 
1 
1 
1 
1 
1 
1 
1 
1 
1 
1 
1 
1 
1 
1 
1 
1 
1 
1 
1 
1 
1 
1 
1 
1 
1 
1 
1 
1 
1 
1 
1 
1 
1 
1 
1 
1 
1 
1 
1 
1 
1 
1 
1 
1 
1 
1 
1 
1 
1 
1 
1 
1 
1 
1 
1 
1 
1 
1 
1 
1 
1 
1 
1 
1 
1 
1 
1 
1 
1 
1 
1 
1 
1 
1 
1 
1 
1 
1 
1 
1 
1 
1 
1 
1 
1 
1 
1 
1 
1 
1 
1 
1 
1 
1 
1 
1 
1 
1 
1 
1 
1 
1 
1 
1 
1 
1 
1 
1 
1 
1 
1 
1 
1 
1 
1 
1 
1 
1 
1 
1 
1 
1 
1 
1 
1 
1 
1 
1 
1 
1 
1 
1 
1 
1 
1 
1 
1 
1 
1 
1 
1 
1 
1 
1 
1 
1 
1 
1 
1 
1 
1 
1 
1 
1 
1 
1 
1 
1 
1 
1 
1 
1 
1 
1 
1 
1 
1 
1 
1 
1 
1 
1 
1 
1 
1 
1 
1 
1 
1 
1 
1 
1 
1 
1 
1 
1 
1 
1 
1 
1 
1 
1 
1 
1 
1 
1 
1 
1 
1 
1 
1 
1 
1 
1 
1 
1 
1 
1 
1 
1 
1 
1 
1 
1 
1 
1 
1 
1 
1 
1 
1 
1 
1 
1 
1 
1 
1 
1 
1 
1 
1 
1 
1 
1 
1 
1 
1 
1 
1 
1 
1 
1 
1 
1 
1 
1 
1 
1 
1 
1 
1 
1 
1 
1 
1 
1 
1 
1 
1 
1 
1 
1 
1 
1 
1 
1 
1 
1 
1 
1 
1 
1 
1 
1 
1 
1 
1 
1 
1 
1 
1 
1 
1 
1 
1 
1 
1 
1 
1 
1 
1 
1 
1 
1 
1 
1 
1 
1 
1 
1 
1 
1 
1 
1 
1 
1 
1 
1 
1 
1 
1 
1 
1 
1 
1 
1 
1 
1 
1 
1 
1 
1 
1 
1 
1 
1 
1 
1 
1 
1 
1 
1 
1 
1 
1 
1 
1 
1 
1 
1 
1 
1 
1 
1 
1 
1 
1 
1 
1 
1 
1 
1 
1 
1 
1 
1 
1 
1 
1 
1 
1 
1 
1 
1 
1 
1 
1 
1 
1 
1 
1 
1 
1 
1 
1 
1 
1 
1 
1 
1 
1 
1 
1 
1 
1 
1 
1 
1 
1 
1 
1 
1 
1 
1 
1 
1 
1 
1 
1 
1 
1 
1 
1 
1 
1 
1 
1 
1 
1 
1 
1 
1 
1 
1 
1 
1 
1 
1 
1 
1 
1 
1 
1 
1 
1 
1 
1 
1 
1 
1 
1 
1 
1 
1 
1 
1 
1 
1 
1 
1 
1 
1 
1 
1 
1 
1 
1 
1 
1 
1 
1 
1 
1 
1 
1 
1 
1 
1 
1 
1 
1 
1 
1 
1 
1 
1 
1 
1 
1 
1 
1 
1 
1 
1 
1 
1 
1 
1 
1 
1 
1 
1 
1 
1 
1 
1 
1 
1 
1 
1 
1 
1 
1 
1 
1 
1 
1 
1 
1 
1 
1 
1 
1 
1 
1 
1 
1 
1 
1 
1 
1 
1 
1 
1 
1 
1 
1 
1 
1 
1 
1 
1 
1 
1 
1 
1 
1 
1 
1 
1 
1 
1 
1 
1 
1 
1 
1 
1 
1 
1 
1 
1 
1 
1 
1 
1 
1 
1 
1 
1 
1 
1 
1 
1 
1 
1 
1 
1 
1 
1 
1 
1 
1 
1 
1 
1 
1 
1 
1 
1 
1 
1 
1 
1 
1 
1 
1 
1 
1 
1 
1 
1 
1 
1 
1 
1 
1 
1 
1 
1 
1 
1 
1 
1 
1 
1 
1 
1 
1 
1 
1 
1 
1 
1 
1 
1 
1 
1 
1 
1 
1 
1 
1 
1 
1 
1 
1 
1 
1 
1 
1 
1 
1 
1 
1 
1 
1 
1 
1 
1 
1 
1 
1 
1 
1 
1 
1 
1 
1 
1 
1 
1 
1 
1 
1 
1 
1 
1 
1 
1 
1 
1 
1 
1 
1 
1 
1 
1 
1 
1 
1 
1 
1 
1 
1 
1 
1 
1 
1 
1 
1 
1 
1 
1 
1 
1 
1 
1 
1 
1 
1 
1 
1 
1 
1 
1 
1 
1 
1 
1 
1 
1 
1 
1 
1 
1 
1 
1 
1 
1 
1 
1 
1 
1 
1 
1 
1 
1 
1 
1 
1 
1 
1 
1 
1 
1 
1 
1 
1 
1 
1 
1 
1 
1 
1 
1 
1 
1 
1 
1 
1 
1 
1 
1 
1 
1 
1 
1 
1 
1 
1 
1 
1 
1 
1 
1 
1 
1 
1 
1 
1 
1 
1 
1 
1 
1 
1 
1 
1 
1 
1 
1 
1 
1 
1 
1 
1 
1 
1 
1 
1 
1 
1 
1 
1 
1 
1 
1 
1 
1 
1 
1 
1 
1 
1 
1 
1 
1 
1 
1 
1 
1 
1 
1 
1 
1 
1 
1 
1 
1 
1 
1 
1 
1 
1 
1 
1 
1 
1 
1 
1 
1 
1 
1 
1 
1 
1 
1 
1 
1 
1 
1 
1 
1 
1 
1 
1 
1 
1 
1 
1 
1 
1 
1 
1 
1 
1 
1 
1 
1 
1 
1 
1 
1 
1 
1 
1 
1 
1 
1 
1 
1 
1 
1 
1 
1 
1 
1 
1 
1 
1 
1 
1 
1 
1 
1 
1 
1 
1 
1 
1 
1 
1 
1 
1 
1 
1 
1 
1 
1 
1 
1 
1 
1 
1 
1 
1 
1 
1 
1 
1 
1 
1 
1 
1 
1 
1 
1 
1 
1 
1 
1 
1 
1 
1 
1 
1 
1 
1 
1 
1 
1 
1 
1 
1 
1 
1 
1 
1 
1 
1 
1 
1 
1 
1 
1 
1 
1 
1 
1 
1 
1 
1 
1 
1 
1 
1 
1 
1 
1 
1 
1 
1 
1 
1 
1 
1 
1 
1 
1 
1 
1 
1 
1 
1 
1 
1 
1 
1 
1 
1 
1 
1 
1 
1 
1 
1 
1 
1 
1 
1 
1 
1 
1 
1 
1 
1 
1 
1 
1 
1 
1 
1 
1 
1 
1 
1 
1 
1 
1 
1 
1 
1 
1 
1 
1 
1 
1 
1 
1 
1 
1 
1 
1 
1 
1 
1 
1 
1 
1 
1 
1 
1 
1 
1 
1 
1 
1 
1 
1 
1 
1 
1 
1 
1 
1 
1 
1 
1 
1 
1 
1 
1 
1 
1 
1 
1 
1 
1 
1 
1 
1 
1 
1 
1 
1 
1 
1 
1 
1 
1 
1 
1 
1 
1 
1 
1 
1 
1 
1 
1 
1 
1 
1 
1 
1 
1 
1 
1 
1 
1 
1 
1 
1 
1 
1 
1 
1 
1 
1 
1 
1 
1 
1 
1 
1 
1 
1 
1 
1 
1 
1 
1 
1 
1 
1 
1 
1 
1 
1 
1 
1 
1 
1 
1 
1 
1 
1 
1 
1 
1 
1 
1 
1 
1 
1 
1 
1 
1 
1 
1 
1 
1 
1 
1 
1 
1 
1 
1 
1 
1 
1 
1 
1 
1 
1 
1 
1 
1 
1 
1 
1 
1 
1 
1 
1 
1 
1 
1 
1 
1 
1 
1 
1 
1 
1 
1 
1 
1 
1 
1 
1 
1 
1 
1 
1 
1 
1 
1 
1 
1 
1 
1 
1 
1 
1 
1 
1 
1 
1 
1 
1 
1 
1 
1 
1 
1 
1 
1 
1 
1 
1 
1 
1 
1 
1 
1 
1 
1 
1 
1 
1 
1 
1 
1 
1 
1 
1 
1 
1 
1 
1 
1 
1 
1 
1 
1 
1 
1 
1 
1 
1 
1 
1 
1 
1 
1 
1 
1 
1 
1 
1 
1 
1 
1 
1 
1 
1 
1 
1 
1 
1 
1 
1 
1 
1 
1 
1 
1 
1 
1 
1 
1 
1 
1 
1 
1 
1 
1 
1 
1 
1 
1 
1 
1 
1 
1 
1 
1 
1 
1 
1 
1 
1 
1 
1 
1 
1 
1 
1 
1 
1 
1 
1 
1 
1 
1 
1 
1 
1 
1 
1 
1 
1 
1 
1 
1 
1 
1 
1 
1 
1 
1 
1 
1 
1 
1 
1 
1 
1 
1 
1 
1 
1 
1 
1 
1 
1 
1 
1 
1 
1 
1 
1 
1 
1 
1 
1 
1 
1 
1 
1 
1 
1 
1 
1 
1 
1 
1 
1 
1 
1 
1 
1 
1 
1 
1 
1 
1 
1 
1 
1 
1 
1 
1 
1 
1 
1 
1 
1 
1 
1 
1 
1 
1 
1 
1 
1 
1 
1 
1 
1 
1 
1 
1 
1 
1 
1 
1 
1 
1 
1 
1 
1 
1 
1 
1 
1 
1 
1 
1 
1 
1 
1 
1 
1 
1 
1 
1 
1 
1 
1 
1 
1 
1 
1 
1 
1 
1 
1 
1 
1 
1 
1 
1 
1 
1 
1 
1 
1 
1 
1 
1 
1 
1 
1 
1 
1 
1 
1 
1 
1 
1 
1 
1 
1 
1 
1 
1 
1 
1 
1 
1 
1 
1 
1 
1 
1 
1 
1 
1 
1 
1 
1 
1 
1 
1 
1 
1 
1 
1 
1 
1 
1 
1 
1 
1 
1 
1 
1 
1 
1 
1 
1 
1 
1 
1 
1 
1 
1 
1 
1 
1 
1 
1 
1 
1 
1 
1 
1 
1 
1 
1 
1 
1 
1 
1 
1 
1 
1 
1 
1 
1 
1 
1 
1 
1 
1 
1 
1 
1 
1 
1 
1 
1 
1 
1 
1 
1 
1 
1 
1 
1 
1 
1 
1 
1 
1 
1 
1 
1 
1 
1 
1 
1 
1 
1 
1 
1 
1 
1 
1 
1 
1 
1 
1 
1 
1 
1 
1 
1 
1 
1 
1 
1 
1 
1 
1 
1 
1 
1 
1 
1 
1 
1 
1 
1 
1 
1 
1 
1 
1 
1 
1 
1 
1 
1 
1 
1 
1 
1 
1 
1 
1 
1 
1 
1 
1 
1 
1 
1 
1 
1 
1 
1 
1 
1 
1 
1 
1 
1 
1 
1 
1 
1 
1 
1 
1 
1 
1 
1 
1 
1 
1 
1 
1 
1 
1 
1 
1 
1 
1 
1 
1 
1 
1 
1 
1 
1 
1 
1 
1 
1 
1 
1 
1 
1 
1 
1 
1 
1 
1 
1 
1 
1 
1 
1 
1 
1 
1 
1 
1 
1 
1 
1 
1 
1 
1 
1 
1 
1 
1 
1 
1 
1 
1 
1 
1 
1 
1 
1 
1 
1 
1 
1 
1 
1 
1 
1 
1 
1 
1 
1 
1 
1 
1 
1 
1 
1 
1 
1 
1 
1 
1 
1 
1 
1 
1 
1 
1 
1 
1 
1 
1 
1 
1 
1 
1 
1 
1 
1 
1 
1 
1 
1 
1 
1 
1 
1 
1 
1 
1 
1 
1 
1 
1 
1 
1 
1 
1 
1 
1 
1 
1 
1 
1 
1 
1 
1 
1 
1 
1 
1 
1 
1 
1 
1 
1 
1 
1 
1 
1 
1 
1 
1 
1 
1 
1 
1 
1 
1 
1 
1 
1 
1 
1 
1 
1 
1 
1 
1 
1 
1 
1 
1 
1 
1 
1 
1 
1 
1 
1 
1 
1 
1 
1 
1 
1 
1 
1 
1 
1 
1 
1 
1 
1 
1 
1 
1 
1 
1 
1 
1 
1 
1 
1 
1 
1 
1 
1 
1 
1 
1 
1 
1 
1 
1 
1 
1 
1 
1 
1 
1 
1 
1 
1 
1 
1 
1 
1 
1 
1 
1 
1 
1 
1 
1 
1 
1 
1 
1 
1 
1 
1 
1 
1 
1 
1 
1 
1 
1 
1 
1 
1 
1 
1 
1 
1 
1 
1 
1 
1 
1 
1 
1 
1 
1 
1 
1 
1 
1 
1 
1 
1 
1 
1 
1 
1 
1 
1 
1 
1 
1 
1 
1 
1 
1 
1 
1 
1 
1 
1 
1 
1 
1 
1 
1 
1 
1 
1 
1 
1 
1 
1 
1 
1 
1 
1 
1 
1 
1 
1 
1 
1 
1 
1 
1 
1 
1 
1 
1 
1 
1 
1 
1 
1 
1 
1 
1 
1 
1 
1 
1 
1 
1 
1 
1 
1 
1 
1 
1 
1 
1 
1 
1 
1 
1 
1 
1 
1 
1 
1 
1 
1 
1 
1 
1 
1 
1 
1 
1 
1 
1 
1 
1 
1 
1 
1 
1 
1 
1 
1 
1 
1 
1 
1 
1 
1 
1 
1 
1 
1 
1 
1 
1 
1 
1 
1 
1 
1 
1 
1 
1 
1 
1 
1 
1 
1 
1 
1 
1 
1 
1 
1 
1 
1 
1 
1 
1 
1 
1 
1 
1 
1 
1 
1 
1 
1 
1 
1 
1 
1 
1 
1 
1 
1 
1 
1 
1 
1 
1 
1 
1 
1 
1 
1 
1 
1 
1 
1 
1 
1 
1 
1 
1 
1 
1 
1 
1 
1 
1 
1 
1 
1 
1 
1 
1 
1 
1 
1 
1 
1 
1 
1 
1 
1 
1 
1 
1 
1 
1 
1 
1 
1 
1 
1 
1 
1 
1 
1 
1 
1 
1 
1 
1 
1 
1 
1 
1 
1 
1 
1 
1 
1 
1 
1 
1 
1 
1 
1 
1 
1 
1 
1 
1 
1 
1 
1 
1 
1 
1 
1 
1 
1 
1 
1 
1 
1 
1 
1 
1 
1 
1 
1 
1 
1 
1 
1 
1 
1 
1 
1 
1 
1 
1 
1 
1 
1 
1 
1 
1 
1 
1 
1 
1 
1 
1 
1 
1 
1 
1 
1 
1 
1 
1 
1 
1 
1 
1 
1 
1 
1 
1 
1 
1 
1 
1 
1 
1 
1 
1 
1 
1 
1 
1 
1 
1 
1 
1 
1 
1 
1 
1 
1 
1 
1 
1 
1 
1 
1 
1 
1 
1 
1 
1 
1 
1 
1 
1 
1 
1 
1 
1 
1 
1 
1 
1 
1 
1 
1 
1 
1 
1 
1 
1 
1 
1 
1 
1 
1 
1 
1 
1 
1 
1 
1 
1 
1 
1 
1 
1 
1 
1 
1 
1 
1 
1 
1 
1 
1 
1 
1 
1 
1 
1 
1 
1 
1 
1 
1 
1 
1 
1 
1 
1 
1 
1 
1 
1 
1 
1 
1 
1 
1 
1 
1 
1 
1 
1 
1 
1 
1 
1 
1 
1 
1 
1 
1 
1 
1 
1 
1 
1 
1 
1 
1 
1 
1 
1 
1 
1 
1 
1 
1 
1 
1 
1 
1 
1 
1 
1 
1 
1 
1 
1 
1 
1 
1 
1 
1 
1 
1 
1 
1 
1 
1 
1 
1 
1 
1 
1 
1 
1 
1 
1 
1 
1 
1 
1 
1 
1 
1 
1 
1 
1 
1 
1 
1 
1 
1 
1 
1 
1 
1 
1 
1 
1 
1 
1 
1 
1 
1 
1 
1 
1 
1 
1 
1 
1 
1 
1 
1 
1 
1 
1 
1 
1 
1 
1 
1 
1 
1 
1 
1 
1 
1 
1 
1 
1 
1 
1 
1 
1 
1 
1 
1 
1 
1 
1 
1 
1 
1 
1 
1 
1 
1 
1 
1 
1 
1 
1 
1 
1 
1 
1 
1 
1 
1 
1 
1 
1 
1 
1 
1 
1 
1 
1 
1 
1 
1 
1 
1 
1 
1 
1 
1 
1 
1 
1 
1 
1 
1 
1 
1 
1 
1 
1 
1 
1 
1 
1 
1 
1 
1 
1 
1 
1 
1 
1 
1 
1 
1 
1 
1 
1 
1 
1 
1 
1 
1 
1 
1 
1 
1 
1 
1 
1 
1 
1 
1 
1 
1 
1 
1 
1 
1 
1 
1 
1 
1 
1 
1 
1 
1 
1 
1 
1 
1 
1 
1 
1 
1 
1 
1 
1 
1 
1 
1 
1 
1 
1 
1 
1 
1 
1 
1 
1 
1 
1 
1 
1 
1 
1 
1 
1 
1 
1 
1 
1 
1 
1 
1 
1 
1 
1 
1 
1 
1 
1 
1 
1 
1 
1 
1 
1 
1 
1 
1 
1 
1 
1 
1 
1 
1 
1 
1 
1 
1 
1 
1 
1 
1 
1 
1 
1 
1 
1 
1 
1 
1 
1 
1 
1 
1 
1 
1 
1 
1 
1 
1 
1 
1 
1 
1 
1 
1 
1 
1 
1 
1 
1 
1 
1 
1 
1 
1 
1 
1 
1 
1 
1 
1 
1 
1 
1 
1 
1 
1 
1 
1 
1 
1 
1 
1 
1 
1 
1 
1 
1 
1 
1 
1 
1 
1 
1 
1 
1 
1 
1 
1 
1 
1 
1 
1 
1 
1 
1 
1 
1 
1 
1 
1 
1 
1 
1 
1 
1 
1 
1 
1 
1 
1 
1 
1 
1 
1 
1 
1 
1 
1 
1 
1 
1 
1 
1 
1 
1 
1 
1 
1 
1 
1 
1 
1 
1 
1 
1 
1 
1 
1 
1 
1 
1 
1 
1 
1 
1 
1 
1 
1 
1 
1 
1 
1 
1 
1 
1 
1 
1 
1 
1 
1 
1 
1 
1 
1 
1 
1 
1 
1 
1 
1 
1 
1 
1 
1 
1 
1 
1 
1 
1 
1 
1 
1 
1 
1 
1 
1 
1 
1 
1 
1 
1 
1 
1 
1 
1 
1 
1 
1 
1 
1 
1 
1 
1 
1 
1 
1 
1 
1 
1 
1 
1 
1 
1 
1 
1 
1 
1 
1 
1 
1 
1 
1 
1 
1 
1 
1 
1 
1 
1 
1 
1 
1 
1 
1 
1 
1 
1 
1 
1 
1 
1 
1 
1 
1 
1 
1 
1 
1 
1 
1 
1 
1 
1 
1 
1 
1 
1 
1 
1 
1 
1 
1 
1 
1 
1 
1 
1 
1 
1 
1 
1 
1 
1 
1 
1 
1 
1 
1 
1 
1 
1 
1 
1 
1 
1 
1 
1 
1 
1 
1 
1 
1 
1 
1 
1 
1 
1 
1 
1 
1 
1 
1 
1 
1 
1 
1 
1 
1 
1 
1 
1 
1 
1 
1 
1 
1 
1 
1 
1 
1 
1 
1 
1 
1 
1 
POINT_DATA 5000
VECTORS Stress float
95.0568 -461.876 0.
-683.654 -1059.51 0.
-828.275 -1396.92 0.
-346.184 -1411.87 0.
-331.71 -1378.51 0.
-317.237 -1345.15 0.
695.39 -954.956 0.
616.383 -1139.51 0.
537.377 -1324.06 0.
240.447 -1421.84 0.
311.657 -1255.58 0.
382.868 -1089.32 0.
-745.264 -1649.82 0.
-804.079 -1786.78 0.
-648.622 -1801.75 0.
-529.537 -1523.98 0.
-410.451 -1246.22 0.
309.067 -856.244 0.
182.153 -1152.93 0.
55.2388 -1449.61 0.
-344.805 -1697.22 0.
-308.066 -1611.43 0.
-271.327 -1525.63 0.
-57.5073 -1451.21 0.
-81.5536 -1507.22 0.
22.8684 -1508.17 0.
-164.847 -1446.98 0.
-88.7374 -1268.94 0.
-598.101 -1405.51 0.
-684.793 -1608.27 0.
-771.485 -1811.02 0.
435.213 -1367.6 0.
459.326 -1311.17 0.
483.438 -1254.75 0.
-336.669 -1613.7 0.
-354.673 -1655.42 0.
-372.676 -1697.13 0.
-132.276 -1598.03 0.
-133.092 -1599.82 0.
-703.854 -1823 0.
-582.016 -1538.83 0.
-460.178 -1254.66 0.
-1472.11 -1529.49 0.
-1475.11 -1535.47 0.
-1478.1 -1541.44 0.
-1816.76 -1823.3 0.
-1943.38 -2118.69 0.
-2070.01 -2414.09 0.
8455.72 2446.88 0.
8729.72 3086.59 0.
-59743.9 -25737.4 0.
9544.56 3451.83 0.
9279.55 2832.56 0.
-2146.11 -2452.1 0.
-2129.26 -2412.94 0.
-2112.4 -2373.78 0.
-751.185 -1747.64 0.
-729.476 -1696.72 0.
-707.767 -1645.8 0.
-898.551 -1634.41 0.
-835.143 -1486.35 0.
-771.734 -1338.3 0.
-854.672 -1476.3 0.
-920.254 -1629.16 0.
-136.013 -1409.96 0.
-173.261 -1496.85 0.
-210.508 -1583.74 0.
-500.589 -1748.35 0.
-492.078 -1728.73 0.
-483.568 -1709.11 0.
223.684 -1406.01 0.
217.606 -1420.09 0.
211.527 -1434.18 0.
-591.26 -1495.77 0.
-404.001 -1058.81 0.
-210.234 -639.949 0.
-359.193 -1056.41 0.
-544.156 -1488.29 0.
181.466 -1440.79 0.
179.193 -1445.99 0.
176.921 -1451.19 0.
-119.745 -1583.05 0.
-122.582 -1589.19 0.
-125.419 -1595.33 0.
167.02 -1359.58 0.
246.34 -1173.58 0.
325.659 -987.589 0.
-684.89 -1556.91 0.
-765.981 -1746.79 0.
-237.257 -1619.82 0.
-124.695 -1356.74 0.
-12.134 -1093.65 0.
108.82 -937.74 0.
66.6828 -1036.64 0.
24.546 -1135.54 0.
86.3943 -1097.63 0.
126.835 -1003.29 0.
167.276 -908.952 0.
108.928 -945.437 0.
89.9754 -988.582 0.
127.255 -417.796 0.
-212.187 -828.355 0.
-356.959 -1166.04 0.
-239.201 -1333.62 0.
-224.534 -1300.63 0.
-209.867 -1267.64 0.
375.029 -1060.82 0.
296.196 -1245.37 0.
217.364 -1429.93 0.
213.279 -1402.27 0.
284.417 -1235.98 0.
355.555 -1069.69 0.
-809.477 -1646.08 0.
-868.453 -1782.85 0.
-509.076 -1711.3 0.
-389.85 -1433.41 0.
-270.625 -1155.51 0.
131.999 -900.623 0.
5.43223 -1197.6 0.
-121.135 -1494.58 0.
528.35 -1291.86 0.
565.085 -1205.93 0.
601.82 -1120.01 0.
-361.034 -1550.34 0.
-385.22 -1606.47 0.
-740.105 -1804.33 0.
-465.276 -1543.99 0.
-389.54 -1365.91 0.
-341.187 -1264.43 0.
-427.574 -1467.42 0.
-513.961 -1670.42 0.
-29.5585 -1535.49 0.
-5.51551 -1478.9 0.
18.5275 -1422.31 0.
-51.6749 -1460.48 0.
-69.8482 -1502 0.
-88.0216 -1543.53 0.
-54.1751 -1533.82 0.
-55.03 -1535.47 0.
-444.879 -1679.95 0.
-322.934 -1395.77 0.
-200.99 -1111.59 0.
-1310.48 -1430.58 0.
-1313.95 -1435.65 0.
-1317.42 -1440.73 0.
-1023.58 -1454.28 0.
-1150.34 -1749.86 0.
-1277.1 -2045.44 0.
7288.72 1978.41 0.
7562.24 2617.76 0.
-49373.7 -21261.6 0.
8213.37 2912.59 0.
7949.18 2293.43 0.
-1158.98 -1996.32 0.
-1142.05 -1957.32 0.
-1125.13 -1918.32 0.
-701.465 -1695.51 0.
-679.926 -1644.45 0.
-658.388 -1593.39 0.
-504.03 -1434.54 0.
-440.649 -1286.35 0.
-377.268 -1138.15 0.
-1274.62 -1624.83 0.
-1340.3 -1777.58 0.
-43.7571 -1339.5 0.
-81.0243 -1426.39 0.
-118.292 -1513.28 0.
349.353 -1352.25 0.
358.034 -1332.69 0.
366.715 -1313.14 0.
138.597 -1411.18 0.
132.441 -1425.27 0.
126.284 -1439.35 0.
-1040.58 -1657.48 0.
-853.403 -1220.68 0.
-543.617 -750.439 0.
-617.522 -1134.98 0.
-802.305 -1567.05 0.
820.915 -1135.52 0.
818.57 -1140.69 0.
816.224 -1145.86 0.
89.6756 -1462.16 0.
86.5404 -1468.03 0.
83.4052 -1473.9 0.
-285.287 -1522.96 0.
-206.627 -1336.66 0.
-127.967 -1150.37 0.
-692.634 -1529.45 0.
-773.375 -1719.85 0.
-173.12 -1562.16 0.
-60.8463 -1298.87 0.
51.4271 -1035.58 0.
110.479 -905.191 0.
68.5929 -1004.67 0.
26.7066 -1104.15 0.
111.108 -1055.66 0.
151.608 -961.236 0.
192.108 -866.808 0.
49.2428 -939.193 0.
29.8455 -981.221 0.
-424.131 -1734.48 0.
9.22592 -1181.65 0.
137.336 -879.94 0.
-363.548 -1801.16 0.
-44.9004 -1056.87 0.
-310.878 -1676.68 0.
-1141.73 -3962.25 0.
-1049.83 -3748.54 0.
-2749.24 -7714.53 0.
-3181.03 -9238.45 0.
-1596.43 -5541.48 0.
-1718.22 -5826.04 0.
-2729.3 -5972.58 0.
-2856.97 -6267.69 0.
-3560.1 -9070.62 0.
-1367.94 -3953.16 0.
-1636.15 -4576.57 0.
-1647.31 -4694.54 0.
-2082.85 -5709.66 0.
-4895.47 -12271.3 0.
-8489.17 -23964.5 0.
-2575.92 -10165.6 0.
-1902.38 -8592.65 0.
-3011.37 -7127.08 0.
-2321.41 -5517.21 0.
-3199.84 -7623.19 0.
-2303.09 -5227.12 0.
-2185.09 -4950.73 0.
-1287.57 -3941.88 0.
-1429.53 -4270.53 0.
-2874.31 -7639.09 0.
-5373.13 -13087.6 0.
-2985.91 -7519.58 0.
-2702.07 -6859.45 0.
-2265.55 -7132.8 0.
-3247.06 -9426.08 0.
-6957.68 -18087.3 0.
-7902.27 -19965.3 0.
-5740.32 -14921.4 0.
-5728.34 -14474.5 0.
-3632.87 -9585.62 0.
-3565.47 -9428.89 0.
-3306.02 -6361.4 0.
-2136.95 -3635.28 0.
-2138.14 -3639.76 0.
-1801.19 -4751.64 0.
-2437.3 -6234.92 0.
-6790.99 -16392.6 0.
3584.62 -4410.79 0.
3949.93 -3556.53 0.
-41650.5 -25691.1 0.
4224.07 -3826.87 0.
3568.24 -5358.93 0.
-6237.12 -15698.2 0.
-2819.36 -7722.31 0.
-3317.37 -8883.3 0.
-3251.75 -7706.94 0.
-2640.07 -6279.65 0.
-3640.45 -8613.8 0.
-2928.33 -7817.21 0.
-1747.18 -5062.14 0.
-1883.1 -5380.24 0.
-2909.83 -4607.5 0.
-2883.84 -4548.72 0.
-2825.93 -7974.69 0.
-3192.83 -8831.09 0.
-5749.32 -14796.6 0.
-8788.94 -24263.7 0.
-2952.54 -10644.3 0.
-2697.68 -10048.4 0.
-3178.38 -8956.74 0.
-2684.08 -7804.22 0.
-4305.24 -11587.7 0.
-2680.22 -4597.22 0.
-2251.76 -3596.01 0.
-2379.83 -4514.03 0.
-1860.76 -3518.24 0.
-2934.23 -6020.78 0.
-6306.53 -18952.3 0.
-4897.89 -15665 0.
-7552.02 -21857.4 0.
-7522.97 -19591.7 0.
-4505.54 -12550.9 0.
-4563.83 -12686.7 0.
-2266.92 -5255.05 0.
-1071.54 -2468.35 0.
-1608.02 -3722.65 0.
-1750.8 -3948.44 0.
-2048.08 -4641.95 0.
-2416.92 -6894.73 0.
-711.943 -2915.26 0.
-554.007 -2545.91 0.
-733.777 -2845.33 0.
-543.513 -2402.3 0.
-1253.41 -4059.63 0.
-540.336 -2594.39 0.
87.7414 -1128.68 0.
216.883 -827.304 0.
-292.597 -1595.55 0.
-1052.41 -3370.45 0.
383.316 -251.884 0.
391.216 -158.241 0.
414.181 -102.455 0.
475.823 -14.5415 0.
546.496 152.642 0.
617.169 319.826 0.
715.132 586.703 0.
898.189 1013.79 0.
1081.25 1440.87 0.
1149.41 1570.81 0.
1130.9 1526.67 0.
1112.38 1482.53 0.
706.578 1420.84 0.
775.643 1583.85 0.
1266.26 1882.23 0.
1069.59 1425.36 0.
872.918 968.483 0.
844.618 930.662 0.
1227.32 1824.29 0.
1610.03 2717.92 0.
2604.61 3279.6 0.
2409.71 2824.33 0.
2214.81 2369.06 0.
854.806 1549.83 0.
750.363 1305.85 0.
1195.83 1297.5 0.
622.271 846.136 0.
516.285 599.15 0.
618.997 577.964 0.
848.377 1115.95 0.
1077.76 1653.94 0.
1060.31 1885.59 0.
1057.84 1878.87 0.
1055.37 1872.15 0.
1706.74 2459.44 0.
1955.55 3038.28 0.
2204.37 3617.12 0.
2343.55 3758.16 0.
2358.34 3792.88 0.
2095.6 3630.29 0.
1733.68 2786.05 0.
1371.76 1941.81 0.
400.434 956.903 0.
229.57 557.599 0.
58.7057 158.295 0.
865.983 373.302 0.
878.453 402.435 0.
890.924 431.57 0.
5371.72 2581.96 0.
5528.11 2947.43 0.
-7911.36 -2513.56 0.
6180.53 3278.7 0.
6051.45 2976.19 0.
1126.25 760.007 0.
1305.09 1177.61 0.
1483.93 1595.22 0.
1122.43 1623.61 0.
1119.35 1616.45 0.
1116.26 1609.29 0.
1075.51 1433.18 0.
955.454 1152.63 0.
835.399 872.078 0.
76.6514 895.407 0.
293.561 1399.49 0.
1342.94 2253.95 0.
1535.31 2701.88 0.
1727.68 3149.82 0.
2764.67 3710.49 0.
2579.68 3278.61 0.
2394.69 2846.73 0.
1765.22 2468.63 0.
1803.14 2555.44 0.
1841.06 2642.25 0.
439.546 1568.15 0.
117.649 820.153 0.
253.65 300.591 0.
628.926 1337.89 0.
1087.81 2411.03 0.
2788.96 3856.03 0.
2906.44 4130.36 0.
3023.92 4404.69 0.
2275.78 3993.07 0.
2033.83 3428.34 0.
1791.87 2863.61 0.
1214 2152.72 0.
975.34 1593.8 0.
736.683 1034.89 0.
573.782 879.235 0.
542.372 806.561 0.
697.798 775.571 0.
545.579 421.269 0.
393.359 66.9663 0.
567.867 32.1649 0.
664.15 256.732 0.
760.435 481.299 0.
555.085 308.864 0.
416.115 -14.8266 0.
277.145 -338.518 0.
395.801 3.4267 0.
617.252 519.792 0.
610.917 -122.337 0.
338.564 -148.961 0.
361.68 -93.4012 0.
582.56 62.5909 0.
652.664 229.931 0.
722.768 397.271 0.
618.042 576.416 0.
800.848 1003.6 0.
983.654 1430.78 0.
795.885 1450.83 0.
777.579 1406.65 0.
759.272 1362.46 0.
1050.34 1599.32 0.
1119.78 1762.25 0.
1444.74 1990.03 0.
1248.22 1533.11 0.
1051.69 1076.19 0.
960.32 1011.37 0.
1343.22 1904.93 0.
1726.12 2798.5 0.
1908.73 3014.48 0.
1714.47 2558.85 0.
1520.21 2103.23 0.
1052.06 1665.9 0.
947.646 1421.79 0.
1539.18 1475.86 0.
1034.23 1054.79 0.
928.406 807.438 0.
598.159 600.543 0.
827.479 1138.56 0.
1056.8 1676.58 0.
1096.85 1932.63 0.
1094.07 1926.41 0.
1091.29 1920.19 0.
1552.79 2423.76 0.
1801.11 3002.85 0.
2049.44 3581.94 0.
2456.73 3838.73 0.
2471.18 3873.61 0.
2191.5 3703 0.
1829.4 2859.13 0.
1467.29 2015.26 0.
1114.72 1293.47 0.
943.552 894.551 0.
772.388 495.636 0.
1457.2 654.348 0.
1469.93 683.16 0.
1482.66 711.973 0.
3907.13 1987.43 0.
4063.6 2351.77 0.
-1480.51 273.878 0.
4863.35 2745.79 0.
4734.4 2444.04 0.
1521.84 960.009 0.
1701.01 1377.63 0.
1880.17 1795.25 0.
1598.56 1858.72 0.
1595.42 1851.4 0.
1592.27 1844.07 0.
1140.6 1493.14 0.
1020.43 1212.85 0.
900.265 932.561 0.
862.967 1264.6 0.
1080.12 1769.06 0.
1095.99 2179 0.
1288.5 2626.65 0.
1481.02 3074.31 0.
2248.26 3521.34 0.
2063.68 3089 0.
1879.1 2656.66 0.
1840.16 2533.8 0.
1878.27 2620.2 0.
1916.38 2706.6 0.
1041.92 1859.59 0.
719.344 1111.65 0.
742.277 539.769 0.
1145.21 1589.44 0.
1604.27 2663.15 0.
1973.18 3538.11 0.
2090.91 3812.69 0.
2208.63 4087.27 0.
1914.11 3870.24 0.
1672.32 3305.55 0.
1430.53 2740.86 0.
1605.07 2350.85 0.
1366.21 1791.95 0.
1127.36 1233.04 0.
903.304 1051.77 0.
871.638 979.048 0.
502.394 721.9 0.
350.135 367.567 0.
197.876 13.2345 0.
668.917 108.299 0.
765.002 333.177 0.
861.087 558.054 0.
388.879 268.39 0.
249.78 -55.2166 0.
110.681 -378.823 0.
416.697 45.0888 0.
637.817 562.281 0.
140.458 -1336.94 0.
-241.527 -1377.76 0.
-149.837 -1168.28 0.
108.945 -941.417 0.
57.1721 -1064.62 0.
5.39856 -1187.83 0.
-231.684 -1317.79 0.
-189.249 -1220.97 0.
-146.814 -1124.16 0.
-388.263 -1310.65 0.
-477.104 -1519.21 0.
-565.945 -1727.76 0.
-233.599 -1626.9 0.
-245.98 -1657.73 0.
-133.539 -1613.55 0.
-6.24907 -1317.25 0.
121.039 -1020.96 0.
143.457 -980.448 0.
-85.3642 -1511.87 0.
-314.184 -2043.3 0.
-501.199 -2221.49 0.
-398.176 -1983.06 0.
-295.153 -1744.63 0.
-306.239 -1646.67 0.
-264.141 -1552.06 0.
293.832 -1236.27 0.
141.582 -1245.03 0.
171.655 -1174.8 0.
-181.485 -1322.82 0.
-278.67 -1551.59 0.
-375.856 -1780.35 0.
-435.227 -1870.94 0.
-384.671 -1760.06 0.
-334.115 -1649.19 0.
-326.702 -1953.76 0.
-594.176 -2581.73 0.
-861.651 -3209.7 0.
-416.658 -2953.07 0.
-339.361 -2777.15 0.
-432.559 -2664.42 0.
-302.24 -2363.9 0.
-171.922 -2063.39 0.
69.3032 -1814.36 0.
35.7059 -1894.5 0.
2.1085 -1974.63 0.
591.566 -1721.18 0.
619.863 -1658.52 0.
648.16 -1595.86 0.
1565.95 -1690.57 0.
1233.97 -2466.1 0.
-1863.45 -4427.92 0.
1908.61 -2271.91 0.
2193.72 -1610.25 0.
458.594 -1963.25 0.
391.631 -2110.2 0.
324.668 -2257.15 0.
-47.2531 -2343.72 0.
114.453 -1969.49 0.
276.159 -1595.25 0.
-174.89 -1691.73 0.
-177.466 -1696.46 0.
-180.043 -1701.18 0.
-50.3731 -1832.62 0.
-159.865 -2087.99 0.
-883.416 -2579.58 0.
-887.242 -2586.81 0.
-891.067 -2594.04 0.
-496.031 -2375.92 0.
-410.221 -2174.14 0.
-324.412 -1972.37 0.
-64.0525 -1808.43 0.
-80.6843 -1843.25 0.
-97.3164 -1878.07 0.
-315.067 -1850.08 0.
-228.513 -1655.08 0.
77.2125 -1369.46 0.
-42.6744 -1575.45 0.
-124.298 -1765.03 0.
-685.045 -2150.18 0.
-749.108 -2297.4 0.
-813.171 -2444.62 0.
-867.509 -2406.38 0.
-725.845 -2076.48 0.
-584.181 -1746.57 0.
129.094 -1391.49 0.
105.443 -1448.36 0.
81.7908 -1505.22 0.
-103.585 -1393.73 0.
5.13201 -1135.44 0.
-289.553 -1089.73 0.
-332.194 -1188.36 0.
-374.834 -1286.98 0.
-21.1045 -1205.57 0.
-46.6964 -1260.72 0.
-72.2887 -1315.88 0.
-310.604 -1336.51 0.
-223.004 -1132.45 0.
-135.404 -928.392 0.
-95.3958 -1204.48 0.
-304.99 -1693.88 0.
60.5454 -1342.42 0.
-280.977 -1363.65 0.
-190.115 -1153.45 0.
-63.6798 -985.89 0.
-115.161 -1109.47 0.
-166.643 -1233.05 0.
-201.343 -1272.36 0.
-159.273 -1175.79 0.
-117.204 -1079.22 0.
-13.2787 -1119.34 0.
-102.276 -1327.98 0.
-191.274 -1536.63 0.
-306.428 -1628.41 0.
-319.112 -1659.05 0.
-354.977 -1677.16 0.
-227.967 -1380.7 0.
-100.958 -1084.24 0.
147.554 -947.896 0.
-81.1406 -1479.72 0.
-309.835 -2011.54 0.
-195.802 -2059.44 0.
-92.8679 -1820.79 0.
10.0663 -1582.15 0.
-318.455 -1621.97 0.
-276.175 -1527.41 0.
-758.871 -1657.88 0.
-13.0725 -1280.32 0.
16.6668 -1210.32 0.
-11.8593 -1219.74 0.
-109.723 -1447.98 0.
-207.588 -1676.23 0.
-196.881 -1738.39 0.
-146.873 -1627.05 0.
-96.8649 -1515.71 0.
-158.5 -1851.73 0.
-425.652 -2479.83 0.
-692.805 -3107.94 0.
-403.247 -2917.11 0.
-326.111 -2740.88 0.
-232.635 -2547.44 0.
-102.054 -2247.36 0.
28.5265 -1947.28 0.
80.2638 -1778.52 0.
46.7305 -1858.91 0.
13.1973 -1939.3 0.
403.917 -1774.08 0.
432.169 -1711.58 0.
460.421 -1649.07 0.
1144.16 -1839.97 0.
812.715 -2615.39 0.
-2017 -4463.89 0.
1285.38 -2509.29 0.
1570.4 -1848 0.
538.089 -1897.14 0.
471.509 -2044.31 0.
404.93 -2191.47 0.
-105.944 -2339.5 0.
55.3796 -1965.01 0.
216.703 -1590.52 0.
-84.1305 -1622.81 0.
-86.8863 -1627.3 0.
-89.6421 -1631.78 0.
210.6 -1689.16 0.
101.378 -1945.03 0.
-465.33 -2369.4 0.
-469.315 -2376.79 0.
-473.3 -2384.18 0.
-493.703 -2342.5 0.
-407.596 -2141.11 0.
-321.489 -1939.72 0.
-210.333 -1840.57 0.
-226.721 -1875.55 0.
-243.11 -1910.53 0.
-309.546 -1815.73 0.
-223.203 -1620.19 0.
33.5576 -1357.49 0.
-98.6596 -1568.45 0.
-180.395 -1757.78 0.
-400.448 -1998.29 0.
-464.386 -2145.1 0.
-528.324 -2291.91 0.
-713.741 -2310.97 0.
-572.114 -1980.92 0.
-430.486 -1650.87 0.
81.8302 -1381.36 0.
58.0736 -1438.02 0.
34.3167 -1494.69 0.
-327.918 -1460.38 0.
-218.621 -1202.7 0.
-100.12 -976.823 0.
-142.435 -1075.89 0.
-184.75 -1174.95 0.
-411.947 -1342.31 0.
-437.098 -1397.92 0.
-462.25 -1453.53 0.
-134.591 -1231.21 0.
-47.3659 -1026.86 0.
39.8594 -822.509 0.
-28.5607 -1144.37 0.
-238.837 -1633.46 0.
380.943 -380.433 0.
223.995 -82.4872 0.
214.786 -102.306 0.
-80.422 -671.438 0.
76.5592 -304.415 0.
142.179 -150.549 0.
-392.885 -1741.94 0.
427.155 170.158 0.
257.372 -227.738 0.
388.024 -872.961 0.
94.4621 -1557.5 0.
615.358 -341.647 0.
228.206 -208.192 0.
89.7087 -535.42 0.
-446.344 -1439.91 0.
-77.9852 -586.01 0.
-386.742 -1312.06 0.
-279.394 -1909.38 0.
-17.9925 -1302.3 0.
470.949 -164.314 0.
969.292 115.603 0.
877.277 -100.27 0.
798.442 -285.433 0.
205.311 -354.317 0.
-59.6116 -970.415 0.
61.7437 -575.863 0.
182.007 -498.183 0.
-218.608 -1438.75 0.
178.309 -1058.87 0.
620.989 -32.724 0.
976.47 789.98 0.
-219.726 -2211.91 0.
189.665 -1256.82 0.
647.452 -188.726 0.
847.185 198.435 0.
-61.3406 -1918.07 0.
-794.303 -3625.02 0.
-321.071 -2720.77 0.
262.82 -1356.42 0.
527.589 -1132.4 0.
482.403 -1234.61 0.
641.467 -860.314 0.
188.582 -1517.51 0.
105.068 -1712.65 0.
861.018 50.8357 0.
918.633 -199.068 0.
506.637 -1156.99 0.
653.433 -811.12 0.
784.882 -1849.67 0.
1468.11 -252.353 0.
-775.307 -1963.09 0.
1701.42 -337.114 0.
1490.05 -827.538 0.
982.53 -962.287 0.
537.603 -2002.77 0.
106.393 -3011.22 0.
474.748 -850.649 0.
1070.96 539.36 0.
1027.35 436.485 0.
213.863 -1072.01 0.
-271.01 -2205.14 0.
813.989 324.849 0.
1059.67 -174.763 0.
300.978 -1940.98 0.
89.6784 -1828.25 0.
1158.33 663.36 0.
689.331 -432.92 0.
66.1404 -1009.01 0.
-62.7655 -1309.64 0.
115.364 -893.816 0.
-165.783 -1422.87 0.
668.29 521.361 0.
516.358 164.967 0.
-254.271 -1669.64 0.
-444.306 -2110.64 0.
654.572 -241.221 0.
101.153 -972.79 0.
-226.472 -1737.4 0.
600.416 -160.294 0.
192.455 -1112.08 0.
275.543 -918.025 0.
-54.1906 -1030.83 0.
-16.4263 -943.38 0.
-16.4349 -944.002 0.
-153.516 -1812.23 0.
-38.3083 -1544.57 0.
-347.973 -2268.32 0.
-321.092 -979.839 0.
3.14528 -225.304 0.
561.796 224.998 0.
505.223 90.1941 0.
430.154 -87.9294 0.
-411.956 -571.136 0.
-388.808 -516.359 0.
118.913 669.089 0.
518.259 -9.37167 0.
293.272 -535.271 0.
176.162 -809.418 0.
646.077 329.082 0.
378.93 -291.904 0.
60.4981 -574.86 0.
-138.794 -549.873 0.
-60.5384 -366.449 0.
45.5104 -214.654 0.
-7.19167 -337.609 0.
-59.8938 -460.564 0.
103.629 -589.277 0.
-66.0728 -984.618 0.
-235.775 -1379.96 0.
169.738 -1233.8 0.
239.338 -1072.4 0.
308.937 -911.007 0.
-15.2844 -1101.45 0.
-53.1909 -1193.52 0.
-251.522 -1336.56 0.
-165.083 -1139.25 0.
-78.6455 -941.943 0.
177.191 -751.665 0.
122.02 -882.49 0.
66.8498 -1013.32 0.
371.681 -1032.73 0.
272.92 -1264.29 0.
174.16 -1495.86 0.
-203.04 -1497.34 0.
-60.6129 -1164.25 0.
77.1105 -833.019 0.
-159.921 -1106.26 0.
-250.282 -1321.31 0.
104.492 -1327.8 0.
68.8254 -1416 0.
33.1584 -1504.21 0.
120.577 -1525.42 0.
103.133 -1567.77 0.
85.6902 -1610.12 0.
161.039 -1489.43 0.
238.403 -1304.91 0.
315.767 -1120.4 0.
228.241 -1219.06 0.
180.741 -1327.99 0.
523.394 -1270.37 0.
446.682 -1447.2 0.
369.969 -1624.04 0.
150.06 -1773.75 0.
221.495 -1607.45 0.
292.93 -1441.15 0.
383.156 -1353.49 0.
369.6 -1384 0.
356.043 -1414.51 0.
882.303 -1328.48 0.
795.06 -1529.79 0.
879.614 -1655.2 0.
1113.91 -1281.94 0.
1255.12 -948.78 0.
776.783 -966.244 0.
733.818 -1068.82 0.
690.852 -1171.4 0.
417.711 -1439.25 0.
288.139 -1743.16 0.
158.566 -2047.07 0.
-110.527 -2115.71 0.
-9.78137 -1881.28 0.
90.9645 -1646.85 0.
282.458 -1456.9 0.
331.792 -1338.28 0.
445.601 -1233.89 0.
344.661 -1470.93 0.
243.721 -1707.97 0.
-231.801 -1944.55 0.
-94.1648 -1622.72 0.
43.4715 -1300.88 0.
-28.9909 -1239.86 0.
-48.9339 -1286.81 0.
-68.8768 -1333.76 0.
-111.786 -1262.25 0.
-49.0195 -1112.92 0.
144.612 -914.367 0.
-21.5344 -1240.89 0.
-155.861 -1553.77 0.
6.10064 -1658.4 0.
41.4348 -1575.68 0.
76.769 -1492.97 0.
-267.833 -1587.19 0.
-242.142 -1527 0.
-216.45 -1466.81 0.
33.0489 -1085.23 0.
229.705 -625.961 0.
426.361 -166.687 0.
-103.368 -779.649 0.
-342.686 -1338.36 0.
-213.435 -1653.53 0.
-107.486 -1407.83 0.
-1.53616 -1162.13 0.
-591.364 -1266.1 0.
-563.701 -1200.13 0.
-536.038 -1134.15 0.
-25.7652 -909.154 0.
-38.3849 -939.322 0.
-51.0049 -969.49 0.
150.609 -695.422 0.
274.157 -404.757 0.
-214.34 -662.842 0.
-321.389 -596.905 0.
-242.864 -413.644 0.
-23.1854 -211.973 0.
-75.7139 -335.282 0.
-128.242 -458.592 0.
122.955 -550.051 0.
-47.2809 -944.792 0.
-217.516 -1339.53 0.
108.991 -1227.78 0.
178.931 -1066.99 0.
248.871 -906.187 0.
171.91 -990.158 0.
133.818 -1082.02 0.
-49.82 -1217.42 0.
36.2951 -1019.99 0.
122.41 -822.557 0.
144.561 -735.545 0.
89.1774 -866.273 0.
33.7939 -997.002 0.
259.111 -1049.34 0.
160.247 -1280.83 0.
61.3824 -1512.32 0.
-86.437 -1415.58 0.
56.6188 -1082.76 0.
181.389 -757.568 0.
-242.549 -1110.54 0.
-333.374 -1325.14 0.
170.649 -1269.12 0.
134.214 -1356.88 0.
97.779 -1444.63 0.
194.178 -1462.41 0.
176.949 -1505.3 0.
159.721 -1548.18 0.
223.248 -1430.82 0.
300.402 -1246.22 0.
377.556 -1061.61 0.
130.11 -1228.57 0.
82.7237 -1337.64 0.
607.678 -1201.09 0.
531.165 -1378.74 0.
454.652 -1556.38 0.
254.137 -1697.99 0.
325.58 -1531.49 0.
397.023 -1365 0.
349.495 -1337.1 0.
336.591 -1367.78 0.
323.687 -1398.46 0.
745.898 -1354.54 0.
659.003 -1555.89 0.
448.337 -1810.19 0.
904.757 -1342.05 0.
1045.72 -1008.87 0.
543.942 -1033.89 0.
500.962 -1136.34 0.
457.981 -1238.8 0.
673.5 -1298.08 0.
544.142 -1602.01 0.
414.785 -1905.93 0.
56.2626 -2013.44 0.
156.7 -1778.08 0.
257.136 -1542.73 0.
19.5339 -1539.59 0.
69.1924 -1421.25 0.
586.725 -1140.11 0.
485.984 -1377.07 0.
385.242 -1614.03 0.
-88.6363 -1851.16 0.
48.8572 -1529.02 0.
186.351 -1206.88 0.
58.159 -1173.47 0.
37.6939 -1219.91 0.
17.2288 -1266.35 0.
-134.463 -1240.04 0.
-71.8356 -1090.73 0.
234.222 -845.55 0.
-15.4886 -1207.65 0.
-149.85 -1520.3 0.
81.349 -1594.81 0.
116.751 -1511.76 0.
152.154 -1428.72 0.
-221.289 -1535.71 0.
-195.666 -1475.24 0.
-170.043 -1414.76 0.
-103.07 -1111.17 0.
93.1865 -651.395 0.
289.444 -191.616 0.
74.5227 -672.383 0.
-165.458 -1230.62 0.
-161.221 -1600.37 0.
-55.5377 -1354.18 0.
50.1451 -1108 0.
-431.02 -1167.92 0.
-403.594 -1101.96 0.
-376.168 -1035.99 0.
-203.256 -953.837 0.
-215.939 -983.885 0.
-228.622 -1013.93 0.
97.6564 -687.406 0.
221.097 -396.986 0.
-659.953 -1395.49 0.
-684.837 -1307.6 0.
-666.552 -1266.34 0.
-349.272 -1101.19 0.
-346.962 -1096.76 0.
-344.651 -1092.33 0.
-98.6378 -979.131 0.
-94.9381 -972.504 0.
-91.2383 -965.878 0.
97.1481 -1034.5 0.
-24.5406 -1317.25 0.
-146.229 -1600.01 0.
37.061 -1580.68 0.
17.8124 -1622.15 0.
-221.92 -1754.98 0.
-198.092 -1697.06 0.
-174.264 -1639.14 0.
-256.603 -1660.81 0.
-286.449 -1730.16 0.
-316.295 -1799.51 0.
-25.983 -1580.81 0.
94.4284 -1300.76 0.
214.84 -1020.71 0.
-31.0859 -1205.16 0.
-125.058 -1423.49 0.
66.0656 -1519.57 0.
-400.409 -1650.75 0.
-360.167 -1559.02 0.
147.648 -1318.65 0.
69.2139 -1500.25 0.
-9.22036 -1681.85 0.
-59.0057 -1826.29 0.
-103.909 -1932.91 0.
-148.812 -2039.53 0.
78.2357 -1852.75 0.
180.912 -1613.84 0.
283.587 -1374.93 0.
0.13814 -1696.11 0.
-138.596 -2019.28 0.
193.914 -2117.91 0.
176.398 -2155.34 0.
158.881 -2192.78 0.
9.84241 -2232.8 0.
78.9888 -2065.52 0.
148.134 -1898.23 0.
84.1309 -1885.22 0.
62.008 -1938.03 0.
39.8851 -1990.83 0.
492.68 -1868.38 0.
452.944 -1965.58 0.
-778.705 -2572.11 0.
567.309 -1831.67 0.
653.29 -1631.12 0.
246.247 -1693.03 0.
194.321 -1811.6 0.
142.395 -1930.17 0.
446.791 -1876.61 0.
422.128 -1932.52 0.
397.466 -1988.42 0.
32.8706 -2058.29 0.
112.696 -1872.07 0.
192.523 -1685.85 0.
-174.877 -1985.06 0.
-268.625 -2204.82 0.
91.5966 -2185.93 0.
170.295 -2000.2 0.
248.993 -1814.48 0.
-8.15498 -1786.62 0.
45.0406 -1661.91 0.
98.2362 -1537.21 0.
-82.4491 -1574 0.
-88.0339 -1588.63 0.
-93.6186 -1603.27 0.
-212.583 -1547.86 0.
-135.888 -1371.66 0.
64.533 -1146.39 0.
-121.141 -1342.12 0.
-182.414 -1484.56 0.
87.3199 -1468.89 0.
60.1316 -1530.93 0.
32.9427 -1592.97 0.
-264.448 -1681.94 0.
-193.946 -1517.75 0.
-123.443 -1353.56 0.
-172.95 -1410.79 0.
-233.227 -1554.67 0.
-293.504 -1698.56 0.
-180.589 -1465.33 0.
-70.3655 -1211.15 0.
59.1437 -963.29 0.
119.912 -820.679 0.
180.68 -678.069 0.
-225.31 -824.826 0.
-295.853 -991.887 0.
-366.396 -1158.95 0.
-264.637 -1060.6 0.
-166.318 -831.076 0.
-67.9994 -601.548 0.
163.082 -612.655 0.
72.9233 -828.554 0.
-699.44 -1378.81 0.
-609.345 -1242.7 0.
-591.152 -1201.67 0.
-119.151 -971.823 0.
-116.974 -967.135 0.
-114.797 -962.448 0.
-171.143 -977.674 0.
-167.233 -971.114 0.
-163.323 -964.553 0.
-36.603 -1061.73 0.
-158.063 -1344.56 0.
-279.524 -1627.39 0.
169.165 -1492.99 0.
149.886 -1534.44 0.
-250.957 -1736.1 0.
-226.97 -1678.39 0.
-202.983 -1620.67 0.
-200.36 -1605.38 0.
-230.365 -1674.79 0.
-260.37 -1744.2 0.
-29.5723 -1549.98 0.
91.233 -1270.21 0.
212.038 -990.433 0.
-203.163 -1249.48 0.
-297.002 -1468.12 0.
221.202 -1424.39 0.
-108.466 -1493.83 0.
-68.016 -1402.55 0.
105.537 -1304.1 0.
26.9573 -1486.13 0.
-51.622 -1668.16 0.
-338.424 -1915.84 0.
-383.429 -2022.76 0.
-428.433 -2129.69 0.
146.315 -1791.55 0.
248.046 -1552.29 0.
349.775 -1313.04 0.
296.907 -1538.01 0.
157.462 -1860.96 0.
100.095 -2127.53 0.
82.2767 -2165.29 0.
64.4581 -2203.05 0.
-113.813 -2254.23 0.
-44.0623 -2087.83 0.
25.6876 -1921.43 0.
71.2628 -1857.77 0.
49.0898 -1910.69 0.
26.9169 -1963.61 0.
586.812 -1798.07 0.
546.297 -1894.7 0.
-112.926 -2256.26 0.
486.3 -1834.88 0.
571.582 -1633.89 0.
465.836 -1567.82 0.
413.866 -1686.6 0.
361.897 -1805.38 0.
281.036 -1915.34 0.
256.732 -1971.92 0.
232.427 -2028.51 0.
-117.346 -2089.84 0.
-37.9636 -1903.4 0.
41.4194 -1716.97 0.
122.441 -1826.31 0.
28.4731 -2045.71 0.
-138.33 -2254.23 0.
-59.5976 -2067.98 0.
19.1346 -1881.72 0.
9.42414 -1749.1 0.
62.369 -1623.69 0.
115.314 -1498.28 0.
-64.4731 -1536.72 0.
-69.762 -1551.57 0.
-75.0509 -1566.42 0.
-16.9486 -1430.15 0.
60.125 -1254.47 0.
-363.508 -1298.82 0.
-205.81 -1347.18 0.
-267.171 -1489.42 0.
-80.494 -1510.16 0.
-107.777 -1571.62 0.
-135.06 -1633.09 0.
-230.649 -1637.47 0.
-160.411 -1473.04 0.
-90.1722 -1308.6 0.
150.334 -1239.95 0.
89.5925 -1383.39 0.
28.8506 -1526.84 0.
-106.922 -1403.73 0.
2.94652 -1148.82 0.
-90.1573 -995.308 0.
-29.1986 -852.701 0.
31.7598 -710.095 0.
-205.561 -785.273 0.
-277.08 -951.344 0.
-348.599 -1117.42 0.
-99.6474 -959.553 0.
-1.5057 -729.601 0.
96.6362 -499.649 0.
330.218 -510.365 0.
240.446 -725.555 0.
25.4492 415.234 0.
-127.703 -231.593 0.
215.032 567.942 0.
414.858 -132.459 0.
289.064 -424.836 0.
500.484 69.7574 0.
287.792 254.584 0.
174.252 -10.2742 0.
277.525 229.511 0.
465.028 394.358 0.
498.28 472.207 0.
360.712 151.533 0.
892.981 -25.5857 0.
633.143 -633.707 0.
155.356 -693.498 0.
626.29 402.191 0.
341.641 -265.157 0.
478.33 -98.5904 0.
471.35 -115.832 0.
424.643 -226.042 0.
804.754 425.164 0.
741.932 278.878 0.
38.2672 -1362.57 0.
-84.8346 -620.551 0.
433.582 583.737 0.
491.123 321.257 0.
887.814 304.513 0.
375.482 -898.745 0.
197.758 -969.785 0.
696.242 190.586 0.
935.32 745.614 0.
406.17 379.408 0.
185.547 -133.739 0.
155.162 -202.597 0.
1087.59 306.748 0.
1198.99 569.424 0.
845.135 -252.929 0.
1597.71 971.147 0.
1004.01 -416.041 0.
699.413 -516.18 0.
646.854 -643.528 0.
848.675 -177.052 0.
610.062 -289.976 0.
855.344 277.74 0.
643.035 -222.558 0.
568.013 -638.474 0.
548.492 -686.728 0.
1363.76 1213.1 0.
1933.14 1190 0.
1649.28 526.652 0.
-2000.98 -617.455 0.
1630.64 1042.77 0.
1274.62 208.39 0.
1942.93 1501.32 0.
1420.22 279.805 0.
914.991 -900.197 0.
928.011 -60.8284 0.
887.826 -153.467 0.
1201.03 578.527 0.
423.651 -503.665 0.
502.035 -318.94 0.
722.534 196.859 0.
1133.63 -4.42314 0.
1282.71 350.532 0.
864.52 553.83 0.
725.889 230.742 0.
729.353 239.533 0.
726.502 -72.0689 0.
987.909 534.783 0.
430.469 -769.096 0.
205.676 -911.815 0.
556.608 -93.1672 0.
770.513 405.507 0.
873.883 301.015 0.
1289.95 1274.9 0.
-636.975 -505.989 0.
70.2801 -515.633 0.
435.982 335.466 0.
214.775 -464.293 0.
191.664 -519.952 0.
310.894 -243.71 0.
304.945 -431.055 0.
212.127 -642.199 0.
470.408 -34.0131 0.
979.343 109.999 0.
730.172 -468.051 0.
1228.7 698.063 0.
670.148 312.212 0.
965.232 1004.88 0.
153.147 -118.316 0.
213.756 23.7774 0.
126.38 -179.558 0.
-395.484 -1230.86 0.
252.251 278.311 0.
381.191 576.397 0.
240.643 -439.598 0.
498.82 162.171 0.
228.439 -469.184 0.
425.257 -577.725 0.
378.96 -682.093 0.
279.946 266.347 0.
44.397 -319.92 0.
-204.313 -898.962 0.
-75.3668 -1189.5 0.
18.6441 -968.326 0.
112.655 -747.15 0.
-100.309 -850.45 0.
-247.523 -1193.54 0.
-394.737 -1536.62 0.
-277.06 -1506.7 0.
-209.582 -1349.14 0.
-142.103 -1191.58 0.
317.737 -1021.02 0.
287.052 -1091.27 0.
-104.275 -1325.91 0.
-208.347 -1569.89 0.
-312.418 -1813.86 0.
-135.791 -1822.4 0.
-40.9176 -1602.15 0.
53.956 -1381.89 0.
89.9325 -1268.77 0.
102.273 -1241.07 0.
114.614 -1213.36 0.
-276.308 -1382.06 0.
-273.293 -1379.5 0.
90.2597 -1222.62 0.
-66.1423 -1385.01 0.
-113.669 -1501.19 0.
-118.94 -1554.36 0.
-50.2229 -1397.29 0.
18.4951 -1240.23 0.
-174.857 -1285.72 0.
-220.425 -1390.27 0.
-265.993 -1494.82 0.
317.597 -1451.93 0.
171.103 -1792.06 0.
24.6089 -2132.19 0.
375.975 -2004.78 0.
382.141 -1989.98 0.
-151.62 -2188.51 0.
-40.6716 -1932.78 0.
70.277 -1677.06 0.
3.22211 -1564.82 0.
2.39568 -1569.91 0.
1.56903 -1574.99 0.
327.303 -1400.58 0.
364.838 -1317.18 0.
402.375 -1233.78 0.
919.926 -1050.53 0.
885.745 -1131.59 0.
-1312.62 -2140.32 0.
655.788 -1579.69 0.
508.316 -1925.71 0.
153.271 -2262.81 0.
236.187 -2069.17 0.
319.102 -1875.53 0.
-17.5476 -1877.09 0.
49.0814 -1721.15 0.
115.711 -1565.21 0.
4.56273 -1650.06 0.
-58.2144 -1796.84 0.
-120.992 -1943.62 0.
528.337 -1451.1 0.
655.401 -1150.78 0.
248.947 -1132.02 0.
159.034 -1342.9 0.
69.1213 -1553.78 0.
-184.553 -1796.1 0.
-218.189 -1875.3 0.
-251.825 -1954.51 0.
-67.86 -1843.75 0.
-13.1533 -1714.93 0.
41.5532 -1586.11 0.
-61.3966 -1640.83 0.
-81.5997 -1684.42 0.
-524.357 -1906.49 0.
-335.776 -1727.98 0.
-282.51 -1607.4 0.
-118.98 -1454.37 0.
-93.9236 -1397.5 0.
-68.8672 -1340.63 0.
-2.44895 -1269.01 0.
7.19703 -1240.2 0.
16.843 -1211.4 0.
288.118 -1163.48 0.
230.91 -1294.82 0.
173.703 -1426.16 0.
-145.907 -1327.91 0.
-6.6271 -1001.47 0.
-93.6829 -823.686 0.
-152.448 -961.41 0.
-211.212 -1099.13 0.
-235.063 -1091.37 0.
-94.9256 -768.725 0.
45.2126 -446.077 0.
253.595 -315.69 0.
195.281 -454.376 0.
136.968 -593.062 0.
400.003 -405.618 0.
457.458 -267.504 0.
684.33 467.157 0.
317.024 -173.902 0.
67.944 -752.976 0.
-104.144 -1169.99 0.
-10.4814 -948.802 0.
83.1812 -727.614 0.
21.0864 -766.34 0.
-126.286 -1109.52 0.
-273.659 -1452.7 0.
-171.823 -1430.07 0.
-103.952 -1272.36 0.
-36.081 -1114.64 0.
150.446 -1061.57 0.
119.123 -1131.42 0.
-75.847 -1283.97 0.
-180.19 -1527.8 0.
-284.533 -1771.64 0.
33.0753 -1718.48 0.
127.725 -1498.26 0.
222.375 -1278.03 0.
122.693 -1221.99 0.
135.929 -1194.53 0.
149.165 -1167.07 0.
-93.9294 -1273.1 0.
-91.4622 -1270.02 0.
305.439 -1098.26 0.
-330.812 -1467.73 0.
-378.363 -1584.11 0.
-181.577 -1549.35 0.
-112.781 -1392.63 0.
-43.9842 -1235.9 0.
5.00366 -1174.26 0.
-40.4463 -1279.26 0.
-85.8966 -1384.27 0.
314.729 -1421.89 0.
168.397 -1761.94 0.
22.0648 -2102 0.
458.6 -1938.35 0.
464.336 -1923.15 0.
-299.178 -2219.95 0.
-188.681 -1963.77 0.
-78.1834 -1707.58 0.
-54.7065 -1559.4 0.
-55.8845 -1564.34 0.
-57.0628 -1569.28 0.
448.122 -1318.2 0.
486.102 -1235.14 0.
524.082 -1152.08 0.
873.346 -1037.89 0.
839.326 -1119.43 0.
-2898.93 -2787.93 0.
855.415 -1461.92 0.
707.66 -1808.35 0.
-46.4844 -2315.65 0.
36.5265 -2122.15 0.
119.537 -1928.66 0.
-205.291 -1926.22 0.
-138.257 -1770.31 0.
-71.2231 -1614.41 0.
108.938 -1574.98 0.
46.0971 -1721.75 0.
-16.7438 -1868.52 0.
564.186 -1403.47 0.
691.737 -1103.38 0.
399.428 -1034.91 0.
309.513 -1245.82 0.
219.599 -1456.74 0.
-381.039 -1849.55 0.
-414.755 -1928.63 0.
-448.47 -2007.72 0.
100.992 -1739.81 0.
156.093 -1611.23 0.
211.193 -1482.66 0.
-171.238 -1655.34 0.
-191.392 -1698.81 0.
356.009 -1498.62 0.
-181.047 -1630.7 0.
-128.109 -1509.94 0.
11.29 -1367.61 0.
35.9791 -1310.43 0.
60.6677 -1253.25 0.
75.5013 -1205.52 0.
85.0048 -1176.71 0.
94.5083 -1147.89 0.
126.505 -1201.66 0.
69.5662 -1333.6 0.
12.6277 -1465.55 0.
-266.949 -1348.07 0.
-126.918 -1022.2 0.
-8.16689 -754.454 0.
-66.7163 -892.447 0.
-125.266 -1030.44 0.
-94.963 -999.903 0.
45.6435 -677.576 0.
186.25 -355.248 0.
220.989 -298.156 0.
163.365 -437.236 0.
105.742 -576.318 0.
295.676 -418.119 0.
353.329 -279.227 0.
282.074 -617.513 0.
324.732 -519.276 0.
393.732 -361.444 0.
68.7837 -453.305 0.
-77.6393 -796.396 0.
-224.062 -1139.49 0.
-147.766 -1199.52 0.
-56.2417 -987.073 0.
35.2828 -774.624 0.
176.748 -694.92 0.
140.986 -778.172 0.
105.225 -861.424 0.
169.848 -840.309 0.
168.004 -844.526 0.
69.0473 -909.818 0.
-32.3893 -1145.51 0.
-133.826 -1381.21 0.
257.224 -1331.56 0.
279.139 -1279.28 0.
301.055 -1227 0.
19.4175 -1320.75 0.
26.3075 -1302.8 0.
33.1972 -1284.85 0.
-37.9545 -1307.09 0.
-32.02 -1293.03 0.
637.057 -994.634 0.
-308.106 -1349.2 0.
-280.811 -1283.62 0.
-42.9665 -1178.19 0.
-121.964 -1359.18 0.
-200.961 -1540.16 0.
20.0277 -1532.19 0.
18.4974 -1538.78 0.
16.9664 -1545.36 0.
167.73 -1521.03 0.
138.322 -1590.12 0.
108.915 -1659.22 0.
648.68 -1430.16 0.
649.258 -1428.18 0.
-127.354 -1757.73 0.
-97.5045 -1687.79 0.
-67.6543 -1617.85 0.
-75.6099 -1604.3 0.
-119.087 -1702 0.
-162.565 -1799.7 0.
286.984 -1680.13 0.
254.077 -1752.69 0.
221.171 -1825.26 0.
602.16 -1603.2 0.
653.313 -1482.79 0.
-3973.64 -3368.01 0.
956.236 -1139.91 0.
1017.73 -997.715 0.
315.591 -1240.54 0.
232.65 -1434.11 0.
149.709 -1627.68 0.
-123.615 -1801.98 0.
-94.0816 -1730.02 0.
-64.5484 -1658.06 0.
154.447 -1544.87 0.
150.387 -1550.55 0.
146.328 -1556.23 0.
497.28 -1497.63 0.
445.085 -1619.78 0.
94.6009 -1832.96 0.
186.96 -1614.89 0.
279.32 -1396.83 0.
-190.083 -1525.35 0.
-257.38 -1680.2 0.
-324.678 -1835.04 0.
74.1539 -1691.52 0.
99.0739 -1634.6 0.
123.994 -1577.68 0.
-190.887 -1614.66 0.
-130.079 -1479.39 0.
1000.78 -895.256 0.
-105.098 -1405.58 0.
-123.576 -1449.82 0.
56.2334 -1385.32 0.
72.5018 -1343.59 0.
88.7704 -1301.86 0.
34.0072 -1370.91 0.
-36.507 -1536.98 0.
-107.021 -1703.04 0.
-25.3771 -1464.42 0.
158.9 -1038.08 0.
343.178 -611.739 0.
-4.02626 -759.42 0.
-13.8472 -785.846 0.
-8.97147 -800.256 0.
-35.9299 -863.547 0.
-62.8884 -926.837 0.
-127.856 -1014.32 0.
-161.254 -1092.15 0.
-194.652 -1169.98 0.
-175.673 -1164.83 0.
-157.961 -1119.21 0.
-140.248 -1073.6 0.
-194.429 -1080.67 0.
-188.328 -1066.61 0.
59.2172 -683.458 0.
468.169 -427.516 0.
536.524 -269.583 0.
-189.007 -532.609 0.
-335.988 -875.521 0.
-482.968 -1218.43 0.
-189.76 -1185.69 0.
-98.1907 -973.7 0.
-6.62121 -761.705 0.
191.152 -657.132 0.
155.225 -740.172 0.
119.299 -823.212 0.
182.152 -804.475 0.
180.051 -808.015 0.
28.4259 -896.734 0.
-73.143 -1132.26 0.
-174.711 -1367.78 0.
264.29 -1297.22 0.
286.279 -1245.13 0.
308.269 -1193.04 0.
-135.626 -1356.46 0.
-128.827 -1338.51 0.
-122.028 -1320.55 0.
-12.491 -1265.21 0.
-6.49747 -1251.3 0.
200.055 -1151.38 0.
-76.9295 -1218.49 0.
-49.0502 -1153.71 0.
-8.84829 -1131.61 0.
-87.9248 -1312.62 0.
-167.001 -1493.62 0.
289.303 -1383.05 0.
287.584 -1389.69 0.
285.864 -1396.34 0.
-48.5938 -1583.01 0.
-78.4085 -1652.16 0.
-108.223 -1721.32 0.
534.565 -1447.17 0.
535.629 -1445.09 0.
-9.57063 -1676.38 0.
20.0863 -1606.24 0.
49.7433 -1536.1 0.
6.08461 -1538.26 0.
-37.3684 -1636.44 0.
-80.8216 -1734.62 0.
176.52 -1694.77 0.
143.967 -1768.26 0.
111.414 -1841.74 0.
601.551 -1570.29 0.
653.255 -1450.69 0.
1661.68 -921.362 0.
693.987 -1220.1 0.
755.411 -1077.81 0.
309.568 -1212.04 0.
226.207 -1405.07 0.
142.846 -1598.1 0.
157.081 -1652.43 0.
186.26 -1580.15 0.
215.439 -1507.87 0.
152.681 -1515.29 0.
148.411 -1520.7 0.
144.142 -1526.12 0.
433.578 -1492.1 0.
381.027 -1613.99 0.
59.9904 -1817.3 0.
152.855 -1599.53 0.
245.719 -1381.75 0.
164.639 -1340.03 0.
97.7355 -1495.45 0.
30.8321 -1650.88 0.
-169.377 -1765.19 0.
-144.338 -1708.67 0.
-119.299 -1652.16 0.
-134.055 -1557.59 0.
-73.7661 -1421.89 0.
814.979 -943.076 0.
-266.873 -1444.06 0.
-285.17 -1488.94 0.
76.7883 -1345.68 0.
93.4359 -1304.35 0.
110.084 -1263.02 0.
64.5189 -1326.33 0.
-6.56446 -1492.29 0.
-77.6477 -1658.26 0.
75.5011 -1391.09 0.
259.512 -965.068 0.
443.523 -539.05 0.
163.603 -655.634 0.
153.473 -681.762 0.
-16.4639 -772.911 0.
-43.3484 -836.043 0.
-70.2331 -899.175 0.
-301.295 -1057.56 0.
-334.569 -1135.49 0.
-367.843 -1213.41 0.
-186.759 -1138.93 0.
-168.929 -1093.37 0.
-151.099 -1047.8 0.
-552.571 -1202.84 0.
-547.078 -1189 0.
498.062 820.364 0.
812.806 139.724 0.
735.181 -45.3491 0.
-174.025 22.2749 0.
-328.89 -342.093 0.
-51.4803 303.471 0.
-211.549 -1125.65 0.
-38.0734 -722.281 0.
123.282 -347.872 0.
176.451 -686.866 0.
528.736 134.149 0.
733.143 610.49 0.
452.911 -166.05 0.
560.117 86.7382 0.
586.071 519.304 0.
-130.898 -1156.4 0.
215.023 -351.678 0.
828.715 43.2694 0.
1080.69 630.9 0.
886.932 178.564 0.
542.681 549.985 0.
452.362 339.787 0.
517.531 492.858 0.
311.911 -540.135 0.
437.094 -250.569 0.
663.052 -237.105 0.
517.977 -241.135 0.
807.767 428.929 0.
675.1 436.67 0.
582.913 222.576 0.
121.348 -853.178 0.
1228.76 330.476 0.
1103.99 38.895 0.
1062.85 -57.7021 0.
415.834 -41.7555 0.
517.969 195.406 0.
723.443 673.292 0.
1538.3 1149 0.
924.693 -282.568 0.
416.728 -882.897 0.
952.639 367.076 0.
758.567 -86.6729 0.
982.497 622.422 0.
551.175 -386.898 0.
679.526 -90.5699 0.
826.277 75.9833 0.
409.348 -899.79 0.
779.981 -38.0893 0.
1372.32 267.527 0.
1859.38 1405.3 0.
-5642.46 -1696.31 0.
1054.23 148.64 0.
793.73 -457.857 0.
185.311 -1456.59 0.
830.748 48.3515 0.
592.119 -509.252 0.
817.904 -612.764 0.
1163.58 190.051 0.
705.696 -881.633 0.
509.974 -633.452 0.
1099.82 738.449 0.
596.93 -439.64 0.
1010.51 11.4144 0.
912.484 -219.413 0.
627.609 -388.555 0.
843.564 116.195 0.
898.889 245.72 0.
783.052 -541.532 0.
710.536 -709.926 0.
942.822 -167.082 0.
539.716 379.351 0.
45.1226 -776.184 0.
39.1956 -791.315 0.
603.646 80.8674 0.
559.58 -20.9794 0.
1425.78 1259.86 0.
189.713 -46.1916 0.
493.553 666.369 0.
843.491 438.664 0.
568.899 -202.411 0.
357.164 -697.348 0.
643.794 -13.0785 0.
799.123 348.112 0.
732.939 192.72 0.
792.107 128.551 0.
731.005 -12.9084 0.
961.347 525.522 0.
626.946 137.653 0.
354.182 -493.949 0.
523.117 530.864 0.
330.214 84.998 0.
20.559 -633.883 0.
201.117 452.44 0.
393.433 902.63 0.
120.17 266.461 0.
119.831 -368.804 0.
297.752 43.1914 0.
887.298 1416.55 0.
-24.4305 718.036 0.
29.4045 842.345 0.
-209.859 -954.605 0.
221.255 -614.418 0.
282.563 -472.419 0.
-300.199 -651.948 0.
-368.952 -812.963 0.
-437.705 -973.979 0.
-150.115 -889.141 0.
-102.634 -779.457 0.
-55.1543 -669.773 0.
137.769 -642.078 0.
66.8121 -807.064 0.
-4.1452 -972.05 0.
88.8512 -968.812 0.
79.5051 -991.467 0.
-82.1774 -1058.87 0.
-16.0864 -908.943 0.
50.0049 -759.012 0.
351.755 -682.947 0.
124.891 -1213.34 0.
-101.974 -1743.73 0.
-412.707 -1958.74 0.
-297.858 -1692.9 0.
-183.009 -1427.06 0.
103.453 -1275.66 0.
88.4332 -1313.68 0.
342.536 -1236.26 0.
-167.244 -1509.82 0.
-193.68 -1574.1 0.
-53.7424 -1531.14 0.
4.09503 -1396.69 0.
61.9328 -1262.23 0.
294.55 -1144.04 0.
239.325 -1274.64 0.
184.1 -1405.24 0.
36.6059 -1579.57 0.
-23.2315 -1721.36 0.
-83.0695 -1863.14 0.
139.894 -1824.53 0.
117.486 -1877.45 0.
-15.3968 -1959.3 0.
66.682 -1769.86 0.
148.761 -1580.42 0.
134.391 -1486.85 0.
128.569 -1502.58 0.
122.747 -1518.31 0.
212.416 -1469.68 0.
226.784 -1440.52 0.
241.152 -1411.36 0.
642.498 -1358.7 0.
558.648 -1553.58 0.
-1369.39 -2540.18 0.
274.909 -1631.99 0.
381.348 -1383.27 0.
146.671 -1382.72 0.
7.11018 -1708.87 0.
-132.451 -2035.02 0.
124.721 -2035.1 0.
174.639 -1919.82 0.
224.556 -1804.53 0.
80.2509 -1709.69 0.
177.37 -1485.74 0.
274.49 -1261.8 0.
369.863 -1296.17 0.
317.599 -1420.96 0.
159.373 -1573.83 0.
179.684 -1528.6 0.
199.995 -1483.36 0.
347.611 -1403.77 0.
334.846 -1433.47 0.
322.081 -1463.17 0.
-166.098 -1561.81 0.
-51.8935 -1296.41 0.
62.3111 -1031.01 0.
115.951 -1021.52 0.
78.7272 -1105.73 0.
117.623 -1147.71 0.
-326.165 -1370.35 0.
-345.907 -1411.63 0.
85.83 -1251.21 0.
97.5256 -1224.8 0.
109.221 -1198.38 0.
107.85 -1185.32 0.
112.825 -1172.57 0.
117.801 -1159.83 0.
162.874 -1059.28 0.
220.761 -922.396 0.
278.647 -785.51 0.
69.6928 -1026.08 0.
-27.4506 -1248.06 0.
-376.956 -1537.95 0.
-299.269 -1353.24 0.
-221.583 -1168.52 0.
-382.88 -1131.61 0.
-377.238 -1117.03 0.
-371.597 -1102.44 0.
-107.052 -896.875 0.
-24.4059 -705.375 0.
58.2398 -513.874 0.
-352.29 -729.003 0.
-394.755 -829.875 0.
-129.757 -891.081 0.
-90.517 -716.051 0.
-30.1033 -573.791 0.
-85.0898 -529.998 0.
-154.691 -690.452 0.
-224.291 -850.905 0.
-183.118 -872.135 0.
-135.698 -762.502 0.
-88.2786 -652.869 0.
81.5462 -635.854 0.
10.4642 -800.762 0.
-60.6177 -965.67 0.
80.6853 -941.552 0.
71.3497 -964.29 0.
-53.1323 -1014.27 0.
12.7478 -864.226 0.
78.6282 -714.184 0.
164.829 -731.179 0.
-62.0905 -1261.09 0.
-289.01 -1791.01 0.
-248.633 -1858.39 0.
-133.989 -1592.52 0.
-19.3458 -1326.66 0.
253.5 -1178.81 0.
238.195 -1217.12 0.
-206.368 -1439.58 0.
-325.087 -1546.57 0.
-352.187 -1610.94 0.
105.771 -1433.4 0.
163.391 -1298.9 0.
221.01 -1164.39 0.
-55.6793 -1259.88 0.
-110.175 -1390.91 0.
-164.669 -1521.95 0.
397.005 -1391.95 0.
336.828 -1533.47 0.
276.65 -1674.98 0.
5.76195 -1851.22 0.
-16.7792 -1903.9 0.
36.9042 -1905.65 0.
119.539 -1716.45 0.
202.174 -1527.25 0.
216.773 -1418.66 0.
210.827 -1434.46 0.
204.882 -1450.25 0.
288.887 -1406.28 0.
302.798 -1376.74 0.
316.709 -1347.19 0.
620.931 -1336.94 0.
536.713 -1531.63 0.
-119.452 -1972.78 0.
272.613 -1601.34 0.
379.291 -1352.58 0.
76.4951 -1381.97 0.
-63.1247 -1708.33 0.
-202.745 -2034.7 0.
38.8089 -2039.85 0.
88.6461 -1924.59 0.
138.483 -1809.34 0.
134.448 -1655.72 0.
231.498 -1431.47 0.
328.549 -1207.21 0.
285.088 -1301 0.
232.941 -1426.25 0.
231.422 -1509.52 0.
252.325 -1464.94 0.
273.228 -1420.36 0.
278.726 -1401.16 0.
266.487 -1431.22 0.
254.248 -1461.28 0.
4.55711 -1457.75 0.
119.175 -1192.69 0.
233.793 -927.619 0.
112.808 -990.994 0.
75.6561 -1075.22 0.
-147.78 -1230.08 0.
-247.277 -1305.72 0.
-266.668 -1347.42 0.
61.5479 -1230.46 0.
73.1394 -1203.7 0.
84.731 -1176.94 0.
81.2219 -1165.55 0.
86.107 -1152.86 0.
90.9923 -1140.18 0.
31.1911 -1084.23 0.
89.3234 -947.908 0.
147.455 -811.587 0.
14.1288 -1018.42 0.
-82.6526 -1240.88 0.
-377.027 -1507.56 0.
-299.207 -1322.76 0.
-221.387 -1137.97 0.
-248.442 -1040.9 0.
-242.743 -1026.31 0.
-237.044 -1011.72 0.
-92.8817 -860.732 0.
-10.5076 -669.183 0.
71.8666 -477.634 0.
22.2048 -537.763 0.
-20.2466 -639.02 0.
239.258 -170.756 0.
-181.699 -526.873 0.
-244.85 -671.834 0.
-110.034 -718.166 0.
-133.622 -772.642 0.
-157.21 -827.118 0.
-221.034 -916.66 0.
-267.962 -1023.47 0.
-314.889 -1130.27 0.
-84.1205 -1017.06 0.
-44.8465 -926.248 0.
-5.57234 -835.441 0.
185.47 -739.193 0.
186.833 -734.028 0.
30.6632 -801.519 0.
-24.4713 -925.123 0.
-79.6055 -1048.73 0.
-106.671 -1131.43 0.
-107.924 -1132.2 0.
-109.177 -1132.97 0.
132.846 -1125.95 0.
37.7678 -1347.74 0.
-57.3105 -1569.52 0.
97.4757 -1417.52 0.
188.805 -1204.05 0.
382.946 -946.066 0.
-41.9793 -1026.57 0.
7.2157 -911.351 0.
369.627 -739.974 0.
226.358 -1075.79 0.
83.0886 -1411.6 0.
-273.577 -1719.82 0.
-269.835 -1707.25 0.
-266.093 -1694.69 0.
447.993 -1350.65 0.
477.696 -1281.68 0.
507.398 -1212.71 0.
299.598 -1249.46 0.
325.533 -1188.98 0.
304.096 -1166.67 0.
232.64 -1332.28 0.
161.184 -1497.89 0.
149.753 -1581.62 0.
168.481 -1536.22 0.
187.209 -1490.82 0.
347.599 -1435.18 0.
322.542 -1494.34 0.
297.485 -1553.5 0.
522.073 -1258.47 0.
668.327 -918.848 0.
-1300.55 -1484.84 0.
624.301 -857.679 0.
520.056 -1100.1 0.
-40.6285 -1510.8 0.
-80.7796 -1605.71 0.
-120.931 -1700.62 0.
146.91 -1560.6 0.
227.265 -1372.91 0.
307.621 -1185.22 0.
345.51 -1204.19 0.
279.815 -1356.92 0.
214.12 -1509.65 0.
165.32 -1496.93 0.
191.257 -1432.58 0.
262.798 -1349.85 0.
302.994 -1254.24 0.
343.19 -1158.63 0.
301.366 -1151.57 0.
263.514 -1236.75 0.
225.663 -1321.92 0.
111.555 -1353.09 0.
148.281 -1265.69 0.
185.007 -1178.28 0.
151.11 -1156.22 0.
161.687 -1130.12 0.
125.258 -1134.46 0.
-181.513 -1169.62 0.
-130.745 -1051.08 0.
195.644 -862.966 0.
121.724 -1034.14 0.
47.8047 -1205.31 0.
32.1159 -1265.37 0.
62.9592 -1193.66 0.
93.8025 -1121.96 0.
-51.3459 -1137.63 0.
-31.2581 -1090.58 0.
-11.1703 -1043.53 0.
68.1784 -869.99 0.
150.265 -679.035 0.
-18.6899 -609.248 0.
-16.1797 -606.531 0.
-13.6693 -603.814 0.
17.5332 -626.263 0.
-24.1803 -726.762 0.
-65.8935 -827.261 0.
-57.1814 -854.305 0.
-56.2569 -853.162 0.
-55.3329 -852.018 0.
57.7449 -640.643 0.
166.542 -389.971 0.
306.459 -114.902 0.
-263.167 -531.549 0.
-326.148 -676.645 0.
-146.052 -701.815 0.
-169.661 -756.197 0.
-193.271 -810.578 0.
-204.444 -876.935 0.
-250.835 -984.228 0.
-297.227 -1091.52 0.
-8.53339 -954.472 0.
30.7052 -863.712 0.
69.9439 -772.951 0.
271.497 -669.902 0.
272.842 -665.006 0.
11.3681 -778.055 0.
-44.3758 -901.569 0.
-100.119 -1025.08 0.
-136.123 -1112.8 0.
-136.718 -1114.11 0.
-137.313 -1115.41 0.
169.701 -1078.2 0.
74.365 -1299.79 0.
-20.9716 -1521.38 0.
-136.408 -1485.09 0.
-44.9996 -1271.94 0.
70.5931 -1048.38 0.
295.706 -851.184 0.
344.849 -735.458 0.
160.009 -799.184 0.
16.9098 -1134.88 0.
-126.19 -1470.58 0.
46.2805 -1551.69 0.
50.0744 -1539.13 0.
53.8681 -1526.57 0.
203.02 -1423.16 0.
233.106 -1354.46 0.
263.192 -1285.76 0.
549.906 -1111.57 0.
575.657 -1050.49 0.
163.382 -1196.35 0.
91.6691 -1361.44 0.
19.9567 -1526.53 0.
111.479 -1567.77 0.
129.825 -1521.88 0.
148.171 -1476 0.
480.075 -1346.19 0.
455.972 -1406.21 0.
431.868 -1466.23 0.
238.605 -1348.4 0.
384.807 -1008.9 0.
-351.609 -1046.49 0.
754.19 -769.919 0.
649.492 -1012.2 0.
-91.0451 -1500.6 0.
-130.808 -1595.75 0.
-170.57 -1690.9 0.
27.4534 -1581.36 0.
107.913 -1393.79 0.
188.372 -1206.22 0.
365.132 -1164.82 0.
299.958 -1318.19 0.
234.783 -1471.56 0.
197.928 -1451.12 0.
223.683 -1386.82 0.
116.317 -1379.54 0.
157.143 -1284.49 0.
197.968 -1189.43 0.
189.082 -1167.95 0.
151.575 -1253.52 0.
114.068 -1339.09 0.
124.355 -1315.58 0.
161.203 -1228 0.
198.051 -1140.42 0.
452.841 -998.007 0.
463.28 -971.849 0.
445.001 -963.377 0.
-205.125 -1146.07 0.
-154.484 -1027.9 0.
192.872 -833.775 0.
118.846 -1005.09 0.
44.819 -1176.41 0.
85.0164 -1211.52 0.
116.069 -1140.17 0.
147.122 -1068.82 0.
-39.3502 -1099.66 0.
-18.5277 -1053.3 0.
2.29479 -1006.94 0.
130.769 -811.992 0.
212.967 -621.383 0.
-46.3587 -590.768 0.
-43.3581 -587.976 0.
-40.3572 -585.184 0.
147.863 -537.651 0.
106.365 -638.407 0.
64.8677 -739.162 0.
37.5854 -782.343 0.
38.4357 -781.348 0.
39.2855 -780.353 0.
-72.1957 -667.279 0.
36.1032 -417.458 0.
537.85 359.098 0.
106.316 504.545 0.
-104.232 11.0558 0.
567.026 1065.01 0.
165.325 124.816 0.
386.286 638.149 0.
158.408 -33.5901 0.
407.225 550.471 0.
316.443 341.606 0.
504.138 114.799 0.
693.221 559.206 0.
551.118 231.66 0.
672.579 139.715 0.
693.76 189.072 0.
390.837 184.795 0.
143.275 -393.613 0.
305.909 -14.5319 0.
301.29 -12.5839 0.
689.272 893.996 0.
567.773 611.518 0.
568.548 -183.118 0.
639.834 -14.1117 0.
628.482 -38.0154 0.
30.5467 -635.236 0.
625.2 751.03 0.
730.929 208.752 0.
895.229 -62.9428 0.
1180.59 605.623 0.
71.9104 -592.683 0.
567.558 568.779 0.
368.689 109.91 0.
635.992 -746.227 0.
1127.73 400.094 0.
1083.82 296.794 0.
389.553 -487.342 0.
536.569 -144.506 0.
843.584 571.022 0.
1066.4 -346.721 0.
885.85 -768.404 0.
410.092 -319.062 0.
755.014 490.376 0.
519.325 -55.0146 0.
381.244 -839.044 0.
423.993 -739.983 0.
683.44 -134.923 0.
1245.82 212.618 0.
880.877 -639.269 0.
1090.36 -151.088 0.
510.823 -140.449 0.
842.758 632.856 0.
-3275.14 -922.903 0.
1686.69 1182.47 0.
1139.29 -94.2394 0.
213.359 -663.411 0.
341.497 -363.755 0.
279.043 -508.884 0.
569.572 -65.5992 0.
828.861 539.038 0.
391.062 -482.644 0.
852.43 -40.9696 0.
581.643 -675.409 0.
858.692 -31.7584 0.
484.944 -809.452 0.
895.772 144.137 0.
754.218 409.746 0.
441.708 -313.328 0.
500.079 -170.953 0.
420.096 -383.178 0.
953.79 866.419 0.
723.881 334.365 0.
679.356 -23.8445 0.
743.72 133.445 0.
941.201 601.454 0.
798.494 -747.887 0.
595.639 -1223.98 0.
460.691 -5.21536 0.
215.449 -88.5661 0.
236.483 -42.0274 0.
523.989 -16.6289 0.
96.0272 -1018.21 0.
802.306 626.514 0.
642.629 16.9961 0.
725.169 208.643 0.
932.835 692.191 0.
433.347 10.7483 0.
408.642 -47.6897 0.
457.641 66.8082 0.
938.691 982.321 0.
701.929 429.818 0.
403.349 530.622 0.
23.8493 -352.143 0.
105.318 -159.64 0.
-67.7151 -1267.67 0.
430.555 -103.031 0.
477.382 8.27703 0.
193.742 -556.987 0.
55.3174 -877.779 0.
538.585 250.906 0.
107.097 16.3897 0.
61.9475 -87.8807 0.
-9.68822 -734.792 0.
70.1271 -628.921 0.
78.206 -612.493 0.
-245.955 -722.106 0.
-190.55 -596.399 0.
-135.145 -470.692 0.
-20.3025 -476.441 0.
-162.506 -805.425 0.
-304.709 -1134.41 0.
34.6491 -1112.13 0.
9.80891 -1170.53 0.
-15.0314 -1228.93 0.
-178.29 -1212.95 0.
-117.924 -1073.55 0.
179.707 -852.317 0.
136.553 -958.207 0.
93.3993 -1064.1 0.
-42.5972 -1120.35 0.
56.4751 -888.442 0.
155.547 -656.533 0.
187.545 -609.152 0.
134.433 -733.709 0.
81.3218 -858.267 0.
-69.984 -1077.4 0.
-161.637 -1289.56 0.
-431.259 -1578.19 0.
278.648 -1291.92 0.
274.333 -1302.33 0.
-232.926 -1514.9 0.
-211.026 -1462.11 0.
-189.126 -1409.33 0.
301.841 -1157.12 0.
319.092 -1118.01 0.
336.343 -1078.9 0.
-24.0855 -1265.1 0.
-57.6745 -1343.81 0.
-91.2638 -1422.52 0.
546.481 -1162.38 0.
543.008 -1172.72 0.
326.039 -1287.29 0.
270.985 -1416.7 0.
215.932 -1546.12 0.
-6.23851 -1693.61 0.
25.1261 -1622.56 0.
56.4907 -1551.5 0.
315.352 -1298.91 0.
425.623 -1041.98 0.
535.894 -785.05 0.
193.315 -901.761 0.
181.754 -929.259 0.
-1329.75 -1600.64 0.
804.17 -995.068 0.
641.67 -1373.95 0.
-376.893 -1958.86 0.
-167.177 -1469.89 0.
42.5382 -980.928 0.
389.252 -779.999 0.
195.364 -1234.22 0.
1.47621 -1688.44 0.
-44.4263 -1688.87 0.
64.0818 -1434.06 0.
172.589 -1179.25 0.
372.037 -1034.63 0.
395.891 -984.713 0.
241.883 -1022.71 0.
201.577 -1111.02 0.
161.27 -1199.33 0.
7.13604 -1257.91 0.
76.2104 -1092.46 0.
145.284 -926.999 0.
254.503 -891.423 0.
192.21 -1036.27 0.
129.917 -1181.12 0.
597.043 -1001.6 0.
602.96 -991.471 0.
892.05 -854.963 0.
-192.581 -1172.5 0.
-114.561 -992.094 0.
310.516 -717.346 0.
274.333 -806.97 0.
238.151 -896.594 0.
172.38 -888.817 0.
257.607 -690.827 0.
342.834 -492.836 0.
26.8532 -755.427 0.
-104.059 -1060.31 0.
-234.971 -1365.19 0.
29.5489 -1068.69 0.
147.177 -795.48 0.
-129.687 -733.56 0.
-170.129 -825.574 0.
-210.571 -917.588 0.
-103.596 -899.294 0.
-74.3624 -828.833 0.
-45.1288 -758.371 0.
192.04 -662.508 0.
166.668 -720.253 0.
141.296 -777.998 0.
-176.365 -645.507 0.
0.306539 -232.998 0.
-91.696 -742.768 0.
637.066 -356.309 0.
645.21 -339.669 0.
-285.558 -706.555 0.
-229.765 -581.25 0.
-173.971 -455.944 0.
8.10753 -433.597 0.
-133.799 -762.503 0.
-275.705 -1091.41 0.
122.56 -1043.14 0.
98.4356 -1102.32 0.
74.3108 -1161.51 0.
-495.128 -1316.13 0.
-434.652 -1177.11 0.
488.34 -688.412 0.
444.359 -793.412 0.
400.377 -898.412 0.
135.465 -1013.13 0.
234.512 -780.992 0.
333.558 -548.856 0.
-39.1349 -677.39 0.
-92.3412 -801.905 0.
-145.547 -926.419 0.
56.2191 -991.665 0.
-35.9344 -1203.55 0.
662.548 -1076.91 0.
183.559 -1304.04 0.
179.375 -1314.57 0.
-103.272 -1427.43 0.
-81.0371 -1375.05 0.
-58.8022 -1322.67 0.
123.036 -1201.83 0.
140.502 -1162.84 0.
157.969 -1123.85 0.
-107.126 -1267.52 0.
-140.355 -1346.51 0.
-173.584 -1425.49 0.
351.103 -1215.19 0.
347.286 -1225.04 0.
754.818 -1072.05 0.
699.38 -1201.07 0.
643.943 -1330.1 0.
-16.9305 -1667.31 0.
14.7934 -1596.39 0.
46.5174 -1525.47 0.
-16.8489 -1410.93 0.
93.4437 -1153.98 0.
203.736 -897.019 0.
226.033 -857.627 0.
214.265 -884.813 0.
-2049.29 -1877.04 0.
879.032 -931.555 0.
716.868 -1310.87 0.
-402.541 -1938.4 0.
-192.643 -1449.98 0.
17.2553 -961.557 0.
563.273 -673.526 0.
368.939 -1127.56 0.
174.605 -1581.6 0.
-264.373 -1753.34 0.
-155.982 -1498.72 0.
-47.5919 -1244.11 0.
368.899 -1003.82 0.
393.294 -953.811 0.
386.281 -927.951 0.
346.714 -1016.51 0.
307.146 -1105.06 0.
-23.882 -1240.77 0.
45.4532 -1075.39 0.
114.788 -910.013 0.
208.539 -878.492 0.
147.096 -1024 0.
85.6529 -1169.5 0.
502.399 -1012.41 0.
508.616 -1002.6 0.
638.616 -931.27 0.
-108.197 -1103.9 0.
-30.4273 -923.389 0.
431.566 -633.869 0.
395.14 -723.417 0.
358.713 -812.964 0.
85.7181 -895.359 0.
171.112 -697.631 0.
256.506 -499.903 0.
-54.7559 -759.327 0.
-185.089 -1064.75 0.
-315.422 -1370.16 0.
8.59944 -1046.73 0.
125.956 -773.212 0.
-105.999 -691.319 0.
-146.119 -783.223 0.
-186.24 -875.126 0.
-324.271 -963.229 0.
-295.043 -892.56 0.
-265.815 -821.89 0.
260.044 -602.765 0.
234.569 -660.822 0.
209.094 -718.878 0.
-158.263 -605.471 0.
18.5185 -193.824 0.
-51.3152 -660.717 0.
530.65 -595.053 0.
493.629 -679.483 0.
-372.459 -1103.69 0.
-367.749 -1089.15 0.
-363.041 -1074.62 0.
-162.711 -953.058 0.
-132.779 -882.59 0.
-102.848 -812.122 0.
191.938 -658.841 0.
197.411 -645.248 0.
202.884 -631.656 0.
-379.879 -959.016 0.
-427.304 -1069.35 0.
510.335 -743.354 0.
560.683 -624.441 0.
611.031 -505.528 0.
284.155 -632.202 0.
188.425 -853.42 0.
92.6951 -1074.64 0.
-314.843 -1333.81 0.
-316.01 -1337.02 0.
-317.178 -1340.22 0.
-94.3243 -1194.21 0.
-53.0362 -1098.58 0.
977.296 -578.849 0.
263.12 -1069.31 0.
155.39 -1316.96 0.
40.1053 -1494.11 0.
128.326 -1286.1 0.
216.546 -1078.09 0.
64.6474 -1028.9 0.
83.1035 -981.786 0.
101.559 -934.674 0.
-9.18234 -1053.76 0.
-73.4973 -1202.71 0.
-137.812 -1351.66 0.
191.089 -1245.33 0.
176.573 -1278.18 0.
845.414 -1003.14 0.
895.554 -886.482 0.
945.694 -769.824 0.
291.03 -976.537 0.
300.36 -954.556 0.
309.69 -932.575 0.
54.6766 -985.767 0.
105.7 -863.816 0.
156.723 -741.866 0.
276.343 -858.01 0.
149.036 -1154.4 0.
641.761 -1187.42 0.
721.719 -928.577 0.
840.207 -653.117 0.
164.668 -788.181 0.
112.852 -909.268 0.
61.0359 -1030.35 0.
465.944 -892.016 0.
491.144 -834.082 0.
516.343 -776.147 0.
-17.9401 -1066.52 0.
-78.4031 -1205.99 0.
-138.866 -1345.45 0.
413.228 -1058.98 0.
448.788 -973.06 0.
359.852 -960.691 0.
310.829 -1075.19 0.
261.806 -1189.68 0.
-80.4412 -1358.12 0.
-23.726 -1226.92 0.
32.9894 -1095.71 0.
133.867 -998.316 0.
137.165 -986.196 0.
140.463 -974.077 0.
399.11 -868.751 0.
395.46 -879.178 0.
1020.56 -618.289 0.
-8.83587 -1137.07 0.
-50.1181 -1232.74 0.
151.082 -1172.87 0.
210.639 -1028.67 0.
270.197 -884.48 0.
166.521 -855.658 0.
179.798 -823.524 0.
193.076 -791.389 0.
-64.8466 -837.31 0.
-20.7693 -734.482 0.
23.3076 -631.654 0.
2.31147 -716.729 0.
-43.7949 -822.981 0.
-196.498 -933.049 0.
-66.9621 -631.557 0.
62.5742 -330.064 0.
-48.7994 -263.086 0.
-121.236 -432.22 0.
-193.673 -601.354 0.
282.692 -409.956 0.
322.561 -319.1 0.
362.429 -228.243 0.
-64.8496 -440.339 0.
-86.3692 -490.965 0.
37.625 -591.825 0.
2.45509 -794.099 0.
-35.1599 -877.544 0.
-118.542 -961.071 0.
-113.54 -946.532 0.
-108.538 -931.993 0.
-33.2959 -867.996 0.
-3.77328 -797.249 0.
25.7495 -726.502 0.
-92.861 -748.962 0.
-86.9757 -735.633 0.
-81.0909 -722.303 0.
-125.944 -820.162 0.
-173.185 -930.841 0.
349.58 -778.351 0.
400.106 -659.3 0.
450.633 -540.249 0.
101.126 -680.583 0.
5.14081 -901.285 0.
-90.8439 -1121.99 0.
-53.6413 -1190.85 0.
-54.3856 -1194.48 0.
-55.1299 -1198.12 0.
-333.681 -1262.56 0.
-292.384 -1167.22 0.
-113.84 -1013.32 0.
331.686 -1010.8 0.
224.086 -1258.66 0.
363.058 -1322.47 0.
451.593 -1114.83 0.
540.127 -907.186 0.
-46.8819 -1045.28 0.
-28.2736 -998.39 0.
-9.66594 -951.501 0.
121.254 -965.797 0.
56.9201 -1115.07 0.
-7.41411 -1264.34 0.
61.8306 -1269.95 0.
47.674 -1302.85 0.
592.037 -1078.75 0.
642.273 -962.512 0.
692.508 -846.273 0.
361.817 -917.077 0.
371.704 -895.638 0.
381.591 -874.198 0.
137.563 -917.278 0.
189.138 -796.107 0.
240.713 -674.936 0.
382.663 -781.145 0.
255.668 -1078.09 0.
338.263 -1284.98 0.
307.521 -1073 0.
425.45 -797.422 0.
402.132 -655.492 0.
349.551 -776.213 0.
296.971 -896.933 0.
307.495 -929.514 0.
332.499 -871.629 0.
357.502 -813.743 0.
123.532 -973.743 0.
63.4124 -1113.24 0.
3.2932 -1252.73 0.
617.451 -939.903 0.
653.603 -854.194 0.
212.265 -993.147 0.
163.043 -1107.37 0.
113.821 -1221.59 0.
-33.7708 -1308.53 0.
22.5006 -1176.8 0.
78.772 -1045.06 0.
142.175 -962.745 0.
144.883 -950.333 0.
147.592 -937.92 0.
134.784 -951.411 0.
130.479 -961.122 0.
858.471 -654.717 0.
221.292 -1006.02 0.
180.383 -1101.67 0.
-63.053 -1234.05 0.
-2.70882 -1090.7 0.
57.6359 -947.354 0.
431.644 -710.263 0.
445.023 -678.197 0.
458.402 -646.13 0.
93.6125 -738.152 0.
138.065 -635.703 0.
182.517 -533.253 0.
-299.298 -813.29 0.
-345.228 -919.5 0.
-146.898 -881.329 0.
-17.6292 -578.911 0.
111.64 -276.492 0.
136.955 -153.028 0.
64.2226 -321.991 0.
-8.50999 -490.953 0.
104.034 -455.167 0.
143.738 -364.492 0.
183.442 -273.816 0.
7.63324 -378.022 0.
-13.9316 -429.53 0.
171.477 -380.69 0.
326.323 998.368 0.
70.4391 399.093 0.
589.184 241.561 0.
104.976 -888.316 0.
821.556 783.41 0.
844.387 975.579 0.
512.257 195.012 0.
58.9514 -868.435 0.
-72.8443 -131.143 0.
33.2409 115.747 0.
60.1322 177.301 0.
581.287 374.023 0.
102.361 -743.426 0.
520.328 -35.42 0.
643.294 251.006 0.
402.575 -311.354 0.
54.1804 -400.908 0.
278.02 120.655 0.
234.477 18.21 0.
585.783 -160.699 0.
659.128 8.30994 0.
562.244 -219.89 0.
-188.557 -439.714 0.
-0.774263 -4.18261 0.
-135.262 176.279 0.
693.502 -265.987 0.
752.494 -128.309 0.
824.532 -826.641 0.
725.534 -1055.77 0.
1313.02 317.16 0.
477.287 416.68 0.
273.957 -57.1953 0.
393.922 223.394 0.
587.724 -94.7999 0.
184.115 -1035.63 0.
605.745 -51.0583 0.
364.063 -290.302 0.
83.5406 -942.195 0.
607.638 -530.436 0.
733.929 -236.237 0.
847.639 28.8261 0.
865.833 135.744 0.
830.199 54.343 0.
545.491 -607.91 0.
169.34 -968.412 0.
417.851 -391.62 0.
662.487 176.437 0.
980.864 453.543 0.
913.467 294.978 0.
69.7166 -1445.82 0.
25.3704 -919.855 0.
278.637 -327.332 0.
1193.48 767.616 0.
920.039 132.708 0.
1069.69 485.301 0.
339.324 -524.09 0.
379.155 -429.249 0.
479.24 -193.979 0.
173.244 -1088.34 0.
271.725 -856.676 0.
524.828 -264.549 0.
1087.38 -210.487 0.
1110.54 -150.872 0.
633.191 293.051 0.
193.947 -726.331 0.
197.024 -713.517 0.
556.06 7.29735 0.
776.359 522.265 0.
505.105 -109.965 0.
473.156 -163.622 0.
606.52 148.322 0.
455.608 -203.768 0.
608.37 688.392 0.
284.867 -62.7244 0.
843.947 471.899 0.
1141.95 727.445 0.
593.475 -547.083 0.
386.954 248.172 0.
68.5039 -492.749 0.
2.11486 -645.393 0.
601.318 -782.767 0.
1192.61 594.167 0.
969.519 70.8204 0.
319.339 -477.292 0.
231.204 -682.737 0.
322.376 -469.54 0.
-176.121 71.051 0.
-295.197 -207.446 0.
392.382 317.082 0.
290.778 81.6076 0.
557.967 705.578 0.
764.588 998.047 0.
547.572 494.711 0.
398.082 148.389 0.
190.179 111.236 0.
-40.5003 -428.592 0.
69.7647 -170.568 0.
-26.9163 -558.943 0.
47.9848 -383.518 0.
91.3917 -365.286 0.
-152.564 -461.147 0.
-214.09 -606.021 0.
179.2 -550.464 0.
146.406 -626.169 0.
113.612 -701.874 0.
86.0397 -759.318 0.
72.509 -796.271 0.
58.9783 -833.224 0.
-290.112 -903.333 0.
-208.33 -713.218 0.
-126.548 -523.103 0.
259.789 -406.521 0.
209.06 -521.394 0.
146.841 -653.782 0.
70.1699 -833.478 0.
-6.50047 -1013.17 0.
-367.492 -1264.99 0.
-372.126 -1277.04 0.
-376.76 -1289.1 0.
289.179 -938.541 0.
351.812 -792.619 0.
414.445 -646.697 0.
-303.894 -937.343 0.
-308.756 -950.378 0.
96.7074 -786.501 0.
404.898 -635.314 0.
415.103 -610.978 0.
740.897 -489.486 0.
654.312 -691.193 0.
567.727 -892.9 0.
-206.002 -1327.71 0.
-213.212 -1346.57 0.
-220.421 -1365.44 0.
202.667 -1147.57 0.
226.902 -1087.23 0.
251.136 -1026.88 0.
194.987 -991.234 0.
228.528 -912.852 0.
453.385 -765.659 0.
440.342 -797.343 0.
427.299 -829.028 0.
389 -888.057 0.
346.53 -987.106 0.
304.06 -1086.15 0.
24.675 -1246.98 0.
25.763 -1249.15 0.
26.8509 -1251.32 0.
454.559 -901.653 0.
566.685 -639.115 0.
1167.59 -167.424 0.
40.222 -813.791 0.
-46.6666 -1014.75 0.
224.162 -1035.22 0.
205.624 -1077.03 0.
187.086 -1118.84 0.
-5.45538 -1228.61 0.
-17.0415 -1254.8 0.
-28.6277 -1280.99 0.
296.073 -1226.31 0.
235.334 -1366.04 0.
174.595 -1505.78 0.
304.405 -1363.57 0.
361.019 -1231.15 0.
29.2614 -1260.83 0.
103.79 -1084.97 0.
178.319 -909.116 0.
124.431 -856.951 0.
98.1085 -916.599 0.
71.7863 -976.247 0.
6.37934 -1028.7 0.
1.83782 -1040.26 0.
-2.70433 -1051.82 0.
-88.9099 -1161.14 0.
-135.262 -1270.51 0.
761.695 -978.159 0.
16.458 -1369.44 0.
-23.583 -1458.44 0.
-123.981 -1518.92 0.
-43.0884 -1328.75 0.
37.8033 -1138.57 0.
470.337 -860.178 0.
482.153 -833.748 0.
493.969 -807.317 0.
0.766882 -958.642 0.
43.1927 -862.469 0.
85.618 -766.297 0.
-336.55 -833.034 0.
-272.1 -685.067 0.
98.862 -423.466 0.
74.5929 -481.279 0.
50.3239 -539.093 0.
72.2914 -533.077 0.
112.495 -440.009 0.
152.697 -346.941 0.
18.2284 -319.801 0.
70.0881 -198.541 0.
121.947 -77.2816 0.
12.2303 -327.967 0.
-140.471 -683.068 0.
0.847375 -376.355 0.
42.4843 -346.205 0.
-19.1943 -490.949 0.
110.991 -548.596 0.
77.987 -623.955 0.
44.9827 -699.314 0.
84.0409 -727.655 0.
70.3673 -764.87 0.
56.6936 -802.085 0.
-134.996 -806.971 0.
-53.6251 -616.42 0.
27.7463 -425.869 0.
288.09 -363.369 0.
237.495 -478.487 0.
28.0752 -674.167 0.
-49.1903 -853.304 0.
-126.455 -1032.44 0.
-410.981 -1252.64 0.
-416.087 -1264.46 0.
-421.192 -1276.29 0.
350.622 -880.828 0.
413.436 -735.229 0.
476.25 -589.629 0.
-168.204 -847.313 0.
-173.217 -860.469 0.
497.328 -583.014 0.
261.961 -664.962 0.
272.772 -641.022 0.
479.477 -570.384 0.
392.146 -771.163 0.
304.815 -971.941 0.
-111.6 -1257.13 0.
-118.609 -1276.2 0.
-125.618 -1295.28 0.
300.976 -1074.1 0.
325.572 -1014.42 0.
350.169 -954.729 0.
373.006 -882.601 0.
406.686 -804.119 0.
405.443 -756.064 0.
392.382 -787.72 0.
379.321 -819.377 0.
361.33 -870.174 0.
319.428 -969.655 0.
277.525 -1069.14 0.
6.34834 -1222.15 0.
7.55876 -1224.72 0.
8.76901 -1227.28 0.
538.112 -833.262 0.
650.62 -571.044 0.
-387.937 -801.664 0.
22.9348 -788.846 0.
-64.4134 -989.571 0.
-1.70935 -1102.19 0.
-20.7012 -1144.03 0.
-39.6931 -1185.87 0.
-39.1297 -1211.1 0.
-50.8594 -1237.4 0.
-62.5892 -1263.71 0.
535.103 -1092.48 0.
474.318 -1231.96 0.
413.534 -1371.44 0.
-35.344 -1478.85 0.
21.361 -1346.69 0.
127.91 -1185.76 0.
203.077 -1010.31 0.
278.243 -834.858 0.
65.3635 -850.302 0.
39.3848 -910.121 0.
13.4061 -969.939 0.
-92.548 -1040.26 0.
-97.5653 -1051.28 0.
-102.583 -1062.31 0.
48.4579 -1071.16 0.
2.73088 -1180.85 0.
1085.34 -807.323 0.
-242.596 -1449.02 0.
-281.996 -1538.66 0.
193.751 -1349.06 0.
274.941 -1159.11 0.
356.13 -969.172 0.
367.051 -874.873 0.
378.424 -847.825 0.
389.797 -820.776 0.
-116.029 -976.288 0.
-73.5923 -880.198 0.
-31.1558 -784.109 0.
-39.0396 -673.495 0.
25.6384 -525.377 0.
141.86 -373.331 0.
117.573 -431.231 0.
93.2854 -489.13 0.
48.5586 -511.743 0.
88.3176 -418.505 0.
128.076 -325.266 0.
50.1252 -275.2 0.
101.822 -154.242 0.
153.519 -33.2845 0.
-45.8502 -321.406 0.
-198.859 -676.832 0.
-347.474 -899.808 0.
3.34614 -715.196 0.
56.9909 -586.478 0.
39.5285 -531.889 0.
-40.3619 -719.934 0.
-120.253 -907.979 0.
-97.7731 -911.861 0.
6.71435 -667.129 0.
111.201 -422.397 0.
77.5767 -385.987 0.
52.7359 -443.99 0.
27.8955 -501.995 0.
219.737 -475.635 0.
197.339 -528.271 0.
17.5219 -641.605 0.
-9.95105 -704.988 0.
-37.4233 -768.37 0.
-157.004 -835.063 0.
-127.357 -763.677 0.
-97.7095 -692.291 0.
378.02 -463.873 0.
375.444 -468.448 0.
372.869 -473.022 0.
1.98412 -732.152 0.
-65.6041 -888.689 0.
415.996 -809.78 0.
73.4957 -1040.13 0.
28.5103 -1146.05 0.
73.3544 -1184.8 0.
129.875 -1056.75 0.
186.395 -928.697 0.
60.7169 -921.12 0.
46.561 -950.633 0.
32.405 -980.146 0.
348.545 -872.901 0.
339.91 -895.502 0.
331.274 -918.103 0.
485.626 -800.797 0.
514.996 -732.88 0.
396.199 -735.316 0.
403.25 -718.261 0.
410.3 -701.206 0.
411.246 -716.178 0.
376.954 -795.957 0.
342.661 -875.736 0.
7.93473 -1089.91 0.
-30.8398 -1178.63 0.
-69.6139 -1267.34 0.
389.19 -1088.19 0.
388.46 -1088.31 0.
-425.88 -1436.07 0.
-51.3555 -1163.64 0.
9.50065 -1026.12 0.
-27.3979 -954.529 0.
-18.0087 -938.096 0.
-8.61964 -921.663 0.
60.751 -922.065 0.
16.1835 -1027.42 0.
-28.3842 -1132.78 0.
612.014 -829.301 0.
654.074 -733.23 0.
696.133 -637.158 0.
107.539 -779.339 0.
164.305 -644.493 0.
496.92 -425.66 0.
397.596 -656.566 0.
298.271 -887.471 0.
-1.39071 -1039.87 0.
143.161 -703.476 0.
287.713 -367.084 0.
130.555 -405.283 0.
48.3367 -599.419 0.
-33.8818 -793.557 0.
216.087 -723.102 0.
215.422 -723.5 0.
-39.5648 -827.954 0.
-27.833 -865.38 0.
-51.0212 -918.151 0.
493.275 -738.087 0.
456.729 -823.363 0.
420.182 -908.64 0.
217.104 -942.34 0.
310.15 -725.878 0.
403.196 -509.417 0.
-5.89854 -660.957 0.
-25.752 -703.412 0.
-45.6054 -745.867 0.
82.9481 -619.06 0.
122.165 -528.465 0.
177.053 -446.055 0.
150.936 -506.857 0.
124.819 -567.659 0.
-49.7675 -625.854 0.
22.9068 -456.282 0.
95.5807 -286.709 0.
21.0577 -209.94 0.
64.642 -109.318 0.
108.226 -8.69704 0.
89.2615 22.0127 0.
109.374 68.1868 0.
-470.977 -924.903 0.
114.166 -637.327 0.
168.795 -509.341 0.
-46.2951 -535.816 0.
-125.947 -723.918 0.
-205.599 -912.02 0.
-311.993 -969.567 0.
-207.037 -725.681 0.
-102.083 -481.795 0.
29.8658 -376.802 0.
4.50192 -434.627 0.
-20.8615 -492.452 0.
185.185 -457.582 0.
162.651 -509.887 0.
113.087 -570.502 0.
84.892 -633.407 0.
56.6974 -696.311 0.
96.3679 -696.536 0.
125.396 -624.565 0.
154.425 -552.594 0.
-20.6971 -603.927 0.
-23.2095 -608.813 0.
-25.7214 -613.698 0.
195.863 -617.136 0.
128.299 -774.108 0.
171.785 -882.859 0.
185.473 -959.971 0.
140.488 -1065.94 0.
20.7234 -1175.55 0.
77.3256 -1047.62 0.
133.928 -919.692 0.
71.1725 -886.666 0.
57.1132 -916.649 0.
43.0538 -946.631 0.
179.117 -913.155 0.
170.532 -935.91 0.
161.947 -958.665 0.
531.226 -750.338 0.
560.694 -682.318 0.
426.54 -691.1 0.
434.139 -674.293 0.
441.738 -657.487 0.
428.986 -677.468 0.
394.431 -757.272 0.
359.877 -837.075 0.
-67.3852 -1090.6 0.
-105.562 -1180.12 0.
-143.738 -1269.64 0.
239.013 -1120.03 0.
238.114 -1119.85 0.
1385.32 -627.408 0.
210.771 -1019.92 0.
271.776 -882.294 0.
27.446 -899.872 0.
36.1755 -882.778 0.
44.9047 -865.683 0.
73.5414 -887.058 0.
28.441 -991.912 0.
-16.6597 -1096.77 0.
314.341 -927.073 0.
355.658 -830.496 0.
396.977 -733.918 0.
103.156 -750.156 0.
159.733 -615.619 0.
530.533 -381.485 0.
430.666 -611.773 0.
330.798 -842.061 0.
117.701 -958.637 0.
261.859 -621.591 0.
406.016 -284.545 0.
142.571 -368.834 0.
60.4894 -563.008 0.
-21.5926 -757.182 0.
153.156 -718.761 0.
152.202 -718.79 0.
285.71 -658.44 0.
177.851 -746.934 0.
154.625 -799.633 0.
298.903 -790.825 0.
261.928 -875.402 0.
224.951 -959.979 0.
62.7511 -978.319 0.
155.821 -761.696 0.
248.891 -545.074 0.
77.6032 -591.64 0.
57.5594 -634.286 0.
37.5157 -676.931 0.
66.4916 -596.258 0.
104.891 -505.08 0.
335.87 -347.111 0.
309.834 -407.967 0.
283.799 -468.823 0.
-119.304 -624.3 0.
-47.2275 -454.117 0.
24.8484 -283.933 0.
-117.009 -238.79 0.
-73.099 -138.522 0.
-29.189 -38.2547 0.
151.797 79.9758 0.
172.466 125.407 0.
-178.969 -291.827 0.
560.988 249.208 0.
-33.3793 -1136.41 0.
-107.321 -491.501 0.
479.875 880.944 0.
420.222 744.136 0.
393.198 1108.82 0.
-122.122 -93.0025 0.
-324.564 -564.557 0.
237.348 233.944 0.
149.296 28.1952 0.
137.503 0.628013 0.
397.617 132.833 0.
300.428 -94.9701 0.
933.736 1203.28 0.
647.374 535.505 0.
211.886 -479.227 0.
420.542 -391.711 0.
844.046 596.688 0.
584.934 -7.67037 0.
-477.181 -878.739 0.
-94.7377 10.5382 0.
46.0635 335.854 0.
352.767 -598.983 0.
301.232 -712.961 0.
1158.86 -313.398 0.
653.125 -45.849 0.
495.274 -412.582 0.
361.639 -254.162 0.
495.094 53.7164 0.
387.453 -200.063 0.
513.672 160.382 0.
511.905 155.055 0.
498.958 123.797 0.
360.663 -139.823 0.
230.729 -442.813 0.
-95.8916 -1205.01 0.
861.563 -41.1353 0.
964.548 196.507 0.
670.108 -156.545 0.
243.395 -1152.44 0.
540.648 -458.987 0.
856.192 309.598 0.
991.477 626.72 0.
773.876 120.536 0.
326.22 -0.210447 0.
163.381 -378.879 0.
180.611 -337.333 0.
623.521 86.077 0.
715.036 299.267 0.
-1317 -1119.65 0.
893.266 118.492 0.
1016.19 403.825 0.
552.022 252.165 0.
611.837 390.645 0.
622.04 413.199 0.
246.078 -479.264 0.
100.347 -819.157 0.
308.244 -333.758 0.
615.574 368.643 0.
526.125 162.242 0.
326.619 -301.011 0.
194.438 -507.604 0.
285.472 -288.74 0.
285.938 -984.017 0.
421.882 -662.446 0.
741.43 87.9038 0.
295.237 -738.287 0.
233.373 -880.337 0.
427.119 -425.416 0.
142.681 -371.583 0.
322.583 51.4219 0.
-36.5376 -784.185 0.
279.165 -281.424 0.
443.865 106.641 0.
515.613 -16.4507 0.
1087.92 1013.49 0.
758.736 246.083 0.
765.013 706.048 0.
605.547 330.234 0.
268.158 -460.772 0.
-66.357 -963.633 0.
5.52929 -790.153 0.
398.186 132.93 0.
663.149 652.221 0.
314.16 -163.48 0.
277.19 -251.302 0.
605.248 727.152 0.
835.139 1266.62 0.
456.368 -334.659 0.
1024.8 992.145 0.
465.187 -314.155 0.
-76.7452 -355.697 0.
205.702 302.866 0.
168.33 214.553 0.
-483.619 -815.288 0.
-25.4419 257.081 0.
-231.708 -221.358 0.
710.094 1283.92 0.
125.578 -82.7802 0.
-151.141 -522.032 0.
303.399 -299.583 0.
297.962 -310.416 0.
-75.2264 -476.679 0.
-37.1759 -386.917 0.
0.874001 -297.154 0.
-87.8216 -316.381 0.
-129.216 -411.492 0.
-170.61 -506.604 0.
5.99056 -532.06 0.
-46.0021 -655.495 0.
-97.9946 -778.931 0.
82.313 -649.177 0.
121.844 -560.179 0.
81.9653 -512.342 0.
97.4258 -480.093 0.
112.887 -447.844 0.
139.553 -417.088 0.
138.611 -420.085 0.
137.67 -423.082 0.
-172.421 -618.681 0.
-236.185 -769.144 0.
-299.948 -919.606 0.
267.749 -711.67 0.
265.298 -716.115 0.
731.077 -520.075 0.
436.365 -580.355 0.
474.357 -490.385 0.
319.289 -506.57 0.
274.799 -608.526 0.
230.31 -710.481 0.
68.0736 -898.325 0.
-6.21864 -1073.73 0.
-80.5113 -1249.14 0.
42.5512 -1149.58 0.
112.555 -984.326 0.
182.558 -819.075 0.
238.783 -740.534 0.
266.532 -678.33 0.
553.963 -516.641 0.
522.965 -588.679 0.
491.966 -660.717 0.
433.107 -719.242 0.
442.644 -698.424 0.
452.181 -677.607 0.
-125.18 -919.482 0.
-128.06 -925.707 0.
-130.94 -931.933 0.
171.024 -832.022 0.
153.801 -874.905 0.
-2691.06 -2131.37 0.
469.109 -603.006 0.
559.795 -389.621 0.
384.897 -354.571 0.
321.699 -499.452 0.
258.502 -644.332 0.
168.676 -733.608 0.
188.77 -687.368 0.
208.864 -641.129 0.
63.4349 -789.584 0.
-11.1746 -964.734 0.
-85.7838 -1139.88 0.
-134.813 -1030.81 0.
-52.3505 -836.59 0.
455.044 -487.038 0.
407.617 -595.996 0.
360.191 -704.955 0.
164.426 -869.647 0.
128.34 -951.833 0.
92.253 -1034.02 0.
-47.6569 -1060.06 0.
4.81416 -930.936 0.
57.2848 -801.816 0.
272.211 -652.026 0.
292.275 -603.124 0.
887.257 -307.697 0.
166.477 -609.3 0.
171.129 -598.617 0.
87.0371 -609.141 0.
136.711 -497.811 0.
186.385 -386.481 0.
269.027 -404.716 0.
157.323 -663.255 0.
45.6203 -921.793 0.
-42.6935 -1003.84 0.
-27.6335 -972.947 0.
-12.5738 -942.054 0.
-142.672 -1007.82 0.
-148.984 -1019.65 0.
-46.6018 -974.111 0.
-9.85505 -886.662 0.
26.8919 -799.213 0.
-259.086 -815.462 0.
-165.061 -598.239 0.
-71.0355 -381.016 0.
-142.234 -388.102 0.
-190.019 -498.873 0.
-237.804 -609.644 0.
86.6001 -543.923 0.
49.169 -631.119 0.
678.955 -139.384 0.
292.601 -274.501 0.
287.176 -285.352 0.
-25.6679 -423.2 0.
13.0474 -334.11 0.
51.762 -245.019 0.
87.0137 -208.79 0.
46.4345 -304.366 0.
5.85494 -399.941 0.
141.74 -441.229 0.
89.739 -564.664 0.
37.7381 -688.099 0.
126.05 -598.714 0.
165.606 -509.912 0.
-43.929 -534.321 0.
-28.7103 -502.008 0.
-13.4911 -469.695 0.
-170.92 -519.628 0.
-172.2 -522.397 0.
-173.481 -525.166 0.
79.374 -478.849 0.
16.0453 -629.673 0.
-47.2833 -780.496 0.
241.149 -692.452 0.
239.268 -697.213 0.
144.994 -741.876 0.
466.017 -535.328 0.
504.818 -446.071 0.
415.179 -434.526 0.
370.765 -536.629 0.
326.352 -638.731 0.
90.591 -857.199 0.
16.3252 -1032.43 0.
-57.941 -1207.65 0.
203.547 -1049.89 0.
273.746 -885.248 0.
343.944 -720.609 0.
-143.224 -872.523 0.
-115.387 -810.516 0.
617.579 -457.081 0.
587.162 -529.809 0.
556.745 -602.537 0.
472.95 -670.778 0.
482.735 -650.379 0.
492.52 -629.979 0.
-183.163 -912.715 0.
-185.547 -919.439 0.
-187.931 -926.163 0.
111.968 -826.055 0.
95.0988 -869.199 0.
-1609.08 -1634.77 0.
345.781 -623.043 0.
436.922 -409.969 0.
511.825 -269.462 0.
448.556 -414.168 0.
385.286 -558.874 0.
227.849 -677.024 0.
248.282 -631.068 0.
268.715 -585.113 0.
12.4833 -779.557 0.
-61.6816 -954.993 0.
-135.846 -1130.43 0.
-248.482 -1047.65 0.
-165.885 -853.636 0.
417.092 -472.213 0.
369.367 -580.962 0.
321.643 -689.711 0.
92.7877 -869.682 0.
56.3371 -951.829 0.
19.8864 -1033.98 0.
96.0965 -966.911 0.
148.416 -838.275 0.
200.735 -709.639 0.
473.215 -535.914 0.
492.911 -486.829 0.
1113.41 -179.621 0.
-95.33 -688.559 0.
-91.0377 -677.359 0.
-39.5398 -635.113 0.
10.0186 -523.094 0.
59.5771 -411.074 0.
406.018 -314.503 0.
294.909 -573.175 0.
183.801 -831.846 0.
-21.9082 -963.916 0.
-6.91059 -932.879 0.
8.08675 -901.841 0.
-128.645 -969.75 0.
-134.405 -981.889 0.
-316.338 -1057.16 0.
-279.346 -970.014 0.
-242.354 -882.864 0.
-223.627 -770.239 0.
-129.73 -552.959 0.
-35.8339 -335.678 0.
70.629 -264.564 0.
23.0335 -375.7 0.
-24.5614 -486.837 0.
298.148 -424.08 0.
260.271 -510.868 0.
272.445 -489.052 0.
164.335 -448.979 0.
211.838 -339.698 0.
39.2273 -352.741 0.
19.3497 -397.197 0.
-0.528022 -441.652 0.
0.30126 -472.628 0.
-11.2711 -497.929 0.
-22.8438 -523.231 0.
181.096 -468.578 0.
157.482 -522.089 0.
133.867 -575.599 0.
83.5941 -657.765 0.
54.5381 -727.549 0.
-237.785 -883.481 0.
-148.724 -676.383 0.
-59.664 -469.284 0.
-233.86 -446.986 0.
-255.43 -498.459 0.
-277.001 -549.932 0.
163.463 -411.013 0.
138.148 -469.143 0.
112.834 -527.274 0.
177.864 -696.394 0.
45.6246 -1004.53 0.
523.671 -1049.39 0.
213.351 -1139.48 0.
234.261 -1085.9 0.
224.661 -1023.68 0.
292.032 -866.114 0.
359.403 -708.546 0.
71.6712 -807.756 0.
15.8115 -935.375 0.
-40.048 -1062.99 0.
274.591 -842.972 0.
372.521 -615.196 0.
470.451 -387.42 0.
-186.378 -779.845 0.
-265.259 -963.033 0.
471.391 -787.892 0.
441.681 -855.697 0.
411.971 -923.502 0.
300.718 -927.609 0.
431.408 -621.073 0.
562.097 -314.536 0.
-31.8349 -492.593 0.
-62.5631 -562.38 0.
-93.2912 -632.167 0.
212.813 -582.958 0.
171.542 -680.489 0.
1764.8 -76.7882 0.
312.142 -715.4 0.
303.204 -735.486 0.
262.176 -744.329 0.
311.103 -633.635 0.
360.029 -522.94 0.
282.119 -543.878 0.
236.277 -652.364 0.
190.436 -760.85 0.
25.4974 -691.054 0.
158.356 -381.399 0.
291.215 -71.7451 0.
8.90046 -447.327 0.
-153.985 -828.04 0.
30.5405 -1006.48 0.
113.427 -813.887 0.
196.313 -621.296 0.
127.675 -616.82 0.
23.6757 -859.683 0.
-80.3238 -1102.55 0.
91.4202 -1090.87 0.
104.153 -1067.15 0.
116.885 -1043.42 0.
475.699 -808.271 0.
531.212 -680.568 0.
407.266 -629.108 0.
-116.68 -653.87 0.
-9.58395 -407.468 0.
35.6601 -253.294 0.
-10.0699 -358.818 0.
-55.7997 -464.343 0.
453.96 -248.32 0.
507.632 -124.694 0.
561.304 -1.06851 0.
360.989 -46.2526 0.
366.817 -28.9302 0.
372.645 -11.6083 0.
254.562 -17.5776 0.
276.965 34.7425 0.
35.6187 -39.345 0.
-3.5195 -134.147 0.
-42.6581 -228.95 0.
38.2608 -254.1 0.
25.8144 -282.695 0.
13.3682 -311.29 0.
41.373 -377.646 0.
-23.3165 -529.317 0.
-88.0059 -680.988 0.
150.315 -570.409 0.
174.299 -517.464 0.
781.575 -242.068 0.
63.1059 -462.476 0.
110.505 -353.337 0.
92.0503 -297.998 0.
72.4979 -342.961 0.
52.9453 -387.923 0.
-75.9762 -472.453 0.
-87.4698 -497.872 0.
-98.9636 -523.291 0.
205.963 -427.083 0.
182.897 -481.364 0.
159.83 -535.644 0.
31.4149 -647.484 0.
2.68157 -717.829 0.
-194.435 -833.024 0.
-105.518 -625.805 0.
-16.6004 -418.587 0.
-107.556 -360.934 0.
-129.26 -412.586 0.
-150.965 -464.238 0.
78.8166 -414.589 0.
53.4054 -472.658 0.
27.9945 -530.727 0.
86.7807 -703.669 0.
-45.7199 -1011.31 0.
964.901 -826.864 0.
233.127 -1100.1 0.
254.286 -1046.72 0.
311.268 -954.566 0.
378.82 -797.151 0.
446.372 -639.735 0.
-22.1099 -816.85 0.
-78.0756 -944.586 0.
-134.041 -1072.32 0.
97.8435 -888.133 0.
195.564 -660.797 0.
293.283 -433.461 0.
32.811 -653.822 0.
-45.8266 -837.494 0.
419.878 -777.446 0.
390.494 -845.634 0.
361.109 -913.822 0.
131.367 -968.247 0.
262.372 -662.543 0.
393.376 -356.84 0.
-9.12577 -450.032 0.
-39.7049 -520.095 0.
-70.284 -590.157 0.
316.204 -507.649 0.
274.917 -605.213 0.
-775.215 -1133.93 0.
454.846 -622.412 0.
445.504 -642.498 0.
70.5628 -796.212 0.
119.223 -685.401 0.
167.884 -574.589 0.
238.198 -530.77 0.
192.365 -639.255 0.
146.532 -747.74 0.
47.9567 -649.683 0.
181.455 -340.225 0.
314.953 -30.7661 0.
171.279 -345.898 0.
8.71225 -726.924 0.
-289.878 -1112.17 0.
-206.989 -919.674 0.
-124.101 -727.176 0.
56.0195 -615.822 0.
-48.8869 -858.276 0.
-153.793 -1100.73 0.
108.769 -1053.61 0.
120.681 -1029.76 0.
132.592 -1005.92 0.
610.361 -720.365 0.
665.658 -592.599 0.
177.533 -696.758 0.
90.9228 -533.53 0.
197.87 -287.094 0.
-29.6803 -250.127 0.
-75.2383 -355.958 0.
-120.796 -461.789 0.
400.79 -237.815 0.
454.654 -114.278 0.
508.518 9.25945 0.
342.176 -22.5279 0.
348.529 -5.38614 0.
354.883 11.7552 0.
207.745 -4.85001 0.
230.047 47.7968 0.
138.722 35.6937 0.
99.7465 -58.8356 0.
60.7708 -153.365 0.
131.639 -184.625 0.
119.247 -213.087 0.
106.855 -241.548 0.
-97.8434 -405.981 0.
-162.159 -557.965 0.
-226.475 -709.95 0.
-220.242 -698.801 0.
-195.899 -646.518 0.
141.932 566.962 0.
43.5376 -280.024 0.
215.717 118.973 0.
131.951 -270.029 0.
97.8172 -346.009 0.
38.0777 -482.631 0.
-148.588 -475.985 0.
210.219 364.12 0.
-138.028 -445.608 0.
597.127 475.221 0.
434.432 93.9286 0.
266.368 -299.512 0.
267.695 35.3975 0.
372.353 281.328 0.
45.1483 -319.49 0.
379.138 457.641 0.
158.374 -59.3665 0.
194.655 133.996 0.
-17.6162 -359.352 0.
144.541 20.0485 0.
120.465 -114.167 0.
12.9005 -368.555 0.
132.531 -92.722 0.
-80.7072 -879.14 0.
87.162 -485.615 0.
61.4959 319.652 0.
891.011 424.833 0.
822.048 263.939 0.
784.136 18.5904 0.
826.5 115.113 0.
798.149 47.1943 0.
-88.2828 -759.712 0.
43.818 -451.337 0.
190.978 -107.372 0.
656.649 776.695 0.
526.421 471.428 0.
-29.3825 -826.42 0.
722.028 566.232 0.
670.275 446.228 0.
636.604 -132.839 0.
484.47 -490.322 0.
426.956 -626.884 0.
-90.9521 -1133.38 0.
-9.56747 -945.202 0.
153.409 -566.429 0.
182.582 -12.0068 0.
389.151 469.394 0.
-82.791 -632.417 0.
519.861 -201.86 0.
454.583 -358.051 0.
-1465.02 -1767.37 0.
855.96 91.099 0.
909.773 216.064 0.
126.836 -279.669 0.
274.067 63.3353 0.
383.478 318.719 0.
605.537 442.317 0.
560.078 334.649 0.
277.806 -325.513 0.
-36.5435 -858.28 0.
200.093 -307.132 0.
643.138 725.205 0.
307.988 -312.218 0.
471.36 67.1912 0.
-117.733 -64.8185 0.
-335.692 -575.145 0.
-385.523 -693.071 0.
170.526 -181.609 0.
51.1632 -457.552 0.
-181.176 -996.907 0.
145.503 -974.94 0.
444.058 -278.492 0.
720.285 366.741 0.
787.882 -535.081 0.
794.423 -515.988 0.
-398.886 -1270.56 0.
695.775 506.996 0.
155.234 -754.896 0.
-178.032 -427.68 0.
35.3055 65.9078 0.
-49.1636 -135.292 0.
469.656 63.8029 0.
533.253 210.159 0.
-96.2105 -1260.73 0.
165.624 -364.258 0.
529.955 483.946 0.
139.595 -428.956 0.
112.742 -99.9855 0.
147.225 -17.5588 0.
244.568 110.02 0.
345.45 346.619 0.
166.821 -69.1407 0.
156.436 -284.281 0.
458.761 424.061 0.
383.423 249.912 0.
109.007 371.766 0.
71.7882 287.153 0.
279.535 772.971 0.
-152.958 182.785 0.
8.74104 560.97 0.
-43.4067 -331.932 0.
-103.182 -500.003 0.
-165.103 -643.949 0.
-94.7388 -676.314 0.
-20.0038 -500.021 0.
54.7315 -323.728 0.
116.439 -240.902 0.
82.9197 -317.975 0.
49.4012 -395.047 0.
19.4042 -432.104 0.
15.7225 -438.699 0.
12.0403 -445.294 0.
43.6288 -423.65 0.
45.6391 -415.325 0.
-38.6225 -449.958 0.
-26.5038 -422.061 0.
-14.3855 -394.163 0.
75.507 -352.1 0.
52.1744 -403.891 0.
28.8418 -455.682 0.
88.8021 -442.527 0.
92.1105 -434.16 0.
95.4194 -425.793 0.
164.753 -379.737 0.
180.536 -343.169 0.
-417.279 -569.308 0.
499.537 -198.535 0.
481.989 -240.201 0.
427.681 -334.328 0.
337.527 -546.022 0.
247.372 -757.717 0.
-53.8855 -876.009 0.
75.4001 -577.608 0.
204.686 -279.206 0.
89.0668 -348.135 0.
6.75442 -539.636 0.
-75.5579 -731.136 0.
236.426 -610.733 0.
238.48 -603.685 0.
395.405 -521.373 0.
438.941 -415.615 0.
482.477 -309.857 0.
287.385 -375.96 0.
223.58 -524.725 0.
159.776 -673.49 0.
-247.695 -904.684 0.
-248.32 -909.885 0.
-248.944 -915.087 0.
298.763 -587.689 0.
360.882 -444.465 0.
-1705.5 -1215.3 0.
627.675 -351.333 0.
558.571 -516.657 0.
-104.046 -882.637 0.
-50.3477 -756.868 0.
3.35094 -631.099 0.
-25.67 -615.433 0.
-53.8479 -680.608 0.
-82.0256 -745.783 0.
-5.96415 -725.032 0.
-6.65603 -721.558 0.
-7.34759 -718.084 0.
267.114 -668.003 0.
229.468 -755.717 0.
-389.947 -1075.24 0.
-358.003 -1005.26 0.
-326.059 -935.28 0.
-70.3789 -793.939 0.
-80.7876 -817.357 0.
-91.1964 -840.776 0.
107.453 -794.063 0.
86.6809 -844.241 0.
65.9082 -894.42 0.
375.563 -763.179 0.
379.323 -753.545 0.
-37.8824 -922.147 0.
138.159 -764.456 0.
180.635 -666.304 0.
-112.451 -706.76 0.
-49.6558 -563.791 0.
13.1399 -420.822 0.
310.106 -237.156 0.
303.34 -249.219 0.
296.574 -261.282 0.
212.006 -333.067 0.
182.404 -402.247 0.
152.802 -471.426 0.
-30.2424 -551.232 0.
-29.5244 -547.604 0.
19.4037 -509.997 0.
89.7135 -343.796 0.
160.023 -177.596 0.
66.4693 -186.361 0.
-27.6777 -404.996 0.
-121.825 -623.632 0.
-277.663 -664.962 0.
-181.222 -438.475 0.
-84.782 -211.987 0.
-275.612 -373.332 0.
-356.054 -557.264 0.
857.407 85.5569 0.
-153.925 -489.718 0.
-215.817 -633.599 0.
-142.359 -666.223 0.
-67.9181 -489.876 0.
6.5229 -313.528 0.
337.011 -115.332 0.
303.528 -192.659 0.
270.046 -269.987 0.
-196.29 -492.982 0.
-199.964 -500.047 0.
-203.638 -507.112 0.
24.2611 -400.633 0.
26.4543 -392.842 0.
-55.7851 -424.354 0.
-43.4303 -396.871 0.
-31.0758 -369.388 0.
202.907 -264.052 0.
179.788 -316.169 0.
156.67 -368.285 0.
236.242 -349.062 0.
240.082 -341.463 0.
243.922 -333.863 0.
221.823 -322.444 0.
238.561 -286.245 0.
-76.0052 -391.56 0.
362.259 -225.166 0.
345.111 -266.968 0.
191.223 -403.68 0.
101.363 -615.332 0.
11.5022 -826.984 0.
67.0102 -792.637 0.
196.252 -494.224 0.
325.495 -195.81 0.
-1.77364 -356.858 0.
-84.3288 -548.169 0.
-166.884 -739.479 0.
279.741 -559.23 0.
281.512 -552.216 0.
313.486 -525.844 0.
356.842 -420.292 0.
400.198 -314.741 0.
372.245 -307.837 0.
308.456 -456.88 0.
244.668 -605.923 0.
-289.126 -890.71 0.
-290.146 -895.429 0.
-291.165 -900.148 0.
246.928 -579.126 0.
308.773 -435.784 0.
-1704.13 -1183.31 0.
597.014 -333.389 0.
527.939 -499.024 0.
-55.5898 -828.12 0.
-0.992974 -703.208 0.
53.604 -578.296 0.
-224.372 -669.506 0.
-252.051 -734.864 0.
-279.73 -800.222 0.
-26.6883 -701.668 0.
-26.7195 -698.412 0.
-26.7504 -695.157 0.
419.577 -571.333 0.
382.401 -659.556 0.
-169.716 -946.994 0.
-137.52 -877.771 0.
-105.324 -808.547 0.
-24.5143 -742.207 0.
-35.2005 -766.01 0.
-45.8869 -789.814 0.
-17.1223 -815.458 0.
-37.7659 -865.945 0.
-58.4099 -916.434 0.
2.54407 -892.069 0.
6.23926 -882.431 0.
-492.365 -1085.63 0.
140.78 -732.211 0.
183.291 -634.057 0.
130.882 -569.683 0.
194.602 -427.345 0.
258.321 -285.007 0.
287.976 -212.224 0.
281.156 -224.214 0.
274.335 -236.203 0.
268.849 -277.853 0.
239.021 -346.66 0.
209.194 -415.467 0.
49.1919 -486.462 0.
50.3245 -482.924 0.
79.7155 -451.824 0.
150.638 -286.322 0.
221.56 -120.82 0.
-78.1631 -215.792 0.
-172.382 -434.069 0.
-266.6 -652.345 0.
-190.264 -596.281 0.
-93.7359 -369.773 0.
2.79206 -143.265 0.
-118.455 -275.719 0.
-199.436 -459.409 0.
80.7767 6.13445 0.
-112.855 -195.272 0.
-176.387 -344.686 0.
-83.2638 -421.807 0.
-131.007 -534.885 0.
-178.75 -647.964 0.
163.173 -488.686 0.
238.418 -310.354 0.
313.662 -132.023 0.
-167.6 -264.067 0.
-146.691 -217.382 0.
-125.783 -170.697 0.
128.328 -147.767 0.
70.7198 -281.616 0.
-94.8376 -462.531 0.
-134.277 -555.591 0.
-173.716 -648.65 0.
130.864 -533.767 0.
190.095 -397.21 0.
249.327 -260.653 0.
321.541 -290.558 0.
217.612 -534.739 0.
113.682 -778.922 0.
5.45746 -771.632 0.
70.7049 -617.069 0.
-27.5323 -532.584 0.
194.283 -446.267 0.
189.044 -452.257 0.
43.1367 -488.387 0.
91.1562 -376.018 0.
139.176 -263.649 0.
294.426 -192.869 0.
246.58 -301.936 0.
198.734 -411.004 0.
-27.1956 -458.284 0.
34.7681 -311.727 0.
96.7314 -165.171 0.
416.997 -100.239 0.
366.757 -221.315 0.
355.334 -324.162 0.
310.209 -436.326 0.
265.085 -548.49 0.
186.662 -627.506 0.
208.627 -576.569 0.
230.593 -525.631 0.
-133.128 -683.269 0.
-153.131 -729.4 0.
-173.134 -775.532 0.
290.036 -488.041 0.
356.584 -331.291 0.
-67.5839 -386.88 0.
620.579 -61.2804 0.
636.537 -24.0097 0.
172.501 -228.215 0.
111.392 -370.465 0.
50.2829 -512.714 0.
-223.317 -665.656 0.
-189.048 -586.453 0.
-154.78 -507.251 0.
61.1868 -428.083 0.
35.7513 -490.118 0.
10.3158 -552.154 0.
445.983 -504.691 0.
362.64 -694.639 0.
-105.318 -1020.57 0.
-63.0226 -915.856 0.
-20.7276 -811.145 0.
34.2689 -703.373 0.
85.6653 -585.052 0.
137.062 -466.73 0.
-2.44817 -501.666 0.
-22.8485 -548.19 0.
-43.2488 -594.714 0.
-54.7004 -523.474 0.
3.27323 -384.771 0.
1065.64 185.823 0.
393.932 -184.154 0.
350.201 -283.977 0.
320.78 -386.376 0.
250.895 -542.727 0.
181.01 -699.076 0.
24.1592 -776.687 0.
95.1496 -610.754 0.
166.14 -444.822 0.
210.412 -291.644 0.
276.684 -135.217 0.
342.957 21.2103 0.
277.684 -155.615 0.
186.161 -370.114 0.
-45.2059 -610.31 0.
5.42676 -491.084 0.
56.0592 -371.858 0.
-188.708 -380.895 0.
-135.868 -259.527 0.
-83.0285 -138.158 0.
101.933 -60.95 0.
58.4795 -162.253 0.
15.0257 -263.556 0.
-7.93053 -360.885 0.
-56.1297 -475.578 0.
152.186 69.4889 0.
-233.378 -216.228 0.
-296.976 -365.509 0.
-114.871 -404.888 0.
-162.485 -517.984 0.
-210.099 -631.081 0.
-54.4391 -549.367 0.
20.724 -371.211 0.
95.8867 -193.054 0.
-99.5054 -205.945 0.
-79.0351 -158.667 0.
-58.5647 -111.39 0.
169.104 -99.0344 0.
111.437 -232.589 0.
-101.485 -435.477 0.
-141.209 -528.306 0.
-180.932 -621.134 0.
136.68 -499.358 0.
196.027 -362.949 0.
255.373 -226.54 0.
352.578 -246.529 0.
248.742 -490.971 0.
144.906 -735.414 0.
-80.5566 -778.699 0.
-15.7304 -623.523 0.
461.949 -290.614 0.
185.151 -418.105 0.
180.246 -424.423 0.
41.3205 -459.1 0.
89.3233 -346.58 0.
137.326 -234.061 0.
122.589 -233.672 0.
75.125 -343.257 0.
27.6611 -452.842 0.
151.163 -350.114 0.
213.183 -203.785 0.
275.202 -57.4559 0.
251.86 -138.885 0.
201.219 -259.972 0.
389.067 -278.167 0.
343.472 -390.159 0.
297.877 -502.151 0.
12.2799 -670.921 0.
33.9018 -619.659 0.
55.5239 -568.397 0.
110.757 -548.38 0.
90.9514 -594.543 0.
71.1464 -640.706 0.
372.762 -420.551 0.
439.677 -264.275 0.
-825.571 -679.491 0.
458.241 -98.9937 0.
474.751 -62.0616 0.
83.3786 -232.193 0.
23.0082 -374.991 0.
-37.3618 -517.789 0.
14.5755 -532.346 0.
48.786 -453.091 0.
82.9968 -373.836 0.
51.9086 -399.642 0.
26.1208 -461.217 0.
0.332952 -522.791 0.
329.368 -524.295 0.
245.84 -714.076 0.
-79.6391 -977.432 0.
-36.9857 -873.374 0.
5.66742 -769.317 0.
137.831 -626.928 0.
189.191 -508.758 0.
240.55 -390.588 0.
-140.477 -530.112 0.
-160.293 -577.092 0.
-180.108 -624.072 0.
-172.2 -541.825 0.
-114.084 -403.268 0.
1367.32 345.984 0.
467.042 -121.392 0.
423.207 -220.605 0.
364.895 -335.624 0.
295.895 -492.382 0.
226.894 -649.14 0.
28.3689 -744.174 0.
99.7353 -578.178 0.
171.102 -412.182 0.
61.3749 -323.019 0.
127.758 -166.998 0.
194.141 -10.9775 0.
432.403 -57.0566 0.
341.059 -271.929 0.
-204.32 -647.462 0.
-153.427 -528.219 0.
-102.534 -408.976 0.
-108.359 -315.112 0.
-55.7095 -193.273 0.
-3.06023 -71.4339 0.
201.686 13.5183 0.
158.021 -87.4784 0.
114.356 -188.475 0.
214.899 -235.568 0.
166.431 -350.067 0.
302.763 -223.189 0.
-692.042 -1027.28 0.
-140.694 258.78 0.
385.692 850.918 0.
-114.682 -313.2 0.
27.4453 19.816 0.
-399.16 -928.853 0.
-234.269 -544.856 0.
-220.486 -513.169 0.
194.997 383.02 0.
91.0208 137.06 0.
38.5576 11.5923 0.
245.787 31.2058 0.
181.559 -120.797 0.
-319.992 -907.483 0.
83.6461 37.083 0.
375.995 722.303 0.
408.978 155.706 0.
334.287 -21.8033 0.
232.226 -262.145 0.
458.801 -32.8454 0.
206.107 -622.353 0.
223.209 -583.645 0.
-1.81729 -402.448 0.
219.134 114.015 0.
174.103 -745.613 0.
177.715 -387.604 0.
460.087 269.922 0.
391.074 377.528 0.
204.441 -51.4555 0.
-108.411 -774.436 0.
-315.387 -891.103 0.
-148.187 -501.484 0.
-35.7365 -240.166 0.
485.323 114.345 0.
448.499 29.9372 0.
510.714 176.739 0.
92.0182 -159.453 0.
206.312 105.128 0.
217.146 -718.663 0.
355.954 -393.051 0.
593.333 162.602 0.
203.145 139.121 0.
-101.788 -571.489 0.
-225.824 -860.014 0.
439.771 -214.594 0.
407.911 -290.439 0.
398.451 -313.9 0.
383.817 -530.571 0.
732.627 281.197 0.
-370.433 46.1659 0.
355.656 20.2793 0.
297.76 -116.424 0.
-51.6171 -347.871 0.
-418.984 -1203.24 0.
123.894 65.1097 0.
943.951 1207.4 0.
619.834 452.345 0.
185.802 -559.226 0.
-210.324 -962.333 0.
-149.602 -819.385 0.
-184.807 -900.32 0.
644.431 462.664 0.
585.616 324.636 0.
137.794 -484.74 0.
289.185 -131.343 0.
393.899 113.625 0.
531.751 120.143 0.
127.003 -828.578 0.
294.078 -442.725 0.
-132.162 -226.873 0.
-193.193 -368.763 0.
-370.9 -782.943 0.
-166.392 -271.483 0.
-97.4561 -107.517 0.
266.298 -291.429 0.
489.402 -182.54 0.
424.625 -333.65 0.
194.439 -781.391 0.
387.326 -331.611 0.
467.244 -145.049 0.
415.514 179.673 0.
7.96007 -768.629 0.
343.799 17.0706 0.
313.496 583.715 0.
172.473 253.093 0.
-310.232 -875.014 0.
620.75 123.799 0.
769.804 474.436 0.
-7.58009 143.224 0.
-162.089 -217.457 0.
261.425 770.659 0.
275.273 457.204 0.
56.6188 -50.576 0.
-66.8546 -336.543 0.
595.074 779.804 0.
369.087 255.332 0.
398.348 324.155 0.
407.134 -169.151 0.
392.254 -207.597 0.
32.0052 -590.764 0.
-361.085 -580.027 0.
-275.562 -379.537 0.
-128.646 -192.485 0.
-156.634 -256.111 0.
-184.623 -319.737 0.
94.196 -178.559 0.
161.463 -24.6734 0.
228.73 129.213 0.
94.1961 8.23589 0.
7.75335 -195.051 0.
-78.6895 -398.339 0.
-61.8883 -273.761 0.
23.9924 -75.7826 0.
179.425 115.734 0.
57.3308 -169.178 0.
-64.7639 -454.091 0.
116.758 -564.748 0.
71.6884 -671.564 0.
26.6191 -778.38 0.
93.8959 -712.22 0.
165.837 -542.965 0.
237.778 -373.71 0.
-84.3186 -499.816 0.
-93.9044 -526.578 0.
-166.346 -580.147 0.
106.168 -421.248 0.
128.994 -371.73 0.
185.293 -312.195 0.
202.59 -272.09 0.
219.889 -231.985 0.
21.2787 -237.369 0.
98.1683 -60.6815 0.
175.058 116.006 0.
306.937 76.9321 0.
192.423 -192.72 0.
77.9087 -462.372 0.
-17.736 -612.384 0.
-64.2154 -720.953 0.
241.605 -651.515 0.
333.014 -435.952 0.
424.423 -220.391 0.
27.5725 -283.155 0.
14.9614 -313.097 0.
2.35055 -343.038 0.
379.894 -219.781 0.
351.56 -286.195 0.
323.226 -352.61 0.
336.635 -409.662 0.
304.094 -485.844 0.
-1309.1 -1240.11 0.
79.3103 -505.048 0.
151.697 -334.316 0.
-21.9173 -313.969 0.
-57.4977 -391.71 0.
-93.0781 -469.452 0.
197.224 -337.647 0.
246.654 -223.649 0.
296.085 -109.65 0.
-78.7458 -239.884 0.
-77.4109 -235.168 0.
-76.0758 -230.452 0.
529.008 46.9291 0.
537.648 65.7486 0.
289.697 -42.4541 0.
214.213 -218.515 0.
138.729 -394.575 0.
167.414 -440.239 0.
216.87 -325.804 0.
266.327 -211.369 0.
-35.43 -283.043 0.
-18.6183 -240.397 0.
-1.80653 -197.75 0.
-6.82084 -174.691 0.
2.64108 -154.25 0.
-60.6712 -164.06 0.
398.94 -70.2602 0.
347.342 -194.463 0.
306.911 -267.549 0.
349.145 -169.757 0.
391.379 -71.9649 0.
325.918 -110.187 0.
264.863 -254.315 0.
203.808 -398.444 0.
-41.01 -544.349 0.
-40.8219 -542.439 0.
-40.6334 -540.53 0.
163.815 -273.36 0.
265.148 -35.3174 0.
223.728 107.411 0.
174.538 -10.2565 0.
125.348 -127.924 0.
-11.9157 -270.974 0.
-43.3144 -343.872 0.
-74.7127 -416.769 0.
-32.7953 -385.083 0.
3.56258 -302.587 0.
39.9205 -220.092 0.
265.362 -7.68864 0.
334.916 149.552 0.
525.983 -344.841 0.
-175.968 -468.841 0.
-89.9566 -268.437 0.
-197.055 -190.419 0.
-224.885 -253.649 0.
-252.716 -316.88 0.
324.366 -48.3778 0.
392.154 105.383 0.
459.941 259.144 0.
183.536 76.4696 0.
96.497 -126.705 0.
9.45818 -329.879 0.
-261.925 -327.896 0.
-176.085 -130.617 0.
275.218 189.749 0.
153.483 -95.922 0.
31.7478 -381.593 0.
154.521 -517.879 0.
109.396 -624.701 0.
64.2711 -731.524 0.
15.1323 -714.093 0.
87.2818 -544.875 0.
159.431 -375.658 0.
-116.013 -482.817 0.
-125.711 -509.31 0.
114.427 -429.434 0.
56.269 -411.428 0.
78.5782 -361.247 0.
315.251 -225.944 0.
332.462 -186.173 0.
349.674 -146.402 0.
107.261 -167.989 0.
184.619 7.90579 0.
261.978 183.802 0.
126.607 31.2983 0.
12.8046 -239.057 0.
-100.998 -509.414 0.
104.612 -528.045 0.
58.6937 -637.042 0.
249.381 -614.683 0.
341.537 -399.728 0.
433.694 -184.772 0.
55.4448 -238.776 0.
43.1716 -269.084 0.
30.8987 -299.392 0.
322.26 -212.787 0.
294.138 -279.492 0.
266.017 -346.198 0.
238.003 -420.205 0.
205.548 -496.496 0.
-527.028 -873.163 0.
25.2588 -496.44 0.
98.0732 -325.778 0.
11.3829 -267.23 0.
-23.9704 -344.882 0.
-59.3238 -422.533 0.
109.758 -343.752 0.
159.205 -229.486 0.
208.653 -115.221 0.
-278.688 -292.836 0.
-277.625 -287.973 0.
-276.562 -283.111 0.
622.425 118.188 0.
630.444 137.942 0.
261.592 -23.6541 0.
185.717 -199.34 0.
109.841 -375.025 0.
27.9975 -470.255 0.
76.8902 -355.428 0.
125.783 -240.602 0.
128.061 -182.845 0.
145.067 -140.18 0.
162.072 -97.5154 0.
151.417 -75.0725 0.
161.091 -54.4893 0.
-258.876 -219.104 0.
248.94 -102.985 0.
197.713 -227.174 0.
189.877 -287.033 0.
232.749 -189.352 0.
275.621 -91.6717 0.
387.263 -52.48 0.
326.53 -196.753 0.
265.798 -341.027 0.
130.785 -438.678 0.
131.258 -437.224 0.
131.732 -435.77 0.
-170.566 -384.532 0.
-69.181 -147.102 0.
543.699 276.926 0.
493.976 159.547 0.
444.251 42.1686 0.
35.631 -220.3 0.
4.16947 -292.804 0.
-27.2918 -365.308 0.
-173.74 -413.245 0.
-137.633 -330.798 0.
-101.526 -248.351 0.
26.3146 -80.1784 0.
95.2381 77.5145 0.
-709.745 -460.381 0.
74.7238 -48.703 0.
129.473 79.5243 0.
-5.85547 82.3818 0.
-37.211 10.1911 0.
-68.5668 -61.9997 0.
299.588 -21.4631 0.
197.838 -255.775 0.
96.0873 -490.087 0.
46.8083 -404.492 0.
183.21 -85.7611 0.
319.612 232.969 0.
-124.375 21.1202 0.
-152.895 -43.5127 0.
206.273 59.9368 0.
192.612 29.0487 0.
178.951 -1.83982 0.
316.375 17.7011 0.
282.762 -59.3857 0.
249.149 -136.472 0.
177.434 -154.655 0.
219.016 -57.7469 0.
260.598 39.1608 0.
103.234 -157.814 0.
-0.433455 -396.669 0.
605.963 -332.204 0.
20.2729 -554.032 0.
37.7462 -513.309 0.
206.513 -395.938 0.
247.589 -300.451 0.
288.665 -204.964 0.
117.679 -259.612 0.
88.9496 -327.471 0.
60.2203 -395.331 0.
-216.509 -462.898 0.
-162.208 -337.095 0.
-107.907 -211.291 0.
312.928 -160.201 0.
231.323 -351.822 0.
248.974 -482.328 0.
260.953 -451.59 0.
272.932 -420.853 0.
-18.0868 -502.269 0.
17.2171 -416.692 0.
52.521 -331.115 0.
222.312 -195.579 0.
253.991 -120.6 0.
285.67 -45.6221 0.
416.567 -55.3344 0.
363.224 -179.9 0.
-789.167 -774.011 0.
143.928 -196.834 0.
236.835 20.419 0.
151.661 73.2756 0.
38.3303 -193.025 0.
-75.0009 -459.327 0.
-92.8737 -518.356 0.
-13.1819 -331.116 0.
66.5097 -143.876 0.
-241.734 -266.261 0.
-273.893 -341.783 0.
-306.053 -417.306 0.
373.604 -231.53 0.
316.673 -366.958 0.
-53.47 -623.902 0.
-52.7116 -621.206 0.
-51.9532 -618.51 0.
-100.982 -610.266 0.
-53.498 -498.72 0.
-6.01399 -387.175 0.
174.243 -282.574 0.
160.596 -311.796 0.
146.949 -341.018 0.
109.183 -251.642 0.
180.333 -79.0644 0.
-161.721 -85.3823 0.
211.265 -110.193 0.
112.078 -336.842 0.
82.0395 -444.654 0.
185.377 -198.465 0.
288.714 47.722 0.
382.831 136.975 0.
308.988 -31.1656 0.
235.145 -199.305 0.
227.496 -324.147 0.
164.821 -466.685 0.
102.146 -609.222 0.
-348.815 -691.723 0.
-277.36 -523.8 0.
386.225 -114.205 0.
411.495 -54.0607 0.
436.765 6.08384 0.
148.048 -81.7492 0.
150.161 -75.7808 0.
152.274 -69.812 0.
-120.088 -189.559 0.
-124.504 -199.135 0.
-128.919 -208.711 0.
-50.1613 23.018 0.
85.7371 341.932 0.
249.393 -20.2324 0.
98.3231 -7.79603 0.
154.291 119.925 0.
275.825 235.687 0.
245.065 163.621 0.
214.304 91.5548 0.
16.7414 -111.59 0.
-84.6284 -345.893 0.
-185.998 -580.195 0.
154.41 -328.423 0.
290.833 -10.0302 0.
427.256 308.363 0.
76.8536 141.759 0.
49.2185 76.1146 0.
97.8016 44.0302 0.
84.2717 12.8938 0.
70.7423 -18.2432 0.
142.601 -23.7265 0.
109.584 -101.322 0.
76.5665 -178.917 0.
104.51 -154.67 0.
145.54 -57.2253 0.
186.571 40.2193 0.
350.19 -23.4588 0.
246.771 -262.79 0.
-23.6503 -573.045 0.
163.205 -458.955 0.
180.542 -418.299 0.
21.7575 -444.389 0.
62.4153 -348.772 0.
103.073 -253.155 0.
182.795 -199.805 0.
154.262 -267.855 0.
125.728 -335.906 0.
-320.938 -476.373 0.
-266.454 -350.914 0.
-211.97 -225.455 0.
344.403 -116.015 0.
263.084 -307.903 0.
126.792 -502.754 0.
138.853 -472.091 0.
150.913 -441.429 0.
76.53 -430.659 0.
111.739 -344.957 0.
146.948 -259.255 0.
47.1721 -240.836 0.
78.9251 -165.811 0.
110.678 -90.7855 0.
610.84 60.9003 0.
557.883 -63.7597 0.
-676.19 -694.566 0.
205.67 -139.029 0.
298.674 78.4495 0.
154.827 106.351 0.
41.6452 -159.956 0.
-71.5373 -426.265 0.
-279.419 -565.889 0.
-199.229 -378.937 0.
-119.039 -191.985 0.
67.5097 -102.446 0.
35.4856 -177.662 0.
3.46075 -252.879 0.
65.3971 -331.547 0.
8.25013 -466.706 0.
-130.738 -626.135 0.
-129.532 -623.913 0.
-128.326 -621.69 0.
-94.1953 -573.111 0.
-45.9825 -462.45 0.
2.23039 -351.788 0.
263.708 -212.204 0.
250.058 -241.881 0.
236.408 -271.558 0.
69.9652 -236.11 0.
141.338 -63.8933 0.
376.473 177.046 0.
314.019 -34.0323 0.
214.535 -260.359 0.
116.695 -398.31 0.
220.258 -152.364 0.
323.822 93.5819 0.
136.732 62.7489 0.
63.3901 -105.807 0.
-9.95163 -274.364 0.
205.15 -300.53 0.
142.898 -443.388 0.
80.6463 -586.246 0.
-99.463 -553.98 0.
-27.9895 -386.182 0.
129.476 -191.569 0.
155.058 -131.855 0.
180.641 -72.1404 0.
266.574 -0.607214 0.
268.776 5.53241 0.
270.978 11.6722 0.
-53.5442 -128.596 0.
-57.7831 -138.184 0.
-62.0217 -147.771 0.
-94.0682 36.4112 0.
41.7939 355.384 0.
-780.076 -251.762 0.
-55.5292 -379.788 0.
-354.092 -1075.13 0.
451.107 138.68 0.
504.568 266.062 0.
622.715 544.266 0.
-425.523 -595.413 0.
-295.017 -293.22 0.
-70.4381 228.236 0.
425.257 144.798 0.
194.465 -394.601 0.
149.863 -499.893 0.
513.165 795.784 0.
525.91 829.311 0.
-199.256 -411.621 0.
211.437 546.433 0.
-227.089 -476.274 0.
-319.096 -747.028 0.
-303.303 -708.783 0.
147.34 342.942 0.
365.311 619.652 0.
-12.6639 -263.935 0.
-313.312 -967.53 0.
487.356 -140.234 0.
822.797 640.179 0.
-606.819 -860.261 0.
227.319 -550.464 0.
483.694 52.4735 0.
549.146 1169.32 0.
526.448 1119.06 0.
16.7196 -67.0909 0.
190.706 -269.698 0.
538.453 544.134 0.
417.579 264.507 0.
-268.766 -139.509 0.
-497.172 -670.485 0.
-155.789 128.1 0.
340.802 -153.23 0.
105.787 -704.919 0.
156.019 -169.389 0.
377.427 347.412 0.
104.674 -288.782 0.
153.772 -386.598 0.
361.942 96.5897 0.
-57.4241 -884.451 0.
-378.151 -883.851 0.
-65.1935 -150.147 0.
-138.464 -317.386 0.
676.633 -117.798 0.
813.881 198.126 0.
-350.78 850.597 0.
269.185 -72.8593 0.
17.7841 -662.143 0.
104.692 16.4294 0.
101.807 9.76538 0.
41.1786 -131.872 0.
-419.104 -521.008 0.
-79.9772 272.504 0.
11.7309 488.984 0.
307.704 -92.902 0.
-39.4855 -901.992 0.
636.138 675.091 0.
48.1249 249.514 0.
-88.0757 -64.9374 0.
151.895 208.742 0.
169.55 249.12 0.
-14.6241 -181.003 0.
40.966 -240.759 0.
169.381 56.5939 0.
-91.7639 -554.612 0.
422.862 19.8254 0.
115.133 -703.126 0.
77.18 -796.426 0.
277.505 366.13 0.
464.713 805.906 0.
680.407 484.333 0.
398.642 -11.0451 0.
-251.44 -1518.24 0.
-22.1953 -758.876 0.
874.563 1339.49 0.
103.038 -454.372 0.
-121.515 -41.6741 0.
188.379 680.697 0.
-200.001 -225.677 0.
32.1648 -622.006 0.
152.956 -341.288 0.
68.8057 -538.962 0.
6.06479 -750.037 0.
536.978 488.092 0.
96.4208 244.88 0.
-28.0164 -44.3767 0.
-63.5131 -126.437 0.
349.104 -0.0703975 0.
618.176 628.729 0.
462.453 266.35 0.
-37.5044 -182.814 0.
-54.6977 -224.588 0.
-377.676 -979.133 0.
-82.6659 193.248 0.
-385.899 -515.109 0.
-253.664 597.555 0.
438.685 553.627 0.
233.492 76.6891 0.
3.45141 -313.419 0.
28.2106 -257.254 0.
52.9697 -201.089 0.
-174.457 -236.259 0.
-126.27 -127.913 0.
-78.0833 -19.5665 0.
227.021 60.5294 0.
159.389 -95.7128 0.
91.7565 -251.955 0.
159.27 -123.213 0.
221.806 29.1435 0.
76.1062 88.2553 0.
130.058 214.841 0.
184.009 341.426 0.
399.247 464.314 0.
333.373 315.076 0.
267.499 165.838 0.
32.5589 -134.719 0.
-106.752 -466.109 0.
-246.063 -797.5 0.
250.56 -533.72 0.
330.44 -348.38 0.
1440.2 278.898 0.
173.75 -171.157 0.
219.597 -62.9942 0.
-8.66622 -118.407 0.
-73.5699 -267.561 0.
-138.473 -416.715 0.
129.514 -286.334 0.
223.065 -60.8266 0.
316.615 164.679 0.
-125.669 -96.9604 0.
-231.571 -342.993 0.
-337.472 -589.025 0.
167.086 -268.593 0.
239.342 -99.4365 0.
146.023 -17.6547 0.
129.358 -59.2502 0.
112.692 -100.846 0.
354.883 13.6267 0.
416.961 155.057 0.
479.038 296.489 0.
244.37 181.525 0.
180.335 32.8762 0.
116.301 -115.772 0.
369.587 -24.4876 0.
376.789 -8.2391 0.
-780.472 -489.587 0.
524.685 -142.197 0.
413.732 -401.607 0.
-437.296 -842.915 0.
-240.528 -384.83 0.
-43.759 73.2561 0.
-202.216 160.79 0.
-255.847 35.6367 0.
-309.477 -89.5168 0.
443.027 55.1924 0.
328.453 -212.18 0.
213.88 -479.552 0.
-369.466 -624.241 0.
-293.336 -445.761 0.
-164.002 -272.432 0.
-220.565 -403.572 0.
-277.128 -534.712 0.
-11.3117 -462.851 0.
36.5339 -350.245 0.
84.3797 -237.64 0.
222.379 -157.473 0.
206.079 -199.585 0.
189.779 -241.698 0.
370.865 -211.288 0.
342.236 -278.69 0.
22.6043 -465.465 0.
-134.248 -385.42 0.
-54.5115 -201.894 0.
454.169 80.7145 0.
334.23 -201.023 0.
214.29 -482.761 0.
-344.816 -702.435 0.
-170.211 -294.04 0.
4.39221 114.354 0.
258.708 338.227 0.
260.972 344.331 0.
263.236 350.435 0.
449.702 222.582 0.
327.051 -63.2653 0.
81.4966 -356.704 0.
171.82 -145.045 0.
262.144 66.6146 0.
138.637 80.5926 0.
71.2191 -79.4882 0.
3.80179 -239.57 0.
-152.644 -323.491 0.
-116.266 -237.846 0.
-79.8871 -152.201 0.
-244.128 -200.005 0.
-242.541 -195.279 0.
-258.033 625.124 0.
574.414 642.977 0.
369.478 165.785 0.
-291.216 -407.546 0.
-265.943 -350.905 0.
-240.669 -294.263 0.
-28.7397 -142.588 0.
19.8892 -33.8026 0.
68.5181 74.9834 0.
39.4505 10.7392 0.
-28.2875 -145.377 0.
-96.0256 -301.495 0.
226.362 -64.5792 0.
288.987 87.7798 0.
167.19 160.242 0.
221.819 286.437 0.
276.447 412.631 0.
656.007 604.041 0.
590.171 454.919 0.
524.336 305.797 0.
36.4179 -99.6166 0.
-102.265 -431.117 0.
-240.948 -762.619 0.
184.354 -530.86 0.
264.318 -345.353 0.
891.684 74.1232 0.
-74.334 -246.019 0.
-29.1419 -137.749 0.
1.33372 -84.8679 0.
-64.2509 -233.719 0.
-129.835 -382.569 0.
70.0767 -281.238 0.
163.557 -55.5792 0.
257.037 170.078 0.
44.0542 7.12081 0.
-61.0288 -240.043 0.
-166.112 -487.207 0.
25.9276 -295.148 0.
99.5379 -126.921 0.
71.7796 -17.9274 0.
55.5278 -59.6919 0.
39.2755 -101.456 0.
405.054 67.2525 0.
466.901 208.463 0.
528.748 349.675 0.
474.153 310.819 0.
409.277 163.161 0.
344.402 15.5021 0.
-40.7856 -169.044 0.
-33.454 -152.438 0.
-1791.19 -890.756 0.
892.247 47.8754 0.
781.53 -211.245 0.
-637.612 -897.026 0.
-440.221 -439.381 0.
-242.829 18.2648 0.
-270.363 164.043 0.
-323.12 38.5322 0.
-375.876 -86.9786 0.
545.716 130.886 0.
430.571 -136.045 0.
315.425 -402.977 0.
-402.611 -607.687 0.
-326.81 -428.875 0.
-278.628 -289.398 0.
-335.463 -420.219 0.
-392.298 -551.04 0.
56.8322 -402.529 0.
104.753 -289.942 0.
152.673 -177.356 0.
92.0836 -181.479 0.
75.4204 -223.666 0.
58.7575 -265.853 0.
805.501 7.26172 0.
776.255 -60.0678 0.
-215.294 -534.553 0.
-571.146 -541.942 0.
-492.072 -358.715 0.
620.015 182.691 0.
500.306 -99.5329 0.
380.597 -381.758 0.
-256.547 -633.069 0.
-82.1524 -224.425 0.
92.2409 184.219 0.
47.2707 279.061 0.
49.2492 285.53 0.
51.2277 291.999 0.
500.4 275.407 0.
377.52 -10.2834 0.
391.671 -192.298 0.
482.691 19.282 0.
573.712 230.862 0.
-144.544 -9.85516 0.
-211.238 -170.093 0.
-277.933 -330.333 0.
-206.894 -313.903 0.
-170.312 -227.992 0.
-133.729 -142.081 0.
-216.006 -158.675 0.
-214.572 -152.647 0.
