# vtk DataFile Version 2.0
test grain
ASCII
DATASET UNSTRUCTURED_GRID
POINTS 5000 float
0.499978 0.0010003 0.
0.50198 0.0010001 0.
0.503982 0.00100004 0.
0.505984 0.001 0.
0.507985 0.001 0.
0.509986 0.000999999 0.
0.511987 0.001 0.
0.513988 0.001 0.
0.51599 0.001 0.
0.517991 0.001 0.
0.519992 0.001 0.
0.521993 0.001 0.
0.523993 0.001 0.
0.525993 0.001 0.
0.527993 0.001 0.
0.529993 0.001 0.
0.531994 0.001 0.
0.533995 0.001 0.
0.535996 0.001 0.
0.537997 0.001 0.
0.539997 0.000999997 0.
0.541997 0.001 0.
0.543996 0.001 0.
0.545997 0.001 0.
0.547998 0.00100001 0.
0.549999 0.00100001 0.
0.551998 0.00100015 0.
0.553997 0.0010003 0.
0.555996 0.00100039 0.
0.557996 0.00100024 0.
0.559996 0.0010001 0.
0.561996 0.00100001 0.
0.563996 0.00100001 0.
0.565997 0.001 0.
0.567997 0.001 0.
0.569997 0.001 0.
0.571997 0.001 0.
0.573997 0.001 0.
0.575996 0.000999999 0.
0.577995 0.001 0.
0.579995 0.00100008 0.
0.581996 0.00100015 0.
0.583996 0.00100026 0.
0.585995 0.00100042 0.
0.587995 0.00100058 0.
0.589994 0.00100052 0.
0.591993 0.00100026 0.
0.593992 0.001 0.
0.595994 0.00100007 0.
0.597997 0.00100023 0.
0.6 0.00100039 0.
0.602001 0.00100026 0.
0.604002 0.00100012 0.
0.606003 0.00100002 0.
0.608003 0.00100004 0.
0.610003 0.00100005 0.
0.612003 0.00100005 0.
0.614002 0.00100004 0.
0.616002 0.00100003 0.
0.618002 0.00100014 0.
0.620001 0.00100033 0.
0.622001 0.00100051 0.
0.624 0.00100036 0.
0.626 0.00100018 0.
0.628 0.00100002 0.
0.63 0.00100001 0.
0.632001 0.00100001 0.
0.634001 0.00100001 0.
0.636001 0.00100001 0.
0.638001 0.00100001 0.
0.640002 0.00100001 0.
0.642002 0.00100001 0.
0.644002 0.001 0.
0.646003 0.00100002 0.
0.648003 0.00100004 0.
0.650004 0.00100006 0.
0.652004 0.00100003 0.
0.654004 0.00100001 0.
0.656004 0.001 0.
0.658005 0.001 0.
0.660006 0.000999998 0.
0.662006 0.000999999 0.
0.664006 0.001 0.
0.666006 0.001 0.
0.668006 0.00100001 0.
0.670007 0.00100001 0.
0.672008 0.00100001 0.
0.674008 0.001 0.
0.676009 0.001 0.
0.678009 0.001 0.
0.68001 0.00100001 0.
0.682011 0.00100002 0.
0.684012 0.00100002 0.
0.686013 0.00100001 0.
0.688015 0.001 0.
0.690016 0.00100002 0.
0.692017 0.00100005 0.
0.694019 0.00100008 0.
0.69602 0.00100005 0.
0.698021 0.00100001 0.
0.49998 0.00300089 0.
0.501981 0.0030003 0.
0.503983 0.00300013 0.
0.505984 0.003 0.
0.507985 0.003 0.
0.509986 0.003 0.
0.511987 0.003 0.
0.513989 0.003 0.
0.51599 0.003 0.
0.517991 0.003 0.
0.519992 0.00300001 0.
0.521993 0.00300001 0.
0.523993 0.00300001 0.
0.525993 0.00300001 0.
0.527993 0.00300001 0.
0.529994 0.003 0.
0.531994 0.003 0.
0.533995 0.00300001 0.
0.535996 0.003 0.
0.537996 0.003 0.
0.539997 0.00299999 0.
0.541997 0.003 0.
0.543998 0.00300001 0.
0.545998 0.00300001 0.
0.547999 0.00300002 0.
0.549999 0.00300003 0.
0.551998 0.00300046 0.
0.553997 0.00300089 0.
0.555997 0.00300116 0.
0.557997 0.00300072 0.
0.559997 0.00300029 0.
0.561997 0.00300003 0.
0.563997 0.00300002 0.
0.565997 0.00300001 0.
0.567997 0.00300001 0.
0.569998 0.00300001 0.
0.571998 0.00300001 0.
0.573997 0.003 0.
0.575996 0.00299999 0.
0.577996 0.00300001 0.
0.579996 0.00300024 0.
0.581996 0.00300046 0.
0.583996 0.00300077 0.
0.585995 0.00300126 0.
0.587995 0.00300175 0.
0.589994 0.00300154 0.
0.591994 0.00300077 0.
0.593993 0.003 0.
0.595995 0.0030002 0.
0.597998 0.00300069 0.
0.6 0.00300118 0.
0.602001 0.00300077 0.
0.604002 0.00300037 0.
0.606002 0.00300007 0.
0.608002 0.00300011 0.
0.610002 0.00300016 0.
0.612002 0.00300016 0.
0.614002 0.00300012 0.
0.616002 0.00300008 0.
0.618002 0.00300043 0.
0.620002 0.00300098 0.
0.622001 0.00300152 0.
0.624001 0.00300108 0.
0.626 0.00300053 0.
0.627999 0.00300004 0.
0.629999 0.00300004 0.
0.631999 0.00300003 0.
0.634 0.00300003 0.
0.636001 0.00300003 0.
0.638002 0.00300003 0.
0.640002 0.00300003 0.
0.642003 0.00300002 0.
0.644004 0.00300001 0.
0.646004 0.00300007 0.
0.648003 0.00300013 0.
0.650002 0.00300017 0.
0.652002 0.00300011 0.
0.654002 0.00300004 0.
0.656003 0.00300001 0.
0.658004 0.003 0.
0.660005 0.00299999 0.
0.662006 0.003 0.
0.664006 0.003 0.
0.666007 0.00300001 0.
0.668007 0.00300002 0.
0.670008 0.00300002 0.
0.672008 0.00300002 0.
0.674008 0.003 0.
0.676009 0.003 0.
0.678009 0.00300001 0.
0.68001 0.00300004 0.
0.682011 0.00300007 0.
0.684012 0.00300007 0.
0.686014 0.00300004 0.
0.688015 0.00300001 0.
0.690016 0.00300005 0.
0.692018 0.00300015 0.
0.694019 0.00300024 0.
0.69602 0.00300016 0.
0.698021 0.00300002 0.
0.499982 0.00500148 0.
0.501982 0.00500049 0.
0.503983 0.00500021 0.
0.505984 0.005 0.
0.507985 0.005 0.
0.509987 0.005 0.
0.511988 0.005 0.
0.513989 0.005 0.
0.51599 0.00500001 0.
0.517991 0.005 0.
0.519992 0.00500001 0.
0.521993 0.00500002 0.
0.523993 0.00500002 0.
0.525993 0.00500002 0.
0.527993 0.00500001 0.
0.529994 0.005 0.
0.531995 0.005 0.
0.533995 0.00500002 0.
0.535996 0.00500001 0.
0.537996 0.005 0.
0.539997 0.00499998 0.
0.541998 0.005 0.
0.543999 0.00500001 0.
0.545999 0.00500002 0.
0.547999 0.00500003 0.
0.549999 0.00500005 0.
0.551999 0.00500076 0.
0.553998 0.00500149 0.
0.555997 0.00500193 0.
0.557997 0.00500121 0.
0.559997 0.00500048 0.
0.561997 0.00500005 0.
0.563997 0.00500003 0.
0.565998 0.00500001 0.
0.567998 0.00500001 0.
0.569998 0.00500001 0.
0.571999 0.00500002 0.
0.573998 0.005 0.
0.575997 0.00499999 0.
0.577996 0.00500002 0.
0.579996 0.00500039 0.
0.581996 0.00500077 0.
0.583996 0.00500129 0.
0.585995 0.0050021 0.
0.587995 0.00500292 0.
0.589994 0.00500257 0.
0.591994 0.00500128 0.
0.593994 0.00499999 0.
0.595996 0.00500034 0.
0.597998 0.00500115 0.
0.6 0.00500196 0.
0.602001 0.00500129 0.
0.604001 0.00500061 0.
0.606002 0.00500012 0.
0.608002 0.00500019 0.
0.610002 0.00500026 0.
0.612002 0.00500027 0.
0.614002 0.0050002 0.
0.616002 0.00500014 0.
0.618002 0.00500072 0.
0.620002 0.00500162 0.
0.622002 0.00500253 0.
0.624001 0.0050018 0.
0.625999 0.00500088 0.
0.627998 0.00500007 0.
0.629998 0.00500005 0.
0.631998 0.00500004 0.
0.633999 0.00500005 0.
0.636 0.00500005 0.
0.638002 0.00500006 0.
0.640003 0.00500004 0.
0.642004 0.00500003 0.
0.644005 0.00500002 0.
0.646004 0.00500011 0.
0.648003 0.00500021 0.
0.650001 0.00500028 0.
0.652001 0.00500018 0.
0.654001 0.00500007 0.
0.656001 0.00500001 0.
0.658003 0.005 0.
0.660004 0.00499999 0.
0.662005 0.00499999 0.
0.664007 0.005 0.
0.666008 0.00500002 0.
0.668008 0.00500003 0.
0.670008 0.00500003 0.
0.672008 0.00500004 0.
0.674009 0.005 0.
0.676009 0.00499999 0.
0.678009 0.00500002 0.
0.68001 0.00500007 0.
0.682012 0.00500012 0.
0.684013 0.00500011 0.
0.686014 0.00500006 0.
0.688015 0.00500001 0.
0.690016 0.00500008 0.
0.692018 0.00500024 0.
0.69402 0.00500041 0.
0.69602 0.00500026 0.
0.698021 0.00500003 0.
0.499983 0.00700282 0.
0.501983 0.00700197 0.
0.503984 0.00700164 0.
0.505985 0.00700137 0.
0.507986 0.00700129 0.
0.509987 0.00700122 0.
0.511988 0.00700138 0.
0.513989 0.00700186 0.
0.51599 0.00700233 0.
0.517991 0.00700259 0.
0.519992 0.00700275 0.
0.521993 0.00700291 0.
0.523993 0.00700298 0.
0.525993 0.00700304 0.
0.527993 0.00700311 0.
0.529994 0.0070034 0.
0.531995 0.00700369 0.
0.533996 0.00700393 0.
0.535996 0.00700404 0.
0.537996 0.00700416 0.
0.539997 0.00700426 0.
0.541998 0.00700434 0.
0.543999 0.00700443 0.
0.545999 0.00700427 0.
0.547999 0.00700405 0.
0.549999 0.00700383 0.
0.551999 0.00700433 0.
0.553999 0.00700484 0.
0.555998 0.00700524 0.
0.557998 0.00700519 0.
0.559998 0.00700514 0.
0.561998 0.00700502 0.
0.563998 0.00700481 0.
0.565998 0.00700461 0.
0.567998 0.00700471 0.
0.569998 0.00700496 0.
0.571998 0.00700521 0.
0.573998 0.00700533 0.
0.575997 0.00700543 0.
0.577996 0.00700553 0.
0.579996 0.00700562 0.
0.581996 0.00700572 0.
0.583996 0.00700577 0.
0.585996 0.00700575 0.
0.587995 0.00700573 0.
0.589995 0.00700535 0.
0.591995 0.00700469 0.
0.593995 0.00700403 0.
0.595997 0.00700471 0.
0.597999 0.00700575 0.
0.6 0.0070068 0.
0.602001 0.00700623 0.
0.604001 0.00700565 0.
0.606002 0.00700525 0.
0.608001 0.0070054 0.
0.610001 0.00700554 0.
0.612001 0.0070055 0.
0.614001 0.00700521 0.
0.616001 0.00700493 0.
0.618002 0.0070051 0.
0.620002 0.00700552 0.
0.622002 0.00700594 0.
0.624001 0.00700566 0.
0.626 0.0070053 0.
0.627999 0.00700497 0.
0.629999 0.00700489 0.
0.632 0.00700482 0.
0.634 0.00700464 0.
0.636001 0.00700425 0.
0.638001 0.00700385 0.
0.640002 0.00700371 0.
0.642003 0.00700377 0.
0.644004 0.00700383 0.
0.646003 0.00700391 0.
0.648002 0.00700398 0.
0.650002 0.00700406 0.
0.652002 0.00700411 0.
0.654002 0.00700417 0.
0.656003 0.00700422 0.
0.658004 0.00700424 0.
0.660004 0.00700426 0.
0.662005 0.00700417 0.
0.664006 0.00700396 0.
0.666006 0.00700375 0.
0.668007 0.0070034 0.
0.670007 0.00700299 0.
0.672008 0.00700257 0.
0.674008 0.00700252 0.
0.676009 0.00700253 0.
0.678009 0.00700251 0.
0.68001 0.0070022 0.
0.682011 0.00700189 0.
0.684012 0.00700166 0.
0.686013 0.00700158 0.
0.688014 0.0070015 0.
0.690015 0.00700151 0.
0.692017 0.00700156 0.
0.694018 0.00700162 0.
0.69602 0.00700172 0.
0.698021 0.00700183 0.
0.499984 0.00900414 0.
0.501984 0.00900345 0.
0.503985 0.00900307 0.
0.505986 0.00900274 0.
0.507987 0.00900259 0.
0.509988 0.00900244 0.
0.511988 0.00900276 0.
0.513989 0.00900371 0.
0.51599 0.00900466 0.
0.517991 0.00900519 0.
0.519992 0.0090055 0.
0.521993 0.00900581 0.
0.523994 0.00900594 0.
0.525994 0.00900605 0.
0.527994 0.00900622 0.
0.529995 0.0090068 0.
0.531995 0.00900739 0.
0.533996 0.00900784 0.
0.535996 0.00900808 0.
0.537997 0.00900832 0.
0.539997 0.00900853 0.
0.541998 0.00900869 0.
0.543999 0.00900884 0.
0.545999 0.00900852 0.
0.547999 0.00900807 0.
0.549999 0.00900761 0.
0.551999 0.0090079 0.
0.553999 0.0090082 0.
0.555999 0.00900856 0.
0.557999 0.00900918 0.
0.559999 0.0090098 0.
0.561999 0.00900998 0.
0.563998 0.0090096 0.
0.565998 0.00900922 0.
0.567998 0.0090094 0.
0.569998 0.0090099 0.
0.571998 0.00901039 0.
0.573997 0.00901066 0.
0.575996 0.00901087 0.
0.577996 0.00901105 0.
0.579996 0.00901086 0.
0.581996 0.00901067 0.
0.583996 0.00901025 0.
0.585996 0.00900939 0.
0.587996 0.00900853 0.
0.589996 0.00900812 0.
0.591996 0.00900809 0.
0.593996 0.00900807 0.
0.595997 0.00900908 0.
0.597999 0.00901036 0.
0.600001 0.00901164 0.
0.602001 0.00901117 0.
0.604001 0.00901069 0.
0.606002 0.00901038 0.
0.608001 0.0090106 0.
0.610001 0.00901082 0.
0.612 0.00901072 0.
0.614001 0.00901022 0.
0.616001 0.00900971 0.
0.618001 0.00900949 0.
0.620001 0.00900942 0.
0.622001 0.00900936 0.
0.624001 0.00900952 0.
0.626001 0.00900972 0.
0.628001 0.00900987 0.
0.630001 0.00900973 0.
0.632001 0.00900959 0.
0.634001 0.00900923 0.
0.636001 0.00900844 0.
0.638001 0.00900764 0.
0.640001 0.00900738 0.
0.642002 0.00900751 0.
0.644002 0.00900764 0.
0.646002 0.0090077 0.
0.648002 0.00900776 0.
0.650002 0.00900783 0.
0.652003 0.00900804 0.
0.654004 0.00900826 0.
0.656005 0.00900842 0.
0.658005 0.00900848 0.
0.660005 0.00900853 0.
0.662005 0.00900836 0.
0.664005 0.00900792 0.
0.666005 0.00900748 0.
0.668005 0.00900677 0.
0.670006 0.00900594 0.
0.672007 0.00900511 0.
0.674008 0.00900504 0.
0.676009 0.00900506 0.
0.67801 0.00900499 0.
0.68001 0.00900433 0.
0.682011 0.00900366 0.
0.684012 0.00900321 0.
0.686012 0.00900311 0.
0.688013 0.00900301 0.
0.690014 0.00900293 0.
0.692016 0.00900288 0.
0.694017 0.00900284 0.
0.696019 0.00900319 0.
0.698021 0.00900363 0.
0.499984 0.0110046 0.
0.501985 0.0110041 0.
0.503986 0.0110037 0.
0.505986 0.0110033 0.
0.507987 0.0110032 0.
0.509988 0.0110031 0.
0.511989 0.0110035 0.
0.51399 0.0110046 0.
0.515991 0.0110057 0.
0.517992 0.0110063 0.
0.519993 0.0110066 0.
0.521994 0.011007 0.
0.523994 0.0110072 0.
0.525994 0.0110075 0.
0.527994 0.0110078 0.
0.529995 0.0110083 0.
0.531996 0.0110089 0.
0.533996 0.0110093 0.
0.535997 0.0110096 0.
0.537997 0.0110099 0.
0.539997 0.0110102 0.
0.541998 0.0110105 0.
0.543999 0.0110107 0.
0.545999 0.0110103 0.
0.547999 0.0110097 0.
0.549999 0.0110091 0.
0.551999 0.0110094 0.
0.553999 0.0110097 0.
0.556 0.0110102 0.
0.557999 0.0110111 0.
0.559999 0.0110121 0.
0.561999 0.0110124 0.
0.563999 0.011012 0.
0.565999 0.0110115 0.
0.567998 0.0110116 0.
0.569998 0.0110121 0.
0.571998 0.0110126 0.
0.573998 0.0110131 0.
0.575997 0.0110136 0.
0.577996 0.011014 0.
0.579996 0.0110136 0.
0.581996 0.0110132 0.
0.583996 0.0110126 0.
0.585997 0.0110114 0.
0.587997 0.0110102 0.
0.589997 0.0110098 0.
0.591997 0.01101 0.
0.593997 0.0110102 0.
0.595998 0.0110112 0.
0.597999 0.0110124 0.
0.6 0.0110136 0.
0.602001 0.0110133 0.
0.604001 0.0110129 0.
0.606001 0.0110127 0.
0.608001 0.0110129 0.
0.610001 0.0110131 0.
0.612 0.011013 0.
0.614001 0.0110125 0.
0.616001 0.011012 0.
0.618001 0.0110115 0.
0.620001 0.0110112 0.
0.622001 0.0110109 0.
0.624001 0.0110112 0.
0.626001 0.0110116 0.
0.628001 0.011012 0.
0.630001 0.0110118 0.
0.632001 0.0110117 0.
0.634001 0.0110113 0.
0.636001 0.0110105 0.
0.638001 0.0110096 0.
0.640001 0.0110093 0.
0.642001 0.0110094 0.
0.644001 0.0110095 0.
0.646001 0.0110095 0.
0.648002 0.0110094 0.
0.650002 0.0110093 0.
0.652003 0.0110097 0.
0.654004 0.0110101 0.
0.656005 0.0110104 0.
0.658005 0.0110105 0.
0.660004 0.0110105 0.
0.662004 0.0110103 0.
0.664004 0.0110097 0.
0.666004 0.0110091 0.
0.668005 0.0110081 0.
0.670006 0.0110071 0.
0.672007 0.011006 0.
0.674008 0.0110059 0.
0.676008 0.0110059 0.
0.678009 0.0110058 0.
0.68001 0.0110051 0.
0.682011 0.0110043 0.
0.684011 0.0110038 0.
0.686012 0.0110036 0.
0.688013 0.0110034 0.
0.690014 0.0110033 0.
0.692016 0.0110032 0.
0.694017 0.0110032 0.
0.696019 0.0110036 0.
0.69802 0.0110042 0.
0.499984 0.0130041 0.
0.501985 0.0130038 0.
0.503986 0.0130034 0.
0.505986 0.0130031 0.
0.507987 0.0130031 0.
0.509988 0.0130031 0.
0.511989 0.0130035 0.
0.51399 0.0130045 0.
0.515991 0.0130055 0.
0.517992 0.013006 0.
0.519993 0.0130062 0.
0.521994 0.0130064 0.
0.523994 0.0130069 0.
0.525994 0.0130073 0.
0.527994 0.0130078 0.
0.529995 0.0130079 0.
0.531995 0.0130081 0.
0.533996 0.0130084 0.
0.535996 0.0130087 0.
0.537997 0.013009 0.
0.539997 0.0130094 0.
0.541998 0.0130097 0.
0.543999 0.01301 0.
0.545999 0.0130096 0.
0.547999 0.013009 0.
0.549999 0.0130083 0.
0.551999 0.0130089 0.
0.553999 0.0130094 0.
0.555999 0.01301 0.
0.558 0.013011 0.
0.56 0.013012 0.
0.562 0.0130124 0.
0.563999 0.0130119 0.
0.565999 0.0130115 0.
0.567999 0.0130114 0.
0.569999 0.0130116 0.
0.571999 0.0130118 0.
0.573999 0.0130126 0.
0.575998 0.0130135 0.
0.577997 0.0130142 0.
0.579997 0.0130138 0.
0.581998 0.0130135 0.
0.583998 0.0130129 0.
0.585998 0.0130118 0.
0.587998 0.0130108 0.
0.589998 0.0130103 0.
0.591998 0.0130103 0.
0.593998 0.0130103 0.
0.595998 0.013011 0.
0.597999 0.0130119 0.
0.6 0.0130128 0.
0.602 0.0130126 0.
0.604 0.0130124 0.
0.606 0.0130123 0.
0.608001 0.0130123 0.
0.610001 0.0130124 0.
0.612001 0.0130123 0.
0.614001 0.013012 0.
0.616001 0.0130117 0.
0.618001 0.0130113 0.
0.620001 0.0130109 0.
0.622001 0.0130105 0.
0.624001 0.0130107 0.
0.626001 0.0130111 0.
0.628001 0.0130114 0.
0.630001 0.0130113 0.
0.632001 0.0130112 0.
0.634001 0.0130109 0.
0.636001 0.0130103 0.
0.638001 0.0130098 0.
0.640001 0.0130095 0.
0.642001 0.0130095 0.
0.644001 0.0130095 0.
0.646001 0.0130092 0.
0.648001 0.0130088 0.
0.650001 0.0130085 0.
0.652002 0.0130091 0.
0.654003 0.0130097 0.
0.656003 0.0130102 0.
0.658004 0.0130102 0.
0.660004 0.0130103 0.
0.662004 0.01301 0.
0.664004 0.0130092 0.
0.666004 0.0130085 0.
0.668005 0.0130075 0.
0.670006 0.0130064 0.
0.672007 0.0130053 0.
0.674007 0.0130051 0.
0.676008 0.013005 0.
0.678009 0.0130049 0.
0.680009 0.0130044 0.
0.68201 0.0130038 0.
0.684011 0.0130034 0.
0.686012 0.013003 0.
0.688014 0.0130026 0.
0.690015 0.0130025 0.
0.692016 0.0130027 0.
0.694018 0.0130028 0.
0.696019 0.0130031 0.
0.69802 0.0130034 0.
0.499984 0.0150037 0.
0.501985 0.0150035 0.
0.503986 0.0150031 0.
0.505987 0.0150028 0.
0.507988 0.015003 0.
0.509989 0.0150031 0.
0.51199 0.0150036 0.
0.513991 0.0150044 0.
0.515992 0.0150053 0.
0.517993 0.0150056 0.
0.519993 0.0150057 0.
0.521994 0.0150059 0.
0.523994 0.0150065 0.
0.525994 0.0150071 0.
0.527994 0.0150077 0.
0.529995 0.0150076 0.
0.531995 0.0150074 0.
0.533996 0.0150074 0.
0.535996 0.0150078 0.
0.537997 0.0150081 0.
0.539997 0.0150085 0.
0.541998 0.015009 0.
0.543999 0.0150094 0.
0.545999 0.0150089 0.
0.547999 0.0150082 0.
0.549999 0.0150075 0.
0.551999 0.0150083 0.
0.553999 0.0150091 0.
0.555999 0.0150099 0.
0.558 0.0150109 0.
0.56 0.0150119 0.
0.562 0.0150123 0.
0.564 0.0150119 0.
0.566 0.0150114 0.
0.568 0.0150112 0.
0.57 0.0150111 0.
0.572 0.0150111 0.
0.574 0.0150122 0.
0.575999 0.0150134 0.
0.577998 0.0150145 0.
0.579999 0.0150141 0.
0.581999 0.0150137 0.
0.583999 0.0150131 0.
0.585999 0.0150122 0.
0.587998 0.0150113 0.
0.589998 0.0150108 0.
0.591998 0.0150106 0.
0.593998 0.0150104 0.
0.595999 0.0150108 0.
0.597999 0.0150114 0.
0.599999 0.0150119 0.
0.601999 0.0150119 0.
0.603999 0.0150119 0.
0.606 0.0150119 0.
0.608001 0.0150118 0.
0.610002 0.0150117 0.
0.612002 0.0150115 0.
0.614002 0.0150115 0.
0.616001 0.0150114 0.
0.618001 0.0150111 0.
0.620001 0.0150106 0.
0.622001 0.0150101 0.
0.624001 0.0150103 0.
0.626001 0.0150105 0.
0.628 0.0150108 0.
0.63 0.0150107 0.
0.632 0.0150106 0.
0.634 0.0150105 0.
0.636 0.0150102 0.
0.638 0.0150099 0.
0.64 0.0150097 0.
0.642 0.0150096 0.
0.644001 0.0150094 0.
0.646001 0.0150089 0.
0.648001 0.0150083 0.
0.650001 0.0150077 0.
0.652001 0.0150085 0.
0.654001 0.0150093 0.
0.656002 0.0150099 0.
0.658003 0.01501 0.
0.660004 0.0150101 0.
0.662004 0.0150097 0.
0.664004 0.0150088 0.
0.666004 0.0150079 0.
0.668005 0.0150068 0.
0.670006 0.0150057 0.
0.672007 0.0150045 0.
0.674007 0.0150043 0.
0.676007 0.0150042 0.
0.678008 0.015004 0.
0.680009 0.0150037 0.
0.68201 0.0150034 0.
0.684011 0.015003 0.
0.686013 0.0150024 0.
0.688014 0.0150019 0.
0.690016 0.0150018 0.
0.692017 0.0150021 0.
0.694018 0.0150023 0.
0.696019 0.0150025 0.
0.69802 0.0150027 0.
0.499984 0.0170038 0.
0.501985 0.0170037 0.
0.503986 0.0170037 0.
0.505987 0.0170037 0.
0.507988 0.0170038 0.
0.509989 0.017004 0.
0.51199 0.0170043 0.
0.513991 0.0170048 0.
0.515992 0.0170053 0.
0.517992 0.0170057 0.
0.519993 0.0170061 0.
0.521994 0.0170065 0.
0.523994 0.0170069 0.
0.525994 0.0170073 0.
0.527994 0.0170077 0.
0.529995 0.0170077 0.
0.531995 0.0170078 0.
0.533996 0.0170078 0.
0.535997 0.0170079 0.
0.537997 0.0170081 0.
0.539998 0.0170084 0.
0.541999 0.0170088 0.
0.543999 0.0170092 0.
0.546 0.0170091 0.
0.548 0.0170087 0.
0.55 0.0170084 0.
0.552 0.017009 0.
0.553999 0.0170096 0.
0.555999 0.0170103 0.
0.558 0.0170112 0.
0.56 0.0170121 0.
0.562 0.0170124 0.
0.564 0.017012 0.
0.566 0.0170116 0.
0.568 0.0170116 0.
0.57 0.0170119 0.
0.572 0.0170123 0.
0.573999 0.017013 0.
0.575999 0.0170138 0.
0.577998 0.0170145 0.
0.579998 0.0170143 0.
0.581998 0.017014 0.
0.583999 0.0170136 0.
0.585999 0.0170128 0.
0.587999 0.0170121 0.
0.589999 0.0170117 0.
0.591999 0.0170115 0.
0.593999 0.0170113 0.
0.595999 0.0170114 0.
0.598 0.0170117 0.
0.6 0.017012 0.
0.602 0.0170122 0.
0.604 0.0170124 0.
0.606 0.0170126 0.
0.608001 0.0170125 0.
0.610001 0.0170124 0.
0.612002 0.0170122 0.
0.614001 0.0170117 0.
0.616001 0.0170112 0.
0.618001 0.017011 0.
0.620001 0.0170109 0.
0.622001 0.0170108 0.
0.624001 0.0170108 0.
0.626 0.0170108 0.
0.628 0.0170108 0.
0.63 0.0170107 0.
0.632 0.0170105 0.
0.634001 0.0170104 0.
0.636001 0.0170104 0.
0.638001 0.0170103 0.
0.640001 0.0170102 0.
0.642001 0.0170099 0.
0.644001 0.0170096 0.
0.646001 0.0170093 0.
0.648001 0.0170089 0.
0.650001 0.0170085 0.
0.652001 0.0170089 0.
0.654001 0.0170094 0.
0.656001 0.0170098 0.
0.658002 0.0170099 0.
0.660003 0.01701 0.
0.662004 0.0170097 0.
0.664004 0.0170088 0.
0.666005 0.017008 0.
0.668005 0.0170073 0.
0.670006 0.0170066 0.
0.672007 0.0170059 0.
0.674007 0.0170051 0.
0.676007 0.0170044 0.
0.678008 0.0170036 0.
0.680009 0.0170031 0.
0.68201 0.0170025 0.
0.684011 0.0170021 0.
0.686012 0.0170019 0.
0.688013 0.0170016 0.
0.690015 0.0170018 0.
0.692016 0.0170021 0.
0.694017 0.0170025 0.
0.696018 0.0170026 0.
0.698019 0.0170026 0.
0.499984 0.0190038 0.
0.501985 0.0190039 0.
0.503986 0.0190042 0.
0.505987 0.0190046 0.
0.507988 0.0190047 0.
0.509989 0.0190049 0.
0.51199 0.019005 0.
0.513991 0.0190052 0.
0.515991 0.0190054 0.
0.517992 0.0190059 0.
0.519993 0.0190065 0.
0.521994 0.0190071 0.
0.523994 0.0190073 0.
0.525994 0.0190075 0.
0.527994 0.0190077 0.
0.529995 0.0190079 0.
0.531996 0.0190081 0.
0.533996 0.0190082 0.
0.535997 0.0190081 0.
0.537998 0.019008 0.
0.539998 0.0190082 0.
0.541999 0.0190087 0.
0.544 0.0190091 0.
0.546 0.0190092 0.
0.548 0.0190092 0.
0.550001 0.0190092 0.
0.552 0.0190096 0.
0.554 0.0190101 0.
0.555999 0.0190106 0.
0.558 0.0190114 0.
0.56 0.0190123 0.
0.562 0.0190126 0.
0.564 0.0190122 0.
0.566 0.0190117 0.
0.568 0.019012 0.
0.57 0.0190127 0.
0.571999 0.0190135 0.
0.573999 0.0190139 0.
0.575998 0.0190142 0.
0.577998 0.0190146 0.
0.579998 0.0190144 0.
0.581998 0.0190143 0.
0.583998 0.019014 0.
0.585999 0.0190134 0.
0.587999 0.0190128 0.
0.59 0.0190125 0.
0.592 0.0190123 0.
0.594 0.0190121 0.
0.596 0.0190121 0.
0.598 0.0190121 0.
0.6 0.0190121 0.
0.602001 0.0190125 0.
0.604001 0.019013 0.
0.606001 0.0190133 0.
0.608001 0.0190132 0.
0.610001 0.0190132 0.
0.612001 0.0190128 0.
0.614001 0.0190119 0.
0.616001 0.0190111 0.
0.618001 0.019011 0.
0.620001 0.0190112 0.
0.622001 0.0190114 0.
0.624 0.0190113 0.
0.626 0.0190111 0.
0.628 0.0190109 0.
0.63 0.0190107 0.
0.632 0.0190105 0.
0.634001 0.0190104 0.
0.636001 0.0190106 0.
0.638002 0.0190108 0.
0.640002 0.0190106 0.
0.642002 0.0190103 0.
0.644002 0.0190099 0.
0.646002 0.0190096 0.
0.648002 0.0190094 0.
0.650001 0.0190092 0.
0.652001 0.0190093 0.
0.654001 0.0190095 0.
0.656001 0.0190096 0.
0.658002 0.0190097 0.
0.660003 0.0190098 0.
0.662003 0.0190096 0.
0.664004 0.0190089 0.
0.666005 0.0190082 0.
0.668005 0.0190078 0.
0.670006 0.0190075 0.
0.672007 0.0190073 0.
0.674007 0.019006 0.
0.676007 0.0190046 0.
0.678007 0.0190032 0.
0.680009 0.0190025 0.
0.68201 0.0190017 0.
0.684011 0.0190012 0.
0.686012 0.0190013 0.
0.688012 0.0190014 0.
0.690013 0.0190017 0.
0.692015 0.0190022 0.
0.694016 0.0190027 0.
0.696018 0.0190027 0.
0.698019 0.0190025 0.
0.499984 0.0210038 0.
0.501985 0.021004 0.
0.503986 0.0210045 0.
0.505987 0.0210049 0.
0.507988 0.021005 0.
0.509989 0.0210051 0.
0.51199 0.0210052 0.
0.513991 0.0210053 0.
0.515991 0.0210053 0.
0.517992 0.0210058 0.
0.519993 0.0210065 0.
0.521994 0.0210072 0.
0.523994 0.0210073 0.
0.525994 0.0210073 0.
0.527995 0.0210073 0.
0.529995 0.0210077 0.
0.531996 0.021008 0.
0.533996 0.0210082 0.
0.535997 0.0210079 0.
0.537998 0.0210076 0.
0.539998 0.0210077 0.
0.541999 0.0210081 0.
0.544 0.0210085 0.
0.546 0.0210088 0.
0.548 0.021009 0.
0.550001 0.0210093 0.
0.552 0.0210097 0.
0.554 0.0210101 0.
0.555999 0.0210106 0.
0.558 0.0210114 0.
0.56 0.0210122 0.
0.562001 0.0210125 0.
0.564 0.0210122 0.
0.566 0.0210118 0.
0.568 0.0210122 0.
0.569999 0.021013 0.
0.571999 0.0210138 0.
0.573999 0.021014 0.
0.575998 0.0210141 0.
0.577998 0.0210142 0.
0.579998 0.0210142 0.
0.581998 0.0210141 0.
0.583999 0.0210138 0.
0.585999 0.0210133 0.
0.588 0.0210127 0.
0.59 0.0210125 0.
0.592 0.0210125 0.
0.594 0.0210125 0.
0.596 0.0210124 0.
0.598 0.0210123 0.
0.6 0.0210122 0.
0.602001 0.0210128 0.
0.604001 0.0210133 0.
0.606001 0.0210136 0.
0.608001 0.0210135 0.
0.610001 0.0210134 0.
0.612001 0.021013 0.
0.614001 0.0210121 0.
0.616001 0.0210112 0.
0.618001 0.0210111 0.
0.620001 0.0210114 0.
0.622001 0.0210116 0.
0.624 0.0210112 0.
0.626 0.0210107 0.
0.628 0.0210103 0.
0.63 0.0210104 0.
0.632 0.0210105 0.
0.634001 0.0210106 0.
0.636001 0.0210108 0.
0.638002 0.021011 0.
0.640002 0.0210109 0.
0.642002 0.0210106 0.
0.644002 0.0210102 0.
0.646002 0.02101 0.
0.648002 0.0210098 0.
0.650002 0.0210096 0.
0.652002 0.0210096 0.
0.654001 0.0210095 0.
0.656001 0.0210095 0.
0.658002 0.0210096 0.
0.660003 0.0210096 0.
0.662003 0.0210093 0.
0.664004 0.0210086 0.
0.666005 0.0210079 0.
0.668005 0.0210076 0.
0.670006 0.0210076 0.
0.672007 0.0210075 0.
0.674007 0.021006 0.
0.676007 0.0210042 0.
0.678008 0.0210026 0.
0.680009 0.0210018 0.
0.68201 0.021001 0.
0.684011 0.0210006 0.
0.686011 0.0210009 0.
0.688012 0.0210012 0.
0.690013 0.0210016 0.
0.692014 0.0210021 0.
0.694015 0.0210025 0.
0.696017 0.0210025 0.
0.698019 0.0210023 0.
0.499984 0.0230038 0.
0.501985 0.023004 0.
0.503986 0.0230045 0.
0.505987 0.0230049 0.
0.507988 0.0230048 0.
0.509989 0.0230048 0.
0.51199 0.0230049 0.
0.513991 0.023005 0.
0.515992 0.0230051 0.
0.517992 0.0230056 0.
0.519993 0.0230063 0.
0.521994 0.0230069 0.
0.523994 0.0230069 0.
0.525995 0.0230067 0.
0.527995 0.0230066 0.
0.529995 0.0230071 0.
0.531996 0.0230076 0.
0.533996 0.0230077 0.
0.535997 0.0230073 0.
0.537998 0.0230068 0.
0.539998 0.0230068 0.
0.541999 0.023007 0.
0.543999 0.0230073 0.
0.545999 0.0230077 0.
0.548 0.0230082 0.
0.550001 0.0230087 0.
0.552 0.0230092 0.
0.554 0.0230098 0.
0.556 0.0230104 0.
0.558 0.0230111 0.
0.56 0.0230118 0.
0.562 0.0230121 0.
0.564 0.023012 0.
0.566 0.0230119 0.
0.568 0.0230122 0.
0.57 0.0230128 0.
0.571999 0.0230134 0.
0.573999 0.0230135 0.
0.575999 0.0230135 0.
0.577998 0.0230135 0.
0.579999 0.0230134 0.
0.581999 0.0230133 0.
0.583999 0.0230131 0.
0.585999 0.0230124 0.
0.587999 0.0230118 0.
0.59 0.0230117 0.
0.592 0.0230121 0.
0.594 0.0230125 0.
0.596 0.0230125 0.
0.598 0.0230124 0.
0.6 0.0230124 0.
0.602001 0.0230128 0.
0.604001 0.0230133 0.
0.606002 0.0230136 0.
0.608002 0.0230134 0.
0.610002 0.0230132 0.
0.612001 0.0230129 0.
0.614001 0.0230123 0.
0.616001 0.0230117 0.
0.618001 0.0230114 0.
0.620001 0.0230113 0.
0.622001 0.0230112 0.
0.624001 0.0230105 0.
0.626001 0.0230098 0.
0.628 0.0230092 0.
0.63 0.0230099 0.
0.632 0.0230107 0.
0.634 0.0230112 0.
0.636001 0.0230112 0.
0.638001 0.0230112 0.
0.640001 0.023011 0.
0.642001 0.0230108 0.
0.644001 0.0230105 0.
0.646002 0.0230103 0.
0.648002 0.0230101 0.
0.650002 0.0230098 0.
0.652002 0.0230097 0.
0.654002 0.0230095 0.
0.656002 0.0230094 0.
0.658002 0.0230094 0.
0.660003 0.0230094 0.
0.662003 0.023009 0.
0.664004 0.023008 0.
0.666004 0.0230069 0.
0.668005 0.0230066 0.
0.670006 0.0230067 0.
0.672006 0.0230067 0.
0.674007 0.0230051 0.
0.676008 0.0230034 0.
0.678008 0.0230017 0.
0.680009 0.0230011 0.
0.68201 0.0230005 0.
0.68401 0.0230003 0.
0.686011 0.0230008 0.
0.688012 0.0230012 0.
0.690013 0.0230015 0.
0.692014 0.0230017 0.
0.694015 0.0230018 0.
0.696016 0.023002 0.
0.698018 0.0230022 0.
0.499985 0.0250037 0.
0.501985 0.0250041 0.
0.503986 0.0250045 0.
0.505987 0.0250048 0.
0.507988 0.0250046 0.
0.509989 0.0250045 0.
0.51199 0.0250045 0.
0.513991 0.0250047 0.
0.515992 0.0250049 0.
0.517993 0.0250054 0.
0.519993 0.025006 0.
0.521994 0.0250067 0.
0.523994 0.0250064 0.
0.525995 0.0250061 0.
0.527995 0.0250059 0.
0.529996 0.0250065 0.
0.531996 0.0250071 0.
0.533996 0.0250073 0.
0.535997 0.0250067 0.
0.537998 0.0250061 0.
0.539998 0.0250059 0.
0.541998 0.025006 0.
0.543998 0.0250061 0.
0.545999 0.0250067 0.
0.548 0.0250074 0.
0.55 0.025008 0.
0.552 0.0250087 0.
0.554 0.0250094 0.
0.556 0.0250101 0.
0.558 0.0250108 0.
0.56 0.0250114 0.
0.562 0.0250118 0.
0.564 0.0250118 0.
0.566 0.0250119 0.
0.568 0.0250122 0.
0.57 0.0250126 0.
0.572 0.025013 0.
0.573999 0.025013 0.
0.575999 0.0250129 0.
0.577999 0.0250128 0.
0.579999 0.0250127 0.
0.581999 0.0250126 0.
0.583999 0.0250123 0.
0.585999 0.0250116 0.
0.587999 0.0250108 0.
0.589999 0.0250109 0.
0.592 0.0250117 0.
0.594 0.0250124 0.
0.596 0.0250126 0.
0.598 0.0250125 0.
0.6 0.0250125 0.
0.602001 0.0250129 0.
0.604001 0.0250133 0.
0.606002 0.0250136 0.
0.608002 0.0250133 0.
0.610002 0.025013 0.
0.612002 0.0250127 0.
0.614001 0.0250124 0.
0.616001 0.0250121 0.
0.618001 0.0250117 0.
0.620001 0.0250113 0.
0.622001 0.0250109 0.
0.624001 0.0250099 0.
0.626001 0.0250088 0.
0.628001 0.025008 0.
0.630001 0.0250094 0.
0.632 0.0250108 0.
0.634 0.0250117 0.
0.636 0.0250115 0.
0.638 0.0250113 0.
0.64 0.0250111 0.
0.642001 0.025011 0.
0.644001 0.0250109 0.
0.646001 0.0250106 0.
0.648002 0.0250103 0.
0.650002 0.02501 0.
0.652002 0.0250098 0.
0.654002 0.0250095 0.
0.656002 0.0250093 0.
0.658002 0.0250093 0.
0.660003 0.0250093 0.
0.662003 0.0250086 0.
0.664003 0.0250073 0.
0.666004 0.025006 0.
0.668004 0.0250057 0.
0.670005 0.0250058 0.
0.672006 0.025006 0.
0.674007 0.0250043 0.
0.676008 0.0250025 0.
0.678009 0.0250008 0.
0.680009 0.0250004 0.
0.682009 0.0250001 0.
0.68401 0.025 0.
0.68601 0.0250006 0.
0.688011 0.0250013 0.
0.690012 0.0250014 0.
0.692013 0.0250013 0.
0.694014 0.0250011 0.
0.696016 0.0250015 0.
0.698017 0.025002 0.
0.499984 0.0270037 0.
0.501985 0.027004 0.
0.503986 0.0270044 0.
0.505987 0.0270047 0.
0.507988 0.0270044 0.
0.509989 0.0270042 0.
0.51199 0.0270041 0.
0.513991 0.0270042 0.
0.515992 0.0270043 0.
0.517993 0.0270047 0.
0.519994 0.0270053 0.
0.521994 0.0270059 0.
0.523995 0.0270059 0.
0.525995 0.0270058 0.
0.527996 0.0270058 0.
0.529996 0.0270062 0.
0.531997 0.0270065 0.
0.533997 0.0270067 0.
0.535998 0.0270064 0.
0.537998 0.0270061 0.
0.539998 0.0270062 0.
0.541999 0.0270064 0.
0.543999 0.0270067 0.
0.545999 0.027007 0.
0.547999 0.0270074 0.
0.55 0.0270078 0.
0.552 0.0270086 0.
0.554 0.0270095 0.
0.556 0.0270102 0.
0.558 0.0270107 0.
0.56 0.0270111 0.
0.562 0.0270113 0.
0.564 0.0270113 0.
0.566 0.0270113 0.
0.568 0.0270117 0.
0.57 0.0270122 0.
0.572 0.0270128 0.
0.574 0.0270127 0.
0.575999 0.0270124 0.
0.577999 0.0270123 0.
0.579999 0.0270123 0.
0.581999 0.0270124 0.
0.583999 0.0270121 0.
0.585999 0.0270114 0.
0.587999 0.0270106 0.
0.59 0.0270107 0.
0.592 0.0270115 0.
0.594 0.0270123 0.
0.596 0.0270123 0.
0.598 0.0270121 0.
0.6 0.0270119 0.
0.602001 0.0270121 0.
0.604002 0.0270122 0.
0.606002 0.0270123 0.
0.608002 0.0270123 0.
0.610002 0.0270124 0.
0.612002 0.0270123 0.
0.614001 0.027012 0.
0.616001 0.0270118 0.
0.618001 0.0270114 0.
0.620001 0.027011 0.
0.622001 0.0270105 0.
0.624001 0.0270097 0.
0.626 0.0270089 0.
0.628 0.0270083 0.
0.63 0.0270092 0.
0.632 0.0270102 0.
0.634 0.0270108 0.
0.636 0.0270107 0.
0.638 0.0270105 0.
0.64 0.0270104 0.
0.642001 0.0270104 0.
0.644001 0.0270105 0.
0.646001 0.0270102 0.
0.648002 0.0270098 0.
0.650002 0.0270095 0.
0.652002 0.0270093 0.
0.654002 0.0270091 0.
0.656002 0.0270089 0.
0.658003 0.0270088 0.
0.660003 0.0270087 0.
0.662004 0.0270082 0.
0.664004 0.027007 0.
0.666004 0.0270058 0.
0.668005 0.0270053 0.
0.670005 0.0270052 0.
0.672006 0.0270052 0.
0.674006 0.027004 0.
0.676007 0.0270027 0.
0.678008 0.0270014 0.
0.680008 0.0270006 0.
0.682009 0.0269999 0.
0.68401 0.0269996 0.
0.68601 0.0270002 0.
0.688011 0.0270008 0.
0.690012 0.0270012 0.
0.692013 0.0270013 0.
0.694014 0.0270015 0.
0.696016 0.0270018 0.
0.698017 0.0270022 0.
0.499983 0.0290038 0.
0.501984 0.0290039 0.
0.503986 0.0290043 0.
0.505988 0.0290045 0.
0.507989 0.0290042 0.
0.50999 0.029004 0.
0.511991 0.0290038 0.
0.513992 0.0290038 0.
0.515993 0.0290037 0.
0.517993 0.029004 0.
0.519994 0.0290046 0.
0.521995 0.0290051 0.
0.523995 0.0290053 0.
0.525996 0.0290055 0.
0.527996 0.0290057 0.
0.529997 0.0290058 0.
0.531997 0.029006 0.
0.533998 0.0290061 0.
0.535998 0.0290061 0.
0.537999 0.0290062 0.
0.539999 0.0290064 0.
0.541999 0.0290068 0.
0.543999 0.0290072 0.
0.545999 0.0290074 0.
0.547999 0.0290074 0.
0.549999 0.0290075 0.
0.551999 0.0290085 0.
0.554 0.0290095 0.
0.556 0.0290103 0.
0.558 0.0290106 0.
0.56 0.0290108 0.
0.562 0.0290109 0.
0.564001 0.0290108 0.
0.566001 0.0290107 0.
0.568001 0.0290112 0.
0.570001 0.0290119 0.
0.572001 0.0290126 0.
0.574 0.0290124 0.
0.576 0.029012 0.
0.577999 0.0290118 0.
0.579999 0.029012 0.
0.581999 0.0290122 0.
0.583999 0.029012 0.
0.585999 0.0290112 0.
0.588 0.0290103 0.
0.59 0.0290104 0.
0.592 0.0290113 0.
0.594 0.0290121 0.
0.596 0.0290121 0.
0.598 0.0290117 0.
0.6 0.0290114 0.
0.602001 0.0290112 0.
0.604002 0.0290111 0.
0.606002 0.029011 0.
0.608002 0.0290113 0.
0.610002 0.0290117 0.
0.612001 0.0290118 0.
0.614001 0.0290116 0.
0.616001 0.0290114 0.
0.618001 0.0290111 0.
0.620001 0.0290106 0.
0.622001 0.0290102 0.
0.624 0.0290096 0.
0.626 0.029009 0.
0.627999 0.0290085 0.
0.629999 0.0290091 0.
0.632 0.0290096 0.
0.634 0.02901 0.
0.636 0.0290098 0.
0.638 0.0290097 0.
0.640001 0.0290097 0.
0.642001 0.0290099 0.
0.644001 0.0290101 0.
0.646001 0.0290098 0.
0.648002 0.0290093 0.
0.650002 0.0290089 0.
0.652002 0.0290088 0.
0.654002 0.0290086 0.
0.656002 0.0290085 0.
0.658003 0.0290084 0.
0.660004 0.0290082 0.
0.662004 0.0290077 0.
0.664004 0.0290066 0.
0.666005 0.0290055 0.
0.668005 0.029005 0.
0.670005 0.0290047 0.
0.672006 0.0290044 0.
0.674006 0.0290036 0.
0.676006 0.0290028 0.
0.678007 0.029002 0.
0.680008 0.0290009 0.
0.682009 0.0289998 0.
0.68401 0.0289992 0.
0.68601 0.0289998 0.
0.688011 0.0290004 0.
0.690012 0.0290009 0.
0.692013 0.0290014 0.
0.694014 0.0290019 0.
0.696016 0.0290021 0.
0.698017 0.0290023 0.
0.499983 0.0310037 0.
0.501984 0.0310037 0.
0.503986 0.031004 0.
0.505988 0.0310041 0.
0.507989 0.0310039 0.
0.50999 0.0310037 0.
0.511991 0.0310035 0.
0.513992 0.0310034 0.
0.515993 0.0310033 0.
0.517993 0.0310035 0.
0.519994 0.031004 0.
0.521995 0.0310044 0.
0.523996 0.0310048 0.
0.525996 0.0310052 0.
0.527997 0.0310055 0.
0.529997 0.0310055 0.
0.531998 0.0310055 0.
0.533998 0.0310056 0.
0.535999 0.0310059 0.
0.537999 0.0310062 0.
0.539999 0.0310065 0.
0.541999 0.0310069 0.
0.543999 0.0310072 0.
0.545999 0.0310073 0.
0.547999 0.0310074 0.
0.549999 0.0310074 0.
0.551999 0.0310084 0.
0.554 0.0310094 0.
0.556 0.0310102 0.
0.558 0.0310105 0.
0.56 0.0310107 0.
0.562 0.0310107 0.
0.564001 0.0310105 0.
0.566001 0.0310103 0.
0.568001 0.0310107 0.
0.570001 0.0310114 0.
0.572001 0.0310121 0.
0.574001 0.0310119 0.
0.576 0.0310117 0.
0.577999 0.0310115 0.
0.579999 0.0310116 0.
0.581999 0.0310117 0.
0.583999 0.0310116 0.
0.585999 0.0310109 0.
0.588 0.0310101 0.
0.59 0.0310103 0.
0.592 0.0310111 0.
0.594 0.0310119 0.
0.596 0.0310118 0.
0.598 0.0310113 0.
0.6 0.0310108 0.
0.602001 0.0310105 0.
0.604002 0.0310102 0.
0.606002 0.0310102 0.
0.608002 0.0310109 0.
0.610001 0.0310115 0.
0.612001 0.0310118 0.
0.614001 0.0310114 0.
0.616 0.031011 0.
0.618 0.0310107 0.
0.620001 0.0310105 0.
0.622001 0.0310102 0.
0.624 0.0310097 0.
0.625999 0.0310091 0.
0.627999 0.0310087 0.
0.629999 0.0310091 0.
0.631999 0.0310095 0.
0.634 0.0310097 0.
0.636 0.0310094 0.
0.638001 0.0310091 0.
0.640001 0.0310091 0.
0.642001 0.0310094 0.
0.644001 0.0310096 0.
0.646001 0.0310093 0.
0.648002 0.0310089 0.
0.650002 0.0310084 0.
0.652002 0.0310081 0.
0.654002 0.0310079 0.
0.656002 0.0310076 0.
0.658003 0.0310075 0.
0.660004 0.0310073 0.
0.662004 0.0310069 0.
0.664005 0.031006 0.
0.666005 0.0310052 0.
0.668005 0.0310046 0.
0.670005 0.0310043 0.
0.672006 0.0310039 0.
0.674006 0.0310033 0.
0.676006 0.0310027 0.
0.678006 0.031002 0.
0.680007 0.0310009 0.
0.682009 0.0309998 0.
0.68401 0.0309992 0.
0.68601 0.0309996 0.
0.688011 0.031 0.
0.690012 0.0310006 0.
0.692013 0.0310011 0.
0.694014 0.0310017 0.
0.696015 0.0310019 0.
0.698016 0.0310021 0.
0.499984 0.0330035 0.
0.501985 0.0330034 0.
0.503986 0.0330035 0.
0.505988 0.0330036 0.
0.507989 0.0330035 0.
0.50999 0.0330035 0.
0.511991 0.0330034 0.
0.513992 0.0330032 0.
0.515992 0.033003 0.
0.517993 0.0330031 0.
0.519994 0.0330035 0.
0.521995 0.0330038 0.
0.523996 0.0330043 0.
0.525997 0.0330048 0.
0.527997 0.0330052 0.
0.529997 0.0330052 0.
0.531997 0.0330052 0.
0.533998 0.0330054 0.
0.535999 0.0330057 0.
0.537999 0.0330061 0.
0.539999 0.0330064 0.
0.541999 0.0330065 0.
0.543999 0.0330066 0.
0.545999 0.0330069 0.
0.548 0.0330072 0.
0.55 0.0330076 0.
0.552 0.0330084 0.
0.554 0.0330092 0.
0.556001 0.0330099 0.
0.558 0.0330103 0.
0.56 0.0330107 0.
0.562 0.0330107 0.
0.564001 0.0330103 0.
0.566001 0.0330099 0.
0.568001 0.0330102 0.
0.570001 0.0330107 0.
0.572001 0.0330113 0.
0.574001 0.0330114 0.
0.576 0.0330114 0.
0.578 0.0330113 0.
0.58 0.0330112 0.
0.581999 0.0330111 0.
0.583999 0.0330108 0.
0.585999 0.0330105 0.
0.587999 0.0330101 0.
0.59 0.0330103 0.
0.592 0.033011 0.
0.594 0.0330118 0.
0.596 0.0330114 0.
0.598 0.0330107 0.
0.6 0.0330101 0.
0.602001 0.0330099 0.
0.604002 0.0330097 0.
0.606002 0.0330098 0.
0.608002 0.0330109 0.
0.610001 0.033012 0.
0.612001 0.0330122 0.
0.614 0.0330113 0.
0.616 0.0330104 0.
0.618 0.0330102 0.
0.620001 0.0330104 0.
0.622001 0.0330106 0.
0.624 0.03301 0.
0.625999 0.0330093 0.
0.627999 0.0330088 0.
0.629999 0.0330093 0.
0.632 0.0330098 0.
0.634 0.0330099 0.
0.636 0.0330094 0.
0.638 0.0330089 0.
0.640001 0.0330087 0.
0.642001 0.0330088 0.
0.644001 0.033009 0.
0.646001 0.0330087 0.
0.648001 0.0330084 0.
0.650001 0.0330081 0.
0.652002 0.0330074 0.
0.654002 0.0330067 0.
0.656002 0.0330062 0.
0.658003 0.0330062 0.
0.660004 0.0330061 0.
0.662004 0.0330058 0.
0.664004 0.0330052 0.
0.666004 0.0330047 0.
0.668005 0.0330043 0.
0.670005 0.033004 0.
0.672006 0.0330037 0.
0.674006 0.033003 0.
0.676006 0.0330023 0.
0.678007 0.0330016 0.
0.680008 0.0330008 0.
0.682009 0.0330001 0.
0.68401 0.0329996 0.
0.68601 0.0329997 0.
0.688011 0.0329998 0.
0.690011 0.0330001 0.
0.692012 0.0330005 0.
0.694013 0.0330009 0.
0.696014 0.0330012 0.
0.698015 0.0330015 0.
0.499985 0.0350033 0.
0.501985 0.035003 0.
0.503986 0.035003 0.
0.505987 0.035003 0.
0.507989 0.0350032 0.
0.50999 0.0350033 0.
0.511991 0.0350033 0.
0.513992 0.035003 0.
0.515992 0.0350027 0.
0.517993 0.0350028 0.
0.519995 0.035003 0.
0.521996 0.0350033 0.
0.523996 0.0350038 0.
0.525997 0.0350044 0.
0.527997 0.0350049 0.
0.529997 0.0350049 0.
0.531997 0.0350049 0.
0.533997 0.0350051 0.
0.535999 0.0350056 0.
0.538 0.0350061 0.
0.54 0.0350062 0.
0.541999 0.0350062 0.
0.543999 0.0350061 0.
0.545999 0.0350065 0.
0.548 0.0350071 0.
0.550001 0.0350077 0.
0.552001 0.0350084 0.
0.554001 0.035009 0.
0.556001 0.0350096 0.
0.558001 0.0350102 0.
0.560001 0.0350107 0.
0.562001 0.0350108 0.
0.564001 0.0350102 0.
0.566001 0.0350096 0.
0.568001 0.0350097 0.
0.570001 0.0350101 0.
0.572002 0.0350106 0.
0.574001 0.0350108 0.
0.576001 0.0350111 0.
0.578 0.0350112 0.
0.58 0.0350108 0.
0.582 0.0350104 0.
0.584 0.0350101 0.
0.585999 0.0350101 0.
0.587999 0.03501 0.
0.589999 0.0350103 0.
0.592 0.0350109 0.
0.594 0.0350116 0.
0.596 0.035011 0.
0.598 0.0350102 0.
0.6 0.0350093 0.
0.602001 0.0350093 0.
0.604002 0.0350092 0.
0.606002 0.0350094 0.
0.608002 0.0350109 0.
0.610001 0.0350124 0.
0.612001 0.0350126 0.
0.614 0.0350113 0.
0.616 0.0350099 0.
0.618 0.0350098 0.
0.62 0.0350104 0.
0.622001 0.035011 0.
0.624 0.0350103 0.
0.626 0.0350095 0.
0.627999 0.0350089 0.
0.629999 0.0350095 0.
0.632 0.0350101 0.
0.634 0.0350102 0.
0.636 0.0350094 0.
0.638 0.0350086 0.
0.640001 0.0350083 0.
0.642001 0.0350083 0.
0.644001 0.0350084 0.
0.646001 0.0350082 0.
0.648001 0.035008 0.
0.650001 0.0350078 0.
0.652001 0.0350067 0.
0.654002 0.0350056 0.
0.656002 0.0350048 0.
0.658003 0.0350048 0.
0.660003 0.0350049 0.
0.662004 0.0350047 0.
0.664004 0.0350045 0.
0.666004 0.0350042 0.
0.668004 0.0350039 0.
0.670005 0.0350037 0.
0.672005 0.0350035 0.
0.674006 0.0350027 0.
0.676007 0.0350019 0.
0.678008 0.0350011 0.
0.680008 0.0350007 0.
0.682009 0.0350003 0.
0.68401 0.035 0.
0.68601 0.0349998 0.
0.68801 0.0349996 0.
0.690011 0.0349997 0.
0.692011 0.0349999 0.
0.694012 0.0350001 0.
0.696013 0.0350004 0.
0.698014 0.0350009 0.
0.499985 0.0370033 0.
0.501986 0.037003 0.
0.503987 0.0370029 0.
0.505988 0.0370028 0.
0.507989 0.037003 0.
0.50999 0.0370031 0.
0.511991 0.037003 0.
0.513992 0.0370028 0.
0.515993 0.0370025 0.
0.517994 0.0370026 0.
0.519994 0.0370028 0.
0.521995 0.0370031 0.
0.523996 0.0370034 0.
0.525997 0.0370037 0.
0.527997 0.0370041 0.
0.529998 0.0370047 0.
0.531998 0.0370052 0.
0.533998 0.0370056 0.
0.535999 0.0370057 0.
0.538 0.0370058 0.
0.54 0.0370058 0.
0.542 0.0370059 0.
0.543999 0.0370059 0.
0.546 0.0370063 0.
0.548 0.0370069 0.
0.550001 0.0370075 0.
0.552001 0.0370082 0.
0.554001 0.0370089 0.
0.556001 0.0370095 0.
0.558 0.0370099 0.
0.56 0.0370102 0.
0.562 0.0370104 0.
0.564001 0.0370102 0.
0.566001 0.0370101 0.
0.568001 0.0370102 0.
0.570001 0.0370104 0.
0.572001 0.0370106 0.
0.574001 0.0370108 0.
0.576 0.037011 0.
0.578 0.0370112 0.
0.58 0.0370108 0.
0.582 0.0370104 0.
0.584 0.0370102 0.
0.585999 0.0370101 0.
0.587999 0.0370101 0.
0.589999 0.0370103 0.
0.591999 0.0370106 0.
0.593999 0.0370109 0.
0.596 0.0370105 0.
0.598 0.0370098 0.
0.600001 0.0370091 0.
0.602001 0.0370092 0.
0.604002 0.0370092 0.
0.606002 0.0370095 0.
0.608002 0.0370107 0.
0.610001 0.0370118 0.
0.612001 0.037012 0.
0.614001 0.0370109 0.
0.616 0.0370098 0.
0.618001 0.0370098 0.
0.620001 0.0370103 0.
0.622001 0.0370108 0.
0.624001 0.0370102 0.
0.626 0.0370094 0.
0.628 0.0370088 0.
0.63 0.0370093 0.
0.632 0.0370099 0.
0.634001 0.03701 0.
0.636001 0.0370094 0.
0.638001 0.0370087 0.
0.640001 0.0370085 0.
0.642002 0.0370085 0.
0.644002 0.0370084 0.
0.646002 0.0370081 0.
0.648002 0.0370077 0.
0.650002 0.0370072 0.
0.652002 0.0370065 0.
0.654002 0.0370058 0.
0.656002 0.0370053 0.
0.658003 0.037005 0.
0.660003 0.0370048 0.
0.662003 0.0370045 0.
0.664003 0.0370042 0.
0.666004 0.0370039 0.
0.668004 0.0370036 0.
0.670005 0.0370034 0.
0.672006 0.0370032 0.
0.674006 0.0370026 0.
0.676006 0.037002 0.
0.678007 0.0370013 0.
0.680008 0.0370008 0.
0.682009 0.0370003 0.
0.68401 0.0369999 0.
0.68601 0.0369998 0.
0.68801 0.0369997 0.
0.690011 0.0369997 0.
0.692011 0.0369997 0.
0.694012 0.0369997 0.
0.696012 0.0370001 0.
0.698013 0.0370006 0.
0.499985 0.0390032 0.
0.501987 0.0390029 0.
0.503988 0.0390028 0.
0.505989 0.0390027 0.
0.50799 0.0390028 0.
0.509991 0.0390028 0.
0.511991 0.0390028 0.
0.513992 0.0390025 0.
0.515993 0.0390023 0.
0.517994 0.0390024 0.
0.519994 0.0390026 0.
0.521995 0.0390029 0.
0.523996 0.039003 0.
0.525997 0.0390031 0.
0.527998 0.0390034 0.
0.529998 0.0390044 0.
0.531999 0.0390055 0.
0.533999 0.0390061 0.
0.536 0.0390058 0.
0.538 0.0390055 0.
0.54 0.0390055 0.
0.542 0.0390056 0.
0.544 0.0390057 0.
0.546 0.0390061 0.
0.548 0.0390067 0.
0.55 0.0390072 0.
0.552 0.039008 0.
0.554 0.0390088 0.
0.556 0.0390095 0.
0.558 0.0390096 0.
0.56 0.0390097 0.
0.562 0.0390099 0.
0.564001 0.0390103 0.
0.566001 0.0390107 0.
0.568001 0.0390107 0.
0.570001 0.0390106 0.
0.572001 0.0390105 0.
0.574001 0.0390107 0.
0.576 0.0390109 0.
0.578 0.0390111 0.
0.58 0.0390107 0.
0.582 0.0390104 0.
0.584 0.0390102 0.
0.586 0.0390102 0.
0.587999 0.0390103 0.
0.589999 0.0390103 0.
0.591999 0.0390103 0.
0.593999 0.0390103 0.
0.596 0.0390099 0.
0.598 0.0390094 0.
0.600001 0.0390089 0.
0.602001 0.039009 0.
0.604001 0.0390092 0.
0.606001 0.0390096 0.
0.608001 0.0390104 0.
0.610001 0.0390112 0.
0.612001 0.0390113 0.
0.614001 0.0390105 0.
0.616001 0.0390097 0.
0.618001 0.0390098 0.
0.620001 0.0390102 0.
0.622001 0.0390106 0.
0.624001 0.03901 0.
0.626001 0.0390093 0.
0.628 0.0390088 0.
0.630001 0.0390092 0.
0.632001 0.0390096 0.
0.634001 0.0390098 0.
0.636001 0.0390093 0.
0.638001 0.0390089 0.
0.640002 0.0390087 0.
0.642002 0.0390086 0.
0.644003 0.0390085 0.
0.646003 0.039008 0.
0.648003 0.0390074 0.
0.650003 0.0390067 0.
0.652003 0.0390064 0.
0.654003 0.0390061 0.
0.656002 0.0390057 0.
0.658003 0.0390052 0.
0.660003 0.0390048 0.
0.662003 0.0390043 0.
0.664003 0.0390039 0.
0.666003 0.0390035 0.
0.668004 0.0390032 0.
0.670005 0.0390031 0.
0.672006 0.0390029 0.
0.674006 0.0390025 0.
0.676006 0.039002 0.
0.678006 0.0390015 0.
0.680007 0.0390008 0.
0.682008 0.0390002 0.
0.684009 0.0389997 0.
0.68601 0.0389998 0.
0.68801 0.0389999 0.
0.690011 0.0389998 0.
0.692011 0.0389996 0.
0.694011 0.0389994 0.
0.696012 0.0389998 0.
0.698012 0.0390004 0.
0.499986 0.0410033 0.
0.501987 0.0410028 0.
0.503989 0.0410023 0.
0.50599 0.041002 0.
0.50799 0.0410022 0.
0.509991 0.0410024 0.
0.511992 0.0410024 0.
0.513993 0.0410021 0.
0.515993 0.0410019 0.
0.517994 0.041002 0.
0.519995 0.0410022 0.
0.521995 0.0410025 0.
0.523996 0.0410026 0.
0.525997 0.0410026 0.
0.527998 0.0410028 0.
0.529998 0.041004 0.
0.531999 0.0410052 0.
0.534 0.0410059 0.
0.536 0.0410054 0.
0.538 0.041005 0.
0.54 0.041005 0.
0.542 0.0410054 0.
0.544 0.0410057 0.
0.546 0.0410061 0.
0.548 0.0410065 0.
0.55 0.0410069 0.
0.552 0.0410078 0.
0.554 0.0410087 0.
0.556 0.0410094 0.
0.558 0.0410094 0.
0.56 0.0410093 0.
0.562 0.0410096 0.
0.564001 0.0410102 0.
0.566001 0.0410107 0.
0.568001 0.0410108 0.
0.570001 0.0410106 0.
0.572001 0.0410104 0.
0.574001 0.0410105 0.
0.576 0.0410106 0.
0.578 0.0410107 0.
0.58 0.0410105 0.
0.582 0.0410102 0.
0.584 0.0410101 0.
0.586 0.0410103 0.
0.587999 0.0410105 0.
0.589999 0.0410104 0.
0.591999 0.0410101 0.
0.593999 0.0410097 0.
0.596 0.0410094 0.
0.598 0.041009 0.
0.600001 0.0410086 0.
0.602001 0.041009 0.
0.604001 0.0410094 0.
0.606001 0.0410098 0.
0.608001 0.0410102 0.
0.610001 0.0410107 0.
0.612001 0.0410107 0.
0.614001 0.0410103 0.
0.616001 0.0410098 0.
0.618001 0.0410099 0.
0.620001 0.0410101 0.
0.622001 0.0410104 0.
0.624001 0.0410099 0.
0.626001 0.0410092 0.
0.628001 0.0410087 0.
0.630001 0.041009 0.
0.632002 0.0410094 0.
0.634002 0.0410095 0.
0.636002 0.0410091 0.
0.638002 0.0410088 0.
0.640002 0.0410085 0.
0.642003 0.0410083 0.
0.644003 0.0410081 0.
0.646003 0.0410075 0.
0.648003 0.0410068 0.
0.650003 0.0410061 0.
0.652003 0.0410061 0.
0.654003 0.0410061 0.
0.656003 0.0410059 0.
0.658003 0.0410053 0.
0.660003 0.0410046 0.
0.662003 0.041004 0.
0.664003 0.0410035 0.
0.666004 0.041003 0.
0.668004 0.0410027 0.
0.670005 0.0410027 0.
0.672005 0.0410026 0.
0.674005 0.0410021 0.
0.676006 0.0410017 0.
0.678006 0.0410011 0.
0.680007 0.0410006 0.
0.682008 0.0410001 0.
0.684008 0.0409997 0.
0.686009 0.0409997 0.
0.68801 0.0409997 0.
0.69001 0.0409996 0.
0.69201 0.0409993 0.
0.694011 0.0409991 0.
0.696011 0.0409997 0.
0.698012 0.0410006 0.
0.499988 0.0430035 0.
0.501989 0.0430026 0.
0.503989 0.0430016 0.
0.50599 0.0430009 0.
0.507991 0.0430014 0.
0.509992 0.0430018 0.
0.511992 0.0430019 0.
0.513993 0.0430015 0.
0.515994 0.0430012 0.
0.517994 0.0430013 0.
0.519995 0.0430016 0.
0.521996 0.0430019 0.
0.523996 0.0430021 0.
0.525997 0.0430022 0.
0.527997 0.0430024 0.
0.529998 0.0430035 0.
0.531999 0.0430045 0.
0.533999 0.0430051 0.
0.536 0.0430046 0.
0.538 0.0430042 0.
0.540001 0.0430044 0.
0.542001 0.0430053 0.
0.544001 0.0430061 0.
0.546 0.0430064 0.
0.548 0.0430065 0.
0.55 0.0430066 0.
0.552 0.0430076 0.
0.554001 0.0430085 0.
0.556001 0.0430092 0.
0.558001 0.0430092 0.
0.560001 0.0430092 0.
0.562001 0.0430093 0.
0.564001 0.0430098 0.
0.566001 0.0430103 0.
0.568002 0.0430104 0.
0.570002 0.0430103 0.
0.572002 0.0430102 0.
0.574001 0.0430102 0.
0.576 0.0430101 0.
0.578 0.0430101 0.
0.58 0.04301 0.
0.582 0.04301 0.
0.584 0.0430101 0.
0.586 0.0430104 0.
0.587999 0.0430108 0.
0.589999 0.0430106 0.
0.592 0.0430099 0.
0.594 0.0430092 0.
0.596 0.0430089 0.
0.598 0.0430086 0.
0.6 0.0430083 0.
0.602001 0.043009 0.
0.604001 0.0430096 0.
0.606001 0.0430101 0.
0.608001 0.0430102 0.
0.610002 0.0430103 0.
0.612002 0.0430103 0.
0.614001 0.0430102 0.
0.616001 0.0430101 0.
0.618001 0.0430102 0.
0.620001 0.0430102 0.
0.622001 0.0430102 0.
0.624001 0.0430097 0.
0.626001 0.0430091 0.
0.628001 0.0430087 0.
0.630001 0.0430089 0.
0.632002 0.043009 0.
0.634002 0.043009 0.
0.636002 0.0430087 0.
0.638002 0.0430084 0.
0.640002 0.043008 0.
0.642002 0.0430076 0.
0.644002 0.0430071 0.
0.646003 0.0430066 0.
0.648003 0.0430061 0.
0.650003 0.0430055 0.
0.652003 0.0430057 0.
0.654003 0.0430059 0.
0.656003 0.0430058 0.
0.658003 0.0430051 0.
0.660003 0.0430044 0.
0.662003 0.0430037 0.
0.664004 0.0430029 0.
0.666004 0.0430022 0.
0.668004 0.043002 0.
0.670004 0.0430021 0.
0.672005 0.0430023 0.
0.674005 0.0430016 0.
0.676005 0.0430009 0.
0.678006 0.0430002 0.
0.680006 0.0430001 0.
0.682007 0.043 0.
0.684008 0.0429999 0.
0.686008 0.0429996 0.
0.688009 0.0429994 0.
0.690009 0.0429992 0.
0.69201 0.0429991 0.
0.69401 0.042999 0.
0.696011 0.0429999 0.
0.698012 0.0430012 0.
0.49999 0.0450038 0.
0.50199 0.0450023 0.
0.50399 0.0450008 0.
0.505991 0.0449998 0.
0.507992 0.0450005 0.
0.509992 0.0450011 0.
0.511993 0.0450013 0.
0.513993 0.0450009 0.
0.515994 0.0450005 0.
0.517995 0.0450006 0.
0.519995 0.045001 0.
0.521996 0.0450014 0.
0.523996 0.0450016 0.
0.525997 0.0450018 0.
0.527997 0.045002 0.
0.529998 0.0450029 0.
0.531998 0.0450038 0.
0.533999 0.0450043 0.
0.536 0.0450038 0.
0.538001 0.0450034 0.
0.540001 0.0450039 0.
0.542001 0.0450052 0.
0.544001 0.0450064 0.
0.546001 0.0450066 0.
0.548001 0.0450064 0.
0.550001 0.0450062 0.
0.552001 0.0450073 0.
0.554001 0.0450083 0.
0.556001 0.0450091 0.
0.558001 0.045009 0.
0.560002 0.045009 0.
0.562002 0.0450091 0.
0.564002 0.0450095 0.
0.566002 0.0450099 0.
0.568002 0.04501 0.
0.570002 0.04501 0.
0.572003 0.04501 0.
0.574002 0.0450098 0.
0.576001 0.0450096 0.
0.578 0.0450094 0.
0.58 0.0450096 0.
0.582 0.0450097 0.
0.584 0.04501 0.
0.586 0.0450106 0.
0.588 0.0450111 0.
0.59 0.0450108 0.
0.592 0.0450098 0.
0.594 0.0450087 0.
0.596 0.0450084 0.
0.598 0.0450082 0.
0.6 0.045008 0.
0.602001 0.0450089 0.
0.604001 0.0450099 0.
0.606001 0.0450105 0.
0.608002 0.0450102 0.
0.610002 0.0450099 0.
0.612002 0.0450099 0.
0.614002 0.0450101 0.
0.616001 0.0450104 0.
0.618001 0.0450104 0.
0.620001 0.0450102 0.
0.622001 0.04501 0.
0.624001 0.0450095 0.
0.626 0.0450091 0.
0.628 0.0450087 0.
0.630001 0.0450087 0.
0.632002 0.0450087 0.
0.634002 0.0450086 0.
0.636002 0.0450083 0.
0.638002 0.045008 0.
0.640002 0.0450075 0.
0.642002 0.0450068 0.
0.644002 0.0450062 0.
0.646002 0.0450057 0.
0.648002 0.0450053 0.
0.650003 0.0450049 0.
0.652003 0.0450053 0.
0.654002 0.0450056 0.
0.656003 0.0450057 0.
0.658003 0.045005 0.
0.660003 0.0450042 0.
0.662004 0.0450033 0.
0.664004 0.0450024 0.
0.666004 0.0450014 0.
0.668004 0.0450013 0.
0.670004 0.0450016 0.
0.672004 0.0450019 0.
0.674004 0.0450011 0.
0.676005 0.045 0.
0.678005 0.0449992 0.
0.680006 0.0449996 0.
0.682007 0.045 0.
0.684007 0.0450001 0.
0.686008 0.0449995 0.
0.688008 0.044999 0.
0.690008 0.0449988 0.
0.692009 0.0449988 0.
0.69401 0.0449988 0.
0.696011 0.0450002 0.
0.698012 0.0450018 0.
0.499989 0.0470037 0.
0.50199 0.0470022 0.
0.503991 0.0470007 0.
0.505992 0.0469996 0.
0.507992 0.047 0.
0.509993 0.0470003 0.
0.511993 0.0470006 0.
0.513994 0.0470007 0.
0.515995 0.0470008 0.
0.517996 0.0470009 0.
0.519996 0.0470011 0.
0.521997 0.0470012 0.
0.523997 0.0470013 0.
0.525997 0.0470013 0.
0.527998 0.0470014 0.
0.529998 0.0470022 0.
0.531999 0.0470031 0.
0.533999 0.0470036 0.
0.536 0.0470035 0.
0.538001 0.0470035 0.
0.540001 0.0470039 0.
0.542001 0.0470049 0.
0.544002 0.0470058 0.
0.546002 0.047006 0.
0.548002 0.0470061 0.
0.550002 0.0470062 0.
0.552002 0.047007 0.
0.554001 0.0470078 0.
0.556001 0.0470084 0.
0.558001 0.0470087 0.
0.560001 0.047009 0.
0.562001 0.0470092 0.
0.564002 0.0470093 0.
0.566002 0.0470093 0.
0.568002 0.0470095 0.
0.570002 0.0470098 0.
0.572002 0.04701 0.
0.574002 0.0470098 0.
0.576001 0.0470096 0.
0.578001 0.0470095 0.
0.58 0.0470097 0.
0.582 0.04701 0.
0.584 0.0470102 0.
0.586 0.0470104 0.
0.588 0.0470106 0.
0.59 0.0470102 0.
0.592 0.0470093 0.
0.594001 0.0470084 0.
0.596001 0.0470082 0.
0.598001 0.0470082 0.
0.6 0.0470083 0.
0.602001 0.0470091 0.
0.604001 0.0470099 0.
0.606001 0.0470104 0.
0.608001 0.0470101 0.
0.610002 0.0470097 0.
0.612002 0.0470096 0.
0.614001 0.0470098 0.
0.616001 0.04701 0.
0.618001 0.0470101 0.
0.620001 0.04701 0.
0.622001 0.0470099 0.
0.624001 0.0470093 0.
0.626 0.0470086 0.
0.628 0.047008 0.
0.63 0.0470079 0.
0.632001 0.0470079 0.
0.634001 0.0470078 0.
0.636001 0.0470076 0.
0.638001 0.0470074 0.
0.640001 0.0470072 0.
0.642002 0.0470069 0.
0.644002 0.0470066 0.
0.646002 0.0470061 0.
0.648002 0.0470055 0.
0.650002 0.0470049 0.
0.652002 0.0470051 0.
0.654002 0.0470054 0.
0.656002 0.0470054 0.
0.658002 0.0470047 0.
0.660003 0.0470039 0.
0.662003 0.0470032 0.
0.664003 0.0470024 0.
0.666004 0.0470017 0.
0.668004 0.0470015 0.
0.670004 0.0470016 0.
0.672004 0.0470018 0.
0.674004 0.0470008 0.
0.676005 0.0469997 0.
0.678005 0.0469987 0.
0.680006 0.0469989 0.
0.682006 0.0469991 0.
0.684007 0.0469991 0.
0.686007 0.046999 0.
0.688008 0.046999 0.
0.690008 0.0469989 0.
0.692009 0.0469989 0.
0.694009 0.0469988 0.
0.69601 0.0469998 0.
0.698011 0.0470011 0.
0.499989 0.0490037 0.
0.50199 0.049002 0.
0.503991 0.0490005 0.
0.505992 0.0489993 0.
0.507993 0.0489995 0.
0.509993 0.0489996 0.
0.511994 0.0489999 0.
0.513995 0.0490004 0.
0.515996 0.049001 0.
0.517996 0.0490012 0.
0.519997 0.0490011 0.
0.521997 0.0490011 0.
0.523998 0.049001 0.
0.525998 0.0490008 0.
0.527998 0.0490007 0.
0.529999 0.0490015 0.
0.531999 0.0490023 0.
0.534 0.049003 0.
0.536 0.0490032 0.
0.538001 0.0490035 0.
0.540001 0.049004 0.
0.542002 0.0490046 0.
0.544002 0.0490052 0.
0.546002 0.0490055 0.
0.548003 0.0490058 0.
0.550003 0.0490061 0.
0.552002 0.0490066 0.
0.554002 0.0490072 0.
0.556001 0.0490078 0.
0.558001 0.0490084 0.
0.560001 0.0490091 0.
0.562001 0.0490093 0.
0.564002 0.0490091 0.
0.566002 0.0490088 0.
0.568002 0.0490091 0.
0.570002 0.0490095 0.
0.572002 0.04901 0.
0.574002 0.0490099 0.
0.576002 0.0490097 0.
0.578001 0.0490095 0.
0.580001 0.0490099 0.
0.582001 0.0490102 0.
0.584001 0.0490104 0.
0.586001 0.0490102 0.
0.588001 0.04901 0.
0.590001 0.0490096 0.
0.592001 0.0490088 0.
0.594001 0.0490081 0.
0.596001 0.0490081 0.
0.598001 0.0490083 0.
0.600001 0.0490085 0.
0.602 0.0490092 0.
0.604 0.0490099 0.
0.606 0.0490103 0.
0.608001 0.0490099 0.
0.610001 0.0490095 0.
0.612001 0.0490093 0.
0.614001 0.0490095 0.
0.616001 0.0490096 0.
0.618001 0.0490097 0.
0.620001 0.0490098 0.
0.622001 0.0490099 0.
0.624001 0.0490091 0.
0.626 0.0490081 0.
0.628 0.0490073 0.
0.63 0.0490072 0.
0.632 0.0490071 0.
0.634 0.049007 0.
0.636 0.0490069 0.
0.638 0.0490068 0.
0.640001 0.0490068 0.
0.642001 0.0490069 0.
0.644002 0.049007 0.
0.646002 0.0490064 0.
0.648001 0.0490056 0.
0.650001 0.0490048 0.
0.652001 0.049005 0.
0.654001 0.0490051 0.
0.656002 0.049005 0.
0.658002 0.0490043 0.
0.660002 0.0490036 0.
0.662002 0.049003 0.
0.664003 0.0490025 0.
0.666003 0.049002 0.
0.668004 0.0490017 0.
0.670004 0.0490016 0.
0.672004 0.0490016 0.
0.674004 0.0490005 0.
0.676005 0.0489993 0.
0.678005 0.0489982 0.
0.680005 0.0489982 0.
0.682006 0.0489981 0.
0.684006 0.0489982 0.
0.686007 0.0489986 0.
0.688008 0.0489989 0.
0.690008 0.048999 0.
0.692008 0.0489989 0.
0.694008 0.0489988 0.
0.696009 0.0489995 0.
0.69801 0.0490004 0.
0.499989 0.0510032 0.
0.50199 0.0510016 0.
0.503992 0.0510002 0.
0.505993 0.0509992 0.
0.507993 0.0509993 0.
0.509993 0.0509993 0.
0.511994 0.0509996 0.
0.513995 0.0510002 0.
0.515996 0.0510009 0.
0.517997 0.051001 0.
0.519997 0.051001 0.
0.521998 0.0510009 0.
0.523998 0.0510007 0.
0.525998 0.0510006 0.
0.527999 0.0510005 0.
0.529999 0.0510013 0.
0.532 0.0510021 0.
0.534 0.0510028 0.
0.536001 0.0510032 0.
0.538001 0.0510036 0.
0.540002 0.051004 0.
0.542002 0.0510043 0.
0.544003 0.0510046 0.
0.546003 0.0510051 0.
0.548003 0.0510056 0.
0.550003 0.0510061 0.
0.552003 0.0510065 0.
0.554002 0.051007 0.
0.556002 0.0510075 0.
0.558001 0.0510082 0.
0.560001 0.0510089 0.
0.562002 0.0510091 0.
0.564002 0.0510088 0.
0.566002 0.0510085 0.
0.568002 0.0510086 0.
0.570002 0.0510091 0.
0.572002 0.0510095 0.
0.574002 0.0510095 0.
0.576002 0.0510096 0.
0.578002 0.0510096 0.
0.580002 0.05101 0.
0.582001 0.0510103 0.
0.584001 0.0510104 0.
0.586001 0.05101 0.
0.588001 0.0510096 0.
0.590001 0.0510092 0.
0.592001 0.0510087 0.
0.594002 0.0510081 0.
0.596001 0.0510082 0.
0.598001 0.0510084 0.
0.600001 0.0510087 0.
0.602 0.0510092 0.
0.604 0.0510096 0.
0.606 0.0510099 0.
0.608 0.0510096 0.
0.610001 0.0510093 0.
0.612001 0.0510092 0.
0.614001 0.0510093 0.
0.616001 0.0510094 0.
0.618001 0.0510096 0.
0.620001 0.0510098 0.
0.622001 0.0510101 0.
0.624 0.0510091 0.
0.626 0.051008 0.
0.627999 0.051007 0.
0.629999 0.0510069 0.
0.631999 0.0510068 0.
0.633999 0.0510067 0.
0.635999 0.0510066 0.
0.638 0.0510064 0.
0.64 0.0510065 0.
0.642001 0.0510067 0.
0.644002 0.051007 0.
0.646002 0.0510064 0.
0.648001 0.0510057 0.
0.65 0.051005 0.
0.652001 0.0510049 0.
0.654001 0.0510048 0.
0.656001 0.0510046 0.
0.658001 0.0510039 0.
0.660002 0.0510033 0.
0.662002 0.0510027 0.
0.664002 0.0510022 0.
0.666003 0.0510018 0.
0.668003 0.0510015 0.
0.670004 0.0510013 0.
0.672004 0.0510011 0.
0.674004 0.0510001 0.
0.676004 0.0509991 0.
0.678004 0.0509981 0.
0.680005 0.0509979 0.
0.682005 0.0509977 0.
0.684006 0.0509977 0.
0.686006 0.0509981 0.
0.688007 0.0509985 0.
0.690008 0.0509987 0.
0.692008 0.0509988 0.
0.694008 0.0509988 0.
0.696009 0.0509993 0.
0.698009 0.0509999 0.
0.49999 0.0530022 0.
0.501991 0.0530009 0.
0.503992 0.053 0.
0.505993 0.0529992 0.
0.507993 0.0529994 0.
0.509994 0.0529996 0.
0.511995 0.0529998 0.
0.513996 0.0530001 0.
0.515997 0.0530003 0.
0.517997 0.0530005 0.
0.519998 0.0530006 0.
0.521999 0.0530007 0.
0.523999 0.0530006 0.
0.525999 0.0530006 0.
0.528 0.0530007 0.
0.53 0.0530016 0.
0.532 0.0530025 0.
0.534 0.0530032 0.
0.536001 0.0530035 0.
0.538001 0.0530038 0.
0.540002 0.0530039 0.
0.542002 0.053004 0.
0.544003 0.0530041 0.
0.546003 0.0530047 0.
0.548003 0.0530054 0.
0.550003 0.0530061 0.
0.552003 0.0530066 0.
0.554002 0.0530072 0.
0.556002 0.0530077 0.
0.558002 0.0530081 0.
0.560003 0.0530085 0.
0.562003 0.0530087 0.
0.564003 0.0530085 0.
0.566003 0.0530083 0.
0.568002 0.0530083 0.
0.570002 0.0530083 0.
0.572002 0.0530084 0.
0.574002 0.0530089 0.
0.576002 0.0530094 0.
0.578003 0.0530099 0.
0.580002 0.0530101 0.
0.582002 0.0530103 0.
0.584002 0.0530103 0.
0.586001 0.0530098 0.
0.588001 0.0530094 0.
0.590001 0.053009 0.
0.592002 0.0530088 0.
0.594002 0.0530085 0.
0.596001 0.0530086 0.
0.598001 0.0530088 0.
0.600001 0.0530089 0.
0.602001 0.053009 0.
0.604 0.0530091 0.
0.606 0.0530092 0.
0.608 0.0530092 0.
0.61 0.0530092 0.
0.612 0.0530092 0.
0.614 0.0530093 0.
0.616 0.0530094 0.
0.618 0.0530097 0.
0.62 0.0530101 0.
0.622 0.0530105 0.
0.624 0.0530094 0.
0.625999 0.0530082 0.
0.627998 0.0530071 0.
0.629999 0.0530071 0.
0.631999 0.0530071 0.
0.633999 0.053007 0.
0.635999 0.0530066 0.
0.637999 0.0530061 0.
0.64 0.0530061 0.
0.642001 0.0530062 0.
0.644001 0.0530064 0.
0.646001 0.0530061 0.
0.648 0.0530057 0.
0.65 0.0530053 0.
0.652 0.0530049 0.
0.654 0.0530045 0.
0.656001 0.0530041 0.
0.658001 0.0530034 0.
0.660001 0.0530028 0.
0.662002 0.0530022 0.
0.664002 0.0530017 0.
0.666002 0.0530012 0.
0.668003 0.0530009 0.
0.670003 0.0530006 0.
0.672004 0.0530003 0.
0.674004 0.0529997 0.
0.676004 0.052999 0.
0.678004 0.0529984 0.
0.680004 0.0529981 0.
0.682005 0.0529979 0.
0.684005 0.0529977 0.
0.686006 0.0529977 0.
0.688006 0.0529978 0.
0.690007 0.052998 0.
0.692008 0.0529985 0.
0.694008 0.052999 0.
0.696009 0.0529992 0.
0.69801 0.0529995 0.
0.499991 0.0550012 0.
0.501992 0.0550003 0.
0.503992 0.0549997 0.
0.505993 0.0549993 0.
0.507994 0.0549996 0.
0.509994 0.0549998 0.
0.511995 0.055 0.
0.513996 0.0549999 0.
0.515997 0.0549998 0.
0.517998 0.0549999 0.
0.519998 0.0550002 0.
0.521999 0.0550004 0.
0.524 0.0550005 0.
0.526 0.0550007 0.
0.528 0.0550009 0.
0.53 0.0550019 0.
0.532 0.0550029 0.
0.534001 0.0550036 0.
0.536001 0.0550037 0.
0.538001 0.0550039 0.
0.540002 0.0550039 0.
0.542002 0.0550037 0.
0.544003 0.0550036 0.
0.546003 0.0550043 0.
0.548003 0.0550052 0.
0.550003 0.0550062 0.
0.552003 0.0550067 0.
0.554003 0.0550073 0.
0.556003 0.0550078 0.
0.558003 0.055008 0.
0.560004 0.0550082 0.
0.562004 0.0550082 0.
0.564003 0.0550081 0.
0.566003 0.0550081 0.
0.568002 0.0550079 0.
0.570002 0.0550076 0.
0.572002 0.0550074 0.
0.574002 0.0550082 0.
0.576003 0.0550092 0.
0.578003 0.0550101 0.
0.580003 0.0550102 0.
0.582002 0.0550103 0.
0.584002 0.0550102 0.
0.586002 0.0550096 0.
0.588002 0.0550091 0.
0.590002 0.0550089 0.
0.592002 0.0550089 0.
0.594002 0.0550089 0.
0.596002 0.055009 0.
0.598001 0.0550091 0.
0.600001 0.0550091 0.
0.602001 0.0550089 0.
0.604001 0.0550086 0.
0.606001 0.0550085 0.
0.608 0.0550088 0.
0.61 0.0550091 0.
0.611999 0.0550093 0.
0.614 0.0550093 0.
0.616 0.0550094 0.
0.618 0.0550097 0.
0.62 0.0550103 0.
0.621999 0.0550109 0.
0.623999 0.0550097 0.
0.625998 0.0550083 0.
0.627997 0.0550071 0.
0.629998 0.0550073 0.
0.631998 0.0550074 0.
0.633999 0.0550072 0.
0.635999 0.0550066 0.
0.637999 0.0550059 0.
0.64 0.0550056 0.
0.642 0.0550058 0.
0.644 0.0550059 0.
0.646 0.0550058 0.
0.648 0.0550057 0.
0.65 0.0550056 0.
0.652 0.0550049 0.
0.654 0.0550042 0.
0.656 0.0550036 0.
0.658 0.0550029 0.
0.660001 0.0550022 0.
0.662001 0.0550017 0.
0.664001 0.0550012 0.
0.666001 0.0550007 0.
0.668002 0.0550003 0.
0.670003 0.0549999 0.
0.672004 0.0549996 0.
0.674004 0.0549993 0.
0.676004 0.054999 0.
0.678004 0.0549987 0.
0.680004 0.0549984 0.
0.682004 0.054998 0.
0.684004 0.0549977 0.
0.686005 0.0549973 0.
0.688005 0.054997 0.
0.690006 0.0549973 0.
0.692007 0.0549982 0.
0.694009 0.0549991 0.
0.69601 0.0549992 0.
0.698011 0.054999 0.
0.499993 0.0570011 0.
0.501993 0.0570003 0.
0.503994 0.0569993 0.
0.505994 0.0569986 0.
0.507995 0.0569987 0.
0.509995 0.0569988 0.
0.511996 0.0569989 0.
0.513997 0.056999 0.
0.515997 0.0569991 0.
0.517998 0.0569993 0.
0.519999 0.0569995 0.
0.522 0.0569997 0.
0.524 0.0570002 0.
0.526001 0.0570007 0.
0.528001 0.0570012 0.
0.530001 0.0570019 0.
0.532001 0.0570027 0.
0.534001 0.0570032 0.
0.536001 0.0570032 0.
0.538002 0.0570031 0.
0.540002 0.0570032 0.
0.542003 0.0570033 0.
0.544003 0.0570035 0.
0.546003 0.0570044 0.
0.548003 0.0570054 0.
0.550003 0.0570065 0.
0.552003 0.0570069 0.
0.554003 0.0570074 0.
0.556003 0.0570078 0.
0.558003 0.0570079 0.
0.560004 0.0570079 0.
0.562004 0.0570081 0.
0.564003 0.0570083 0.
0.566003 0.0570085 0.
0.568003 0.0570084 0.
0.570003 0.0570081 0.
0.572002 0.0570079 0.
0.574003 0.0570087 0.
0.576003 0.0570096 0.
0.578003 0.0570104 0.
0.580003 0.0570103 0.
0.582002 0.0570103 0.
0.584002 0.0570101 0.
0.586002 0.0570097 0.
0.588001 0.0570094 0.
0.590001 0.0570092 0.
0.592001 0.0570092 0.
0.594002 0.0570092 0.
0.596001 0.0570093 0.
0.598001 0.0570093 0.
0.600001 0.0570094 0.
0.602001 0.0570092 0.
0.604001 0.0570091 0.
0.606001 0.057009 0.
0.608001 0.057009 0.
0.61 0.0570089 0.
0.612 0.057009 0.
0.614 0.0570092 0.
0.616 0.0570094 0.
0.618 0.0570097 0.
0.62 0.0570102 0.
0.622 0.0570106 0.
0.623999 0.0570097 0.
0.625998 0.0570086 0.
0.627998 0.0570076 0.
0.629998 0.0570075 0.
0.631998 0.0570074 0.
0.633998 0.0570071 0.
0.635999 0.0570063 0.
0.637999 0.0570055 0.
0.639999 0.0570054 0.
0.642 0.0570057 0.
0.644 0.057006 0.
0.646 0.0570058 0.
0.648 0.0570054 0.
0.649999 0.0570051 0.
0.651999 0.0570044 0.
0.653999 0.0570037 0.
0.655999 0.057003 0.
0.658 0.0570024 0.
0.66 0.0570018 0.
0.662001 0.0570013 0.
0.664001 0.0570009 0.
0.666001 0.0570005 0.
0.668002 0.0570001 0.
0.670002 0.0569996 0.
0.672003 0.0569992 0.
0.674003 0.0569988 0.
0.676003 0.0569985 0.
0.678003 0.0569981 0.
0.680004 0.0569978 0.
0.682004 0.0569974 0.
0.684004 0.0569971 0.
0.686005 0.0569969 0.
0.688005 0.0569967 0.
0.690006 0.0569969 0.
0.692007 0.0569975 0.
0.694007 0.0569981 0.
0.696009 0.0569983 0.
0.69801 0.0569984 0.
0.499994 0.0590011 0.
0.501994 0.0590003 0.
0.503995 0.058999 0.
0.505995 0.058998 0.
0.507996 0.0589979 0.
0.509997 0.0589978 0.
0.511997 0.0589979 0.
0.513997 0.0589982 0.
0.515998 0.0589984 0.
0.517999 0.0589987 0.
0.52 0.0589989 0.
0.522001 0.0589991 0.
0.524001 0.0589998 0.
0.526001 0.0590006 0.
0.528001 0.0590014 0.
0.530001 0.059002 0.
0.532002 0.0590026 0.
0.534002 0.0590029 0.
0.536002 0.0590026 0.
0.538002 0.0590023 0.
0.540002 0.0590024 0.
0.542003 0.0590029 0.
0.544004 0.0590034 0.
0.546004 0.0590044 0.
0.548004 0.0590056 0.
0.550004 0.0590068 0.
0.552003 0.0590071 0.
0.554003 0.0590074 0.
0.556003 0.0590077 0.
0.558003 0.0590077 0.
0.560003 0.0590077 0.
0.562003 0.059008 0.
0.564004 0.0590085 0.
0.566004 0.059009 0.
0.568004 0.0590089 0.
0.570003 0.0590087 0.
0.572003 0.0590084 0.
0.574003 0.0590091 0.
0.576003 0.0590099 0.
0.578003 0.0590107 0.
0.580002 0.0590104 0.
0.582002 0.0590102 0.
0.584001 0.05901 0.
0.586001 0.0590098 0.
0.588001 0.0590096 0.
0.590001 0.0590096 0.
0.592001 0.0590096 0.
0.594001 0.0590096 0.
0.596001 0.0590096 0.
0.598001 0.0590096 0.
0.600001 0.0590096 0.
0.602001 0.0590096 0.
0.604001 0.0590096 0.
0.606001 0.0590095 0.
0.608001 0.0590091 0.
0.610001 0.0590087 0.
0.612001 0.0590086 0.
0.614 0.059009 0.
0.616 0.0590094 0.
0.618 0.0590097 0.
0.62 0.0590101 0.
0.622 0.0590104 0.
0.623999 0.0590097 0.
0.625999 0.0590088 0.
0.627998 0.059008 0.
0.629998 0.0590077 0.
0.631998 0.0590074 0.
0.633998 0.059007 0.
0.635998 0.0590061 0.
0.637999 0.0590052 0.
0.639999 0.0590051 0.
0.641999 0.0590055 0.
0.644 0.059006 0.
0.645999 0.0590057 0.
0.647999 0.0590051 0.
0.649999 0.0590046 0.
0.651999 0.0590039 0.
0.653999 0.0590031 0.
0.655999 0.0590024 0.
0.657999 0.059002 0.
0.659999 0.0590015 0.
0.662 0.059001 0.
0.664001 0.0590007 0.
0.666001 0.0590004 0.
0.668002 0.0589999 0.
0.670002 0.0589993 0.
0.672002 0.0589987 0.
0.674002 0.0589983 0.
0.676002 0.0589979 0.
0.678003 0.0589976 0.
0.680003 0.0589972 0.
0.682004 0.0589968 0.
0.684004 0.0589965 0.
0.686005 0.0589965 0.
0.688005 0.0589964 0.
0.690005 0.0589966 0.
0.692006 0.0589968 0.
0.694006 0.0589971 0.
0.696007 0.0589975 0.
0.698009 0.0589979 0.
0.499995 0.061001 0.
0.501996 0.061 0.
0.503996 0.0609988 0.
0.505996 0.0609978 0.
0.507997 0.0609975 0.
0.509998 0.0609973 0.
0.511998 0.0609973 0.
0.513998 0.0609976 0.
0.515999 0.0609978 0.
0.517999 0.0609981 0.
0.52 0.0609982 0.
0.522001 0.0609984 0.
0.524001 0.0609994 0.
0.526001 0.0610004 0.
0.528001 0.0610014 0.
0.530002 0.0610019 0.
0.532002 0.0610024 0.
0.534002 0.0610026 0.
0.536002 0.0610022 0.
0.538002 0.0610017 0.
0.540003 0.0610019 0.
0.542003 0.0610025 0.
0.544004 0.0610032 0.
0.546004 0.0610042 0.
0.548004 0.0610054 0.
0.550004 0.0610065 0.
0.552004 0.0610069 0.
0.554003 0.0610072 0.
0.556003 0.0610074 0.
0.558003 0.0610075 0.
0.560003 0.0610076 0.
0.562004 0.0610079 0.
0.564004 0.0610084 0.
0.566004 0.0610089 0.
0.568004 0.061009 0.
0.570004 0.0610088 0.
0.572004 0.0610086 0.
0.574003 0.0610094 0.
0.576003 0.0610103 0.
0.578003 0.061011 0.
0.580002 0.0610107 0.
0.582002 0.0610103 0.
0.584001 0.0610101 0.
0.586001 0.06101 0.
0.588001 0.0610099 0.
0.590001 0.0610099 0.
0.592001 0.0610098 0.
0.594001 0.0610098 0.
0.596001 0.0610098 0.
0.598001 0.0610099 0.
0.600001 0.0610099 0.
0.602001 0.0610099 0.
0.604001 0.0610099 0.
0.606001 0.0610098 0.
0.608001 0.0610092 0.
0.610001 0.0610087 0.
0.612001 0.0610086 0.
0.614 0.061009 0.
0.616 0.0610094 0.
0.618 0.0610097 0.
0.62 0.0610101 0.
0.621999 0.0610104 0.
0.623999 0.0610097 0.
0.625999 0.0610088 0.
0.627999 0.0610079 0.
0.629999 0.0610076 0.
0.631998 0.0610073 0.
0.633998 0.0610068 0.
0.635998 0.0610059 0.
0.637998 0.0610049 0.
0.639999 0.0610047 0.
0.641999 0.0610052 0.
0.643999 0.0610056 0.
0.645999 0.0610053 0.
0.647999 0.0610048 0.
0.649999 0.0610043 0.
0.651998 0.0610035 0.
0.653998 0.0610028 0.
0.655998 0.0610021 0.
0.657999 0.0610016 0.
0.659999 0.0610011 0.
0.662 0.0610007 0.
0.664 0.0610005 0.
0.666001 0.0610003 0.
0.668001 0.0609999 0.
0.670001 0.0609992 0.
0.672001 0.0609986 0.
0.674001 0.0609981 0.
0.676002 0.0609976 0.
0.678002 0.0609972 0.
0.680003 0.0609967 0.
0.682003 0.0609963 0.
0.684004 0.0609961 0.
0.686004 0.0609962 0.
0.688005 0.0609963 0.
0.690005 0.0609964 0.
0.692005 0.0609966 0.
0.694005 0.0609967 0.
0.696007 0.060997 0.
0.698008 0.0609974 0.
0.499997 0.0630004 0.
0.501997 0.0629995 0.
0.503997 0.0629987 0.
0.505998 0.062998 0.
0.507998 0.0629977 0.
0.509998 0.0629974 0.
0.511999 0.0629972 0.
0.513999 0.0629972 0.
0.516 0.0629973 0.
0.518 0.0629974 0.
0.520001 0.0629977 0.
0.522001 0.0629979 0.
0.524001 0.0629989 0.
0.526001 0.0630001 0.
0.528002 0.0630012 0.
0.530002 0.0630017 0.
0.532002 0.0630023 0.
0.534003 0.0630025 0.
0.536003 0.063002 0.
0.538003 0.0630015 0.
0.540004 0.0630016 0.
0.542004 0.0630022 0.
0.544004 0.0630028 0.
0.546004 0.0630037 0.
0.548004 0.0630046 0.
0.550004 0.0630056 0.
0.552004 0.0630061 0.
0.554004 0.0630066 0.
0.556004 0.063007 0.
0.558004 0.0630073 0.
0.560004 0.0630075 0.
0.562004 0.0630078 0.
0.564004 0.0630082 0.
0.566005 0.0630085 0.
0.568004 0.0630086 0.
0.570004 0.0630086 0.
0.572004 0.0630086 0.
0.574004 0.0630096 0.
0.576003 0.0630106 0.
0.578003 0.0630115 0.
0.580002 0.0630111 0.
0.582002 0.0630106 0.
0.584002 0.0630103 0.
0.586002 0.0630102 0.
0.588001 0.0630102 0.
0.590001 0.0630101 0.
0.592001 0.06301 0.
0.594001 0.0630099 0.
0.596001 0.06301 0.
0.598 0.0630102 0.
0.6 0.0630103 0.
0.602 0.0630101 0.
0.604001 0.0630099 0.
0.606001 0.0630097 0.
0.608 0.0630094 0.
0.61 0.0630091 0.
0.612 0.0630091 0.
0.614 0.0630093 0.
0.616 0.0630095 0.
0.617999 0.0630098 0.
0.619999 0.0630102 0.
0.621999 0.0630106 0.
0.623999 0.0630096 0.
0.625999 0.0630084 0.
0.627999 0.0630074 0.
0.629999 0.0630073 0.
0.631999 0.0630071 0.
0.633998 0.0630067 0.
0.635998 0.0630057 0.
0.637998 0.0630047 0.
0.639998 0.0630044 0.
0.641998 0.0630045 0.
0.643998 0.0630047 0.
0.645998 0.0630045 0.
0.647998 0.0630043 0.
0.649999 0.063004 0.
0.651999 0.0630033 0.
0.653998 0.0630026 0.
0.655998 0.0630018 0.
0.657999 0.0630013 0.
0.659999 0.0630008 0.
0.661999 0.0630005 0.
0.664 0.0630005 0.
0.666 0.0630004 0.
0.668 0.063 0.
0.67 0.0629993 0.
0.672 0.0629987 0.
0.674001 0.0629981 0.
0.676001 0.0629975 0.
0.678001 0.0629969 0.
0.680002 0.0629964 0.
0.682003 0.0629959 0.
0.684003 0.0629957 0.
0.686004 0.062996 0.
0.688004 0.0629963 0.
0.690004 0.0629965 0.
0.692005 0.0629966 0.
0.694005 0.0629967 0.
0.696006 0.0629968 0.
0.698007 0.0629969 0.
0.499999 0.0649994 0.
0.501999 0.0649991 0.
0.503999 0.0649985 0.
0.505999 0.0649981 0.
0.507999 0.0649978 0.
0.509999 0.0649974 0.
0.511999 0.0649971 0.
0.514 0.0649969 0.
0.516001 0.0649967 0.
0.518001 0.0649968 0.
0.520001 0.064997 0.
0.522001 0.0649973 0.
0.524001 0.0649984 0.
0.526001 0.0649997 0.
0.528002 0.0650009 0.
0.530002 0.0650015 0.
0.532003 0.0650022 0.
0.534003 0.0650024 0.
0.536004 0.0650018 0.
0.538004 0.0650013 0.
0.540004 0.0650013 0.
0.542004 0.0650019 0.
0.544004 0.0650025 0.
0.546004 0.0650032 0.
0.548004 0.0650039 0.
0.550005 0.0650047 0.
0.552004 0.0650054 0.
0.554004 0.065006 0.
0.556004 0.0650066 0.
0.558004 0.065007 0.
0.560005 0.0650075 0.
0.562005 0.0650078 0.
0.564005 0.0650079 0.
0.566005 0.065008 0.
0.568005 0.0650082 0.
0.570005 0.0650084 0.
0.572005 0.0650086 0.
0.574004 0.0650097 0.
0.576003 0.065011 0.
0.578002 0.065012 0.
0.580002 0.0650114 0.
0.582002 0.0650109 0.
0.584002 0.0650105 0.
0.586002 0.0650105 0.
0.588002 0.0650105 0.
0.590001 0.0650104 0.
0.592001 0.0650102 0.
0.594001 0.0650101 0.
0.596 0.0650102 0.
0.598 0.0650105 0.
0.6 0.0650107 0.
0.602 0.0650103 0.
0.604 0.0650099 0.
0.606 0.0650096 0.
0.608 0.0650096 0.
0.609999 0.0650095 0.
0.611999 0.0650095 0.
0.613999 0.0650095 0.
0.615999 0.0650096 0.
0.617999 0.0650099 0.
0.619999 0.0650104 0.
0.621998 0.0650108 0.
0.623999 0.0650096 0.
0.625999 0.0650081 0.
0.628 0.0650068 0.
0.629999 0.0650069 0.
0.631999 0.0650069 0.
0.633999 0.0650066 0.
0.635998 0.0650056 0.
0.637998 0.0650046 0.
0.639998 0.065004 0.
0.641997 0.0650039 0.
0.643997 0.0650038 0.
0.645997 0.0650038 0.
0.647998 0.0650038 0.
0.649999 0.0650038 0.
0.651999 0.0650031 0.
0.653998 0.0650023 0.
0.655998 0.0650016 0.
0.657998 0.0650011 0.
0.659999 0.0650005 0.
0.661999 0.0650003 0.
0.663999 0.0650004 0.
0.665999 0.0650005 0.
0.667999 0.0650001 0.
0.67 0.0649995 0.
0.672 0.0649988 0.
0.674 0.0649981 0.
0.676 0.0649974 0.
0.678 0.0649966 0.
0.680001 0.0649961 0.
0.682002 0.0649956 0.
0.684002 0.0649954 0.
0.686003 0.0649959 0.
0.688003 0.0649964 0.
0.690004 0.0649966 0.
0.692004 0.0649967 0.
0.694005 0.0649968 0.
0.696005 0.0649966 0.
0.698006 0.0649964 0.
0.499999 0.0669994 0.
0.501999 0.0669988 0.
0.504 0.0669981 0.
0.506 0.0669976 0.
0.508 0.0669974 0.
0.51 0.0669971 0.
0.512 0.066997 0.
0.514001 0.0669969 0.
0.516001 0.0669968 0.
0.518002 0.0669968 0.
0.520001 0.0669968 0.
0.522001 0.0669968 0.
0.524002 0.0669981 0.
0.526002 0.0669995 0.
0.528002 0.0670008 0.
0.530003 0.0670011 0.
0.532003 0.0670015 0.
0.534003 0.0670016 0.
0.536004 0.0670015 0.
0.538004 0.0670013 0.
0.540005 0.0670015 0.
0.542004 0.0670019 0.
0.544004 0.0670023 0.
0.546004 0.0670032 0.
0.548004 0.0670042 0.
0.550004 0.0670052 0.
0.552004 0.0670057 0.
0.554004 0.0670061 0.
0.556004 0.0670065 0.
0.558004 0.0670069 0.
0.560005 0.0670072 0.
0.562005 0.0670075 0.
0.564005 0.0670078 0.
0.566005 0.0670081 0.
0.568005 0.0670084 0.
0.570005 0.0670087 0.
0.572005 0.067009 0.
0.574004 0.0670099 0.
0.576003 0.0670109 0.
0.578002 0.0670117 0.
0.580002 0.0670113 0.
0.582002 0.067011 0.
0.584002 0.0670107 0.
0.586002 0.0670107 0.
0.588002 0.0670107 0.
0.590001 0.0670106 0.
0.592001 0.0670104 0.
0.594 0.0670102 0.
0.596 0.0670104 0.
0.598 0.0670107 0.
0.6 0.067011 0.
0.602 0.0670106 0.
0.604 0.0670101 0.
0.606 0.0670097 0.
0.608 0.0670096 0.
0.609999 0.0670095 0.
0.611999 0.0670094 0.
0.613999 0.0670093 0.
0.615999 0.0670092 0.
0.617999 0.0670095 0.
0.619998 0.0670099 0.
0.621998 0.0670104 0.
0.623998 0.0670095 0.
0.625999 0.0670084 0.
0.627999 0.0670075 0.
0.629999 0.0670072 0.
0.631999 0.067007 0.
0.633999 0.0670065 0.
0.635998 0.0670054 0.
0.637998 0.0670043 0.
0.639998 0.0670038 0.
0.641997 0.0670036 0.
0.643997 0.0670035 0.
0.645997 0.0670035 0.
0.647997 0.0670035 0.
0.649998 0.0670035 0.
0.651998 0.0670027 0.
0.653998 0.0670019 0.
0.655998 0.0670012 0.
0.657998 0.0670007 0.
0.659999 0.0670002 0.
0.661999 0.067 0.
0.663999 0.067 0.
0.665999 0.067 0.
0.667999 0.0669998 0.
0.669999 0.0669995 0.
0.671999 0.0669992 0.
0.674 0.0669982 0.
0.676 0.0669971 0.
0.678 0.066996 0.
0.680001 0.0669956 0.
0.682001 0.0669951 0.
0.684002 0.066995 0.
0.686003 0.0669955 0.
0.688003 0.0669961 0.
0.690004 0.0669963 0.
0.692004 0.0669963 0.
0.694005 0.0669964 0.
0.696005 0.0669963 0.
0.698006 0.0669962 0.
0.499999 0.0689995 0.
0.502 0.0689986 0.
0.504 0.0689977 0.
0.506001 0.068997 0.
0.508 0.0689969 0.
0.51 0.0689968 0.
0.512 0.0689968 0.
0.514001 0.0689968 0.
0.516001 0.0689968 0.
0.518002 0.0689967 0.
0.520002 0.0689965 0.
0.522002 0.0689964 0.
0.524002 0.0689978 0.
0.526002 0.0689993 0.
0.528003 0.0690007 0.
0.530003 0.0690008 0.
0.532003 0.0690008 0.
0.534004 0.0690009 0.
0.536004 0.0690012 0.
0.538004 0.0690014 0.
0.540005 0.0690017 0.
0.542005 0.069002 0.
0.544005 0.0690022 0.
0.546005 0.0690032 0.
0.548004 0.0690045 0.
0.550003 0.0690058 0.
0.552003 0.069006 0.
0.554003 0.0690062 0.
0.556004 0.0690064 0.
0.558004 0.0690067 0.
0.560004 0.0690069 0.
0.562005 0.0690073 0.
0.564005 0.0690077 0.
0.566005 0.0690082 0.
0.568005 0.0690086 0.
0.570005 0.069009 0.
0.572005 0.0690095 0.
0.574004 0.0690101 0.
0.576003 0.0690108 0.
0.578002 0.0690114 0.
0.580002 0.0690112 0.
0.582003 0.069011 0.
0.584002 0.0690109 0.
0.586002 0.069011 0.
0.588001 0.069011 0.
0.590001 0.0690109 0.
0.592001 0.0690106 0.
0.594 0.0690103 0.
0.596 0.0690106 0.
0.598001 0.069011 0.
0.600001 0.0690113 0.
0.602 0.0690108 0.
0.604 0.0690103 0.
0.606 0.0690099 0.
0.608 0.0690097 0.
0.61 0.0690095 0.
0.611999 0.0690092 0.
0.613999 0.069009 0.
0.615999 0.0690088 0.
0.617998 0.069009 0.
0.619998 0.0690095 0.
0.621998 0.06901 0.
0.623998 0.0690094 0.
0.625998 0.0690088 0.
0.627998 0.0690081 0.
0.629998 0.0690076 0.
0.631998 0.0690071 0.
0.633998 0.0690064 0.
0.635998 0.0690052 0.
0.637998 0.0690041 0.
0.639998 0.0690035 0.
0.641998 0.0690033 0.
0.643997 0.0690032 0.
0.645997 0.0690031 0.
0.647997 0.0690032 0.
0.649996 0.0690032 0.
0.651997 0.0690023 0.
0.653997 0.0690015 0.
0.655997 0.0690007 0.
0.657998 0.0690003 0.
0.659998 0.069 0.
0.661998 0.0689997 0.
0.663998 0.0689996 0.
0.665998 0.0689994 0.
0.667998 0.0689994 0.
0.669999 0.0689995 0.
0.671999 0.0689996 0.
0.673999 0.0689983 0.
0.675999 0.0689968 0.
0.678 0.0689955 0.
0.68 0.0689951 0.
0.682001 0.0689947 0.
0.684001 0.0689946 0.
0.686002 0.0689952 0.
0.688003 0.0689957 0.
0.690004 0.068996 0.
0.692004 0.068996 0.
0.694005 0.0689959 0.
0.696005 0.068996 0.
0.698006 0.0689961 0.
0.499999 0.0709989 0.
0.502 0.0709981 0.
0.504001 0.0709973 0.
0.506001 0.0709966 0.
0.508001 0.0709966 0.
0.51 0.0709966 0.
0.512 0.0709967 0.
0.514001 0.0709968 0.
0.516002 0.0709969 0.
0.518002 0.0709967 0.
0.520002 0.0709965 0.
0.522002 0.0709963 0.
0.524002 0.0709975 0.
0.526003 0.070999 0.
0.528003 0.0710003 0.
0.530003 0.0710004 0.
0.532003 0.0710005 0.
0.534004 0.0710006 0.
0.536004 0.0710009 0.
0.538005 0.0710012 0.
0.540005 0.0710016 0.
0.542005 0.071002 0.
0.544005 0.0710024 0.
0.546005 0.0710035 0.
0.548004 0.0710048 0.
0.550003 0.0710061 0.
0.552003 0.0710062 0.
0.554004 0.0710063 0.
0.556004 0.0710064 0.
0.558004 0.0710066 0.
0.560004 0.0710069 0.
0.562005 0.0710073 0.
0.564005 0.0710078 0.
0.566005 0.0710083 0.
0.568005 0.0710089 0.
0.570005 0.0710094 0.
0.572004 0.07101 0.
0.574004 0.0710105 0.
0.576003 0.0710109 0.
0.578003 0.0710113 0.
0.580003 0.0710112 0.
0.582003 0.0710112 0.
0.584002 0.0710112 0.
0.586002 0.0710111 0.
0.588002 0.0710111 0.
0.590001 0.0710111 0.
0.592001 0.0710109 0.
0.594001 0.0710108 0.
0.596001 0.0710109 0.
0.598001 0.0710111 0.
0.600001 0.0710113 0.
0.602 0.071011 0.
0.604 0.0710106 0.
0.606 0.0710103 0.
0.608 0.0710099 0.
0.61 0.0710095 0.
0.611999 0.0710092 0.
0.613999 0.0710091 0.
0.615999 0.071009 0.
0.617998 0.0710092 0.
0.619998 0.0710096 0.
0.621998 0.07101 0.
0.623998 0.0710095 0.
0.625998 0.0710088 0.
0.627998 0.0710082 0.
0.629998 0.0710076 0.
0.631998 0.071007 0.
0.633998 0.0710063 0.
0.635998 0.0710052 0.
0.637998 0.0710042 0.
0.639998 0.0710036 0.
0.641997 0.0710034 0.
0.643997 0.0710032 0.
0.645997 0.071003 0.
0.647996 0.0710029 0.
0.649995 0.0710028 0.
0.651996 0.0710019 0.
0.653996 0.071001 0.
0.655997 0.0710002 0.
0.657997 0.0709999 0.
0.659997 0.0709997 0.
0.661998 0.0709995 0.
0.663998 0.0709993 0.
0.665998 0.0709991 0.
0.667998 0.0709991 0.
0.669998 0.0709992 0.
0.671999 0.0709993 0.
0.673999 0.070998 0.
0.675999 0.0709965 0.
0.677999 0.0709952 0.
0.68 0.0709949 0.
0.682 0.0709945 0.
0.684001 0.0709944 0.
0.686002 0.0709949 0.
0.688003 0.0709953 0.
0.690004 0.0709956 0.
0.692004 0.0709956 0.
0.694004 0.0709956 0.
0.696005 0.0709957 0.
0.698005 0.0709958 0.
0.499999 0.072998 0.
0.502 0.0729974 0.
0.504 0.0729968 0.
0.506001 0.0729963 0.
0.508001 0.0729963 0.
0.510001 0.0729964 0.
0.512001 0.0729966 0.
0.514001 0.0729968 0.
0.516002 0.072997 0.
0.518002 0.0729969 0.
0.520002 0.0729967 0.
0.522002 0.0729965 0.
0.524002 0.0729975 0.
0.526003 0.0729985 0.
0.528003 0.0729995 0.
0.530003 0.073 0.
0.532003 0.0730005 0.
0.534004 0.0730008 0.
0.536004 0.0730008 0.
0.538005 0.0730008 0.
0.540005 0.0730012 0.
0.542005 0.0730021 0.
0.544005 0.0730029 0.
0.546005 0.073004 0.
0.548004 0.0730051 0.
0.550004 0.0730061 0.
0.552004 0.0730062 0.
0.554004 0.0730063 0.
0.556005 0.0730064 0.
0.558004 0.0730067 0.
0.560004 0.073007 0.
0.562004 0.0730075 0.
0.564005 0.073008 0.
0.566005 0.0730086 0.
0.568005 0.0730092 0.
0.570005 0.0730099 0.
0.572004 0.0730107 0.
0.574004 0.0730109 0.
0.576003 0.0730111 0.
0.578003 0.0730113 0.
0.580003 0.0730114 0.
0.582002 0.0730114 0.
0.584002 0.0730115 0.
0.586002 0.0730113 0.
0.588002 0.0730112 0.
0.590002 0.0730112 0.
0.592002 0.0730114 0.
0.594001 0.0730116 0.
0.596001 0.0730115 0.
0.598001 0.0730113 0.
0.600001 0.073011 0.
0.602 0.073011 0.
0.604 0.073011 0.
0.606 0.0730109 0.
0.608 0.0730103 0.
0.61 0.0730096 0.
0.612 0.0730094 0.
0.613999 0.0730095 0.
0.615999 0.0730097 0.
0.617999 0.0730099 0.
0.619998 0.0730102 0.
0.621998 0.0730104 0.
0.623998 0.0730096 0.
0.625998 0.0730086 0.
0.627997 0.0730077 0.
0.629998 0.0730073 0.
0.631998 0.0730068 0.
0.633998 0.0730062 0.
0.635997 0.0730055 0.
0.637997 0.0730047 0.
0.639997 0.0730042 0.
0.641996 0.0730038 0.
0.643996 0.0730035 0.
0.645996 0.0730031 0.
0.647996 0.0730028 0.
0.649995 0.0730025 0.
0.651996 0.0730015 0.
0.653996 0.0730004 0.
0.655996 0.0729996 0.
0.657997 0.0729995 0.
0.659997 0.0729995 0.
0.661997 0.0729994 0.
0.663997 0.0729992 0.
0.665997 0.072999 0.
0.667997 0.0729988 0.
0.669998 0.0729986 0.
0.671998 0.0729983 0.
0.673999 0.0729973 0.
0.675999 0.0729962 0.
0.677999 0.0729953 0.
0.679999 0.0729949 0.
0.682 0.0729946 0.
0.684 0.0729945 0.
0.686001 0.0729947 0.
0.688002 0.0729948 0.
0.690003 0.072995 0.
0.692003 0.0729952 0.
0.694004 0.0729953 0.
0.696004 0.0729954 0.
0.698004 0.0729954 0.
0.499999 0.0749974 0.
0.502 0.0749967 0.
0.504 0.0749963 0.
0.506001 0.074996 0.
0.508001 0.0749961 0.
0.510001 0.0749962 0.
0.512001 0.0749965 0.
0.514001 0.0749968 0.
0.516002 0.0749972 0.
0.518002 0.0749971 0.
0.520002 0.0749969 0.
0.522002 0.0749967 0.
0.524002 0.0749974 0.
0.526003 0.0749981 0.
0.528003 0.0749988 0.
0.530003 0.0749996 0.
0.532003 0.0750005 0.
0.534004 0.0750009 0.
0.536005 0.0750006 0.
0.538005 0.0750003 0.
0.540005 0.0750009 0.
0.542005 0.0750022 0.
0.544005 0.0750035 0.
0.546005 0.0750045 0.
0.548005 0.0750053 0.
0.550005 0.0750062 0.
0.552005 0.0750062 0.
0.554005 0.0750063 0.
0.556005 0.0750064 0.
0.558005 0.0750068 0.
0.560004 0.0750072 0.
0.562004 0.0750077 0.
0.564005 0.0750082 0.
0.566005 0.0750088 0.
0.568005 0.0750096 0.
0.570005 0.0750104 0.
0.572004 0.0750113 0.
0.574004 0.0750114 0.
0.576004 0.0750113 0.
0.578003 0.0750113 0.
0.580003 0.0750115 0.
0.582002 0.0750117 0.
0.584002 0.0750118 0.
0.586002 0.0750115 0.
0.588002 0.0750112 0.
0.590002 0.0750114 0.
0.592002 0.0750119 0.
0.594002 0.0750124 0.
0.596002 0.075012 0.
0.598001 0.0750114 0.
0.600001 0.0750108 0.
0.602 0.0750111 0.
0.604 0.0750114 0.
0.606 0.0750115 0.
0.608 0.0750106 0.
0.61 0.0750098 0.
0.612 0.0750095 0.
0.614 0.07501 0.
0.615999 0.0750105 0.
0.617999 0.0750107 0.
0.619999 0.0750107 0.
0.621998 0.0750108 0.
0.623998 0.0750097 0.
0.625998 0.0750084 0.
0.627997 0.0750073 0.
0.629997 0.0750069 0.
0.631997 0.0750065 0.
0.633997 0.0750061 0.
0.635997 0.0750057 0.
0.637996 0.0750053 0.
0.639996 0.0750048 0.
0.641995 0.0750043 0.
0.643995 0.0750038 0.
0.645995 0.0750032 0.
0.647995 0.0750026 0.
0.649995 0.0750021 0.
0.651995 0.075001 0.
0.653995 0.0749999 0.
0.655995 0.0749991 0.
0.657996 0.0749991 0.
0.659996 0.0749992 0.
0.661997 0.0749992 0.
0.663996 0.0749991 0.
0.665996 0.074999 0.
0.667997 0.0749985 0.
0.669997 0.0749979 0.
0.671998 0.0749973 0.
0.673998 0.0749966 0.
0.675998 0.074996 0.
0.677999 0.0749953 0.
0.679999 0.074995 0.
0.681999 0.0749947 0.
0.683999 0.0749945 0.
0.686 0.0749944 0.
0.688001 0.0749943 0.
0.690002 0.0749945 0.
0.692002 0.0749948 0.
0.694003 0.0749951 0.
0.696003 0.0749951 0.
0.698003 0.074995 0.
0.5 0.0769971 0.
0.502001 0.0769969 0.
0.504001 0.0769965 0.
0.506001 0.0769962 0.
0.508001 0.0769962 0.
0.510001 0.0769961 0.
0.512001 0.0769962 0.
0.514002 0.0769966 0.
0.516002 0.076997 0.
0.518002 0.0769971 0.
0.520002 0.076997 0.
0.522002 0.076997 0.
0.524002 0.0769974 0.
0.526003 0.0769979 0.
0.528003 0.0769984 0.
0.530003 0.0769991 0.
0.532004 0.0769998 0.
0.534004 0.0770003 0.
0.536005 0.0770004 0.
0.538005 0.0770005 0.
0.540005 0.0770012 0.
0.542005 0.0770022 0.
0.544005 0.0770033 0.
0.546005 0.0770041 0.
0.548005 0.0770049 0.
0.550005 0.0770057 0.
0.552005 0.0770061 0.
0.554005 0.0770064 0.
0.556005 0.0770068 0.
0.558005 0.0770071 0.
0.560005 0.0770075 0.
0.562005 0.077008 0.
0.564005 0.0770086 0.
0.566005 0.0770093 0.
0.568005 0.07701 0.
0.570004 0.0770107 0.
0.572004 0.0770114 0.
0.574003 0.0770116 0.
0.576003 0.0770116 0.
0.578003 0.0770117 0.
0.580002 0.0770118 0.
0.582002 0.0770119 0.
0.584002 0.0770119 0.
0.586002 0.0770117 0.
0.588002 0.0770116 0.
0.590002 0.0770117 0.
0.592002 0.0770121 0.
0.594002 0.0770124 0.
0.596001 0.0770122 0.
0.598001 0.0770117 0.
0.6 0.0770113 0.
0.602 0.0770113 0.
0.604 0.0770113 0.
0.606 0.0770112 0.
0.608 0.0770106 0.
0.61 0.07701 0.
0.612 0.0770099 0.
0.614 0.0770103 0.
0.616 0.0770108 0.
0.617999 0.0770109 0.
0.619999 0.077011 0.
0.621999 0.077011 0.
0.623998 0.0770099 0.
0.625998 0.0770087 0.
0.627998 0.0770076 0.
0.629997 0.0770074 0.
0.631997 0.0770072 0.
0.633997 0.0770069 0.
0.635996 0.0770066 0.
0.637996 0.0770063 0.
0.639996 0.0770056 0.
0.641995 0.0770047 0.
0.643995 0.0770038 0.
0.645995 0.0770032 0.
0.647995 0.0770026 0.
0.649996 0.077002 0.
0.651996 0.0770007 0.
0.653995 0.0769994 0.
0.655995 0.0769984 0.
0.657996 0.0769985 0.
0.659996 0.0769986 0.
0.661996 0.0769986 0.
0.663996 0.0769984 0.
0.665996 0.0769982 0.
0.667996 0.0769977 0.
0.669997 0.0769971 0.
0.671997 0.0769966 0.
0.673998 0.0769959 0.
0.675998 0.0769952 0.
0.677998 0.0769946 0.
0.679998 0.0769943 0.
0.681999 0.0769941 0.
0.684 0.0769939 0.
0.686 0.0769939 0.
0.688001 0.0769939 0.
0.690001 0.0769942 0.
0.692002 0.0769947 0.
0.694002 0.0769951 0.
0.696002 0.0769954 0.
0.698002 0.0769957 0.
0.500002 0.0789972 0.
0.502001 0.0789971 0.
0.504001 0.0789968 0.
0.506001 0.0789965 0.
0.508001 0.0789962 0.
0.510001 0.078996 0.
0.512002 0.078996 0.
0.514002 0.0789964 0.
0.516003 0.0789968 0.
0.518003 0.078997 0.
0.520003 0.0789971 0.
0.522003 0.0789972 0.
0.524003 0.0789975 0.
0.526002 0.0789977 0.
0.528002 0.078998 0.
0.530003 0.0789985 0.
0.532004 0.0789991 0.
0.534004 0.0789996 0.
0.536004 0.0790002 0.
0.538005 0.0790008 0.
0.540005 0.0790015 0.
0.542005 0.0790022 0.
0.544006 0.079003 0.
0.546006 0.0790038 0.
0.548006 0.0790045 0.
0.550006 0.0790053 0.
0.552006 0.079006 0.
0.554006 0.0790066 0.
0.556006 0.0790071 0.
0.558005 0.0790075 0.
0.560005 0.0790078 0.
0.562005 0.0790083 0.
0.564005 0.079009 0.
0.566004 0.0790097 0.
0.568004 0.0790104 0.
0.570004 0.079011 0.
0.572003 0.0790116 0.
0.574003 0.0790118 0.
0.576003 0.0790119 0.
0.578002 0.079012 0.
0.580002 0.079012 0.
0.582002 0.079012 0.
0.584001 0.079012 0.
0.586002 0.0790119 0.
0.588002 0.0790119 0.
0.590002 0.079012 0.
0.592002 0.0790122 0.
0.594002 0.0790125 0.
0.596001 0.0790123 0.
0.598001 0.0790121 0.
0.6 0.0790118 0.
0.602 0.0790115 0.
0.604 0.0790112 0.
0.606 0.079011 0.
0.608 0.0790106 0.
0.610001 0.0790103 0.
0.612 0.0790103 0.
0.614 0.0790107 0.
0.616 0.0790111 0.
0.617999 0.0790112 0.
0.619999 0.0790112 0.
0.621999 0.0790112 0.
0.623998 0.0790101 0.
0.625998 0.079009 0.
0.627998 0.0790079 0.
0.629998 0.0790079 0.
0.631997 0.0790078 0.
0.633997 0.0790077 0.
0.635996 0.0790074 0.
0.637996 0.0790072 0.
0.639995 0.0790064 0.
0.641995 0.0790051 0.
0.643994 0.0790039 0.
0.645995 0.0790031 0.
0.647996 0.0790025 0.
0.649996 0.0790019 0.
0.651996 0.0790004 0.
0.653996 0.0789989 0.
0.655995 0.0789978 0.
0.657995 0.0789979 0.
0.659995 0.078998 0.
0.661995 0.0789979 0.
0.663995 0.0789976 0.
0.665996 0.0789973 0.
0.667996 0.0789969 0.
0.669996 0.0789963 0.
0.671996 0.0789958 0.
0.673997 0.0789952 0.
0.675997 0.0789945 0.
0.677997 0.0789939 0.
0.679998 0.0789937 0.
0.681999 0.0789935 0.
0.684 0.0789934 0.
0.686 0.0789934 0.
0.688001 0.0789935 0.
0.690001 0.0789939 0.
0.692001 0.0789945 0.
0.694001 0.0789952 0.
0.696001 0.0789958 0.
0.698001 0.0789964 0.
0.500003 0.0809973 0.
0.502002 0.0809972 0.
0.504002 0.080997 0.
0.506002 0.0809967 0.
0.508002 0.0809962 0.
0.510002 0.0809957 0.
0.512002 0.0809957 0.
0.514002 0.0809962 0.
0.516003 0.0809967 0.
0.518003 0.080997 0.
0.520003 0.0809971 0.
0.522003 0.0809973 0.
0.524003 0.0809974 0.
0.526003 0.0809974 0.
0.528003 0.0809976 0.
0.530003 0.0809981 0.
0.532004 0.0809986 0.
0.534004 0.0809992 0.
0.536004 0.0809999 0.
0.538004 0.0810006 0.
0.540005 0.0810013 0.
0.542005 0.081002 0.
0.544006 0.0810026 0.
0.546006 0.0810034 0.
0.548006 0.0810042 0.
0.550005 0.081005 0.
0.552005 0.0810059 0.
0.554005 0.0810067 0.
0.556005 0.0810074 0.
0.558005 0.0810078 0.
0.560005 0.0810082 0.
0.562005 0.0810087 0.
0.564005 0.0810094 0.
0.566004 0.08101 0.
0.568004 0.0810106 0.
0.570003 0.0810111 0.
0.572003 0.0810116 0.
0.574003 0.0810119 0.
0.576002 0.0810122 0.
0.578002 0.0810123 0.
0.580002 0.0810122 0.
0.582001 0.0810121 0.
0.584001 0.081012 0.
0.586002 0.0810121 0.
0.588002 0.0810121 0.
0.590002 0.0810121 0.
0.592002 0.0810123 0.
0.594001 0.0810124 0.
0.596001 0.0810123 0.
0.598001 0.0810122 0.
0.6 0.0810121 0.
0.602 0.0810116 0.
0.604 0.0810112 0.
0.606 0.0810108 0.
0.608 0.0810107 0.
0.610001 0.0810107 0.
0.612001 0.0810107 0.
0.614 0.081011 0.
0.616 0.0810113 0.
0.617999 0.0810113 0.
0.619999 0.0810113 0.
0.621999 0.0810113 0.
0.623998 0.0810104 0.
0.625998 0.0810093 0.
0.627998 0.0810084 0.
0.629998 0.0810083 0.
0.631997 0.0810082 0.
0.633997 0.0810081 0.
0.635996 0.0810079 0.
0.637996 0.0810077 0.
0.639996 0.0810067 0.
0.641995 0.0810053 0.
0.643995 0.0810038 0.
0.645995 0.0810029 0.
0.647996 0.0810023 0.
0.649997 0.0810016 0.
0.651996 0.0810002 0.
0.653996 0.0809987 0.
0.655996 0.0809976 0.
0.657995 0.0809976 0.
0.659995 0.0809977 0.
0.661995 0.0809975 0.
0.663996 0.0809972 0.
0.665996 0.0809968 0.
0.667996 0.0809964 0.
0.669996 0.0809959 0.
0.671996 0.0809954 0.
0.673997 0.0809947 0.
0.675997 0.0809941 0.
0.677997 0.0809935 0.
0.679998 0.0809933 0.
0.681999 0.080993 0.
0.684 0.0809929 0.
0.686 0.080993 0.
0.688 0.0809931 0.
0.69 0.0809936 0.
0.692 0.0809944 0.
0.694 0.0809952 0.
0.696 0.0809958 0.
0.698 0.0809965 0.
0.500002 0.0829969 0.
0.502003 0.0829971 0.
0.504003 0.082997 0.
0.506002 0.0829968 0.
0.508003 0.0829961 0.
0.510003 0.0829954 0.
0.512003 0.0829953 0.
0.514003 0.082996 0.
0.516003 0.0829967 0.
0.518003 0.082997 0.
0.520003 0.082997 0.
0.522003 0.0829971 0.
0.524003 0.0829971 0.
0.526003 0.0829971 0.
0.528003 0.0829971 0.
0.530003 0.0829978 0.
0.532004 0.0829984 0.
0.534004 0.0829991 0.
0.536004 0.0829996 0.
0.538004 0.0830001 0.
0.540004 0.0830007 0.
0.542005 0.0830014 0.
0.544005 0.083002 0.
0.546005 0.0830029 0.
0.548005 0.0830039 0.
0.550005 0.0830049 0.
0.552005 0.0830057 0.
0.554005 0.0830066 0.
0.556005 0.0830074 0.
0.558005 0.083008 0.
0.560005 0.0830086 0.
0.562005 0.0830092 0.
0.564005 0.0830096 0.
0.566004 0.0830101 0.
0.568004 0.0830106 0.
0.570003 0.0830111 0.
0.572003 0.0830116 0.
0.574003 0.083012 0.
0.576002 0.0830123 0.
0.578002 0.0830126 0.
0.580002 0.0830124 0.
0.582001 0.0830122 0.
0.584001 0.083012 0.
0.586002 0.0830121 0.
0.588002 0.0830122 0.
0.590002 0.0830122 0.
0.592001 0.0830122 0.
0.594001 0.0830122 0.
0.596001 0.0830122 0.
0.598001 0.0830121 0.
0.600001 0.0830121 0.
0.602001 0.0830116 0.
0.604001 0.0830111 0.
0.606 0.0830108 0.
0.608001 0.083011 0.
0.610001 0.0830112 0.
0.612 0.0830113 0.
0.614 0.0830113 0.
0.616 0.0830113 0.
0.617999 0.0830113 0.
0.619999 0.0830113 0.
0.621998 0.0830113 0.
0.623998 0.0830105 0.
0.625998 0.0830098 0.
0.627998 0.083009 0.
0.629998 0.0830087 0.
0.631998 0.0830084 0.
0.633997 0.0830081 0.
0.635997 0.0830078 0.
0.637997 0.0830075 0.
0.639997 0.0830066 0.
0.641996 0.0830051 0.
0.643996 0.0830035 0.
0.645996 0.0830026 0.
0.647997 0.0830018 0.
0.649997 0.083001 0.
0.651997 0.0829999 0.
0.653996 0.0829988 0.
0.655996 0.0829979 0.
0.657996 0.0829978 0.
0.659996 0.0829977 0.
0.661996 0.0829974 0.
0.663996 0.082997 0.
0.665996 0.0829966 0.
0.667997 0.0829961 0.
0.669997 0.0829957 0.
0.671997 0.0829952 0.
0.673997 0.0829946 0.
0.675997 0.0829941 0.
0.677998 0.0829936 0.
0.679998 0.0829931 0.
0.681999 0.0829927 0.
0.683999 0.0829925 0.
0.685999 0.0829927 0.
0.687999 0.0829929 0.
0.689999 0.0829935 0.
0.691999 0.0829942 0.
0.693999 0.082995 0.
0.695999 0.0829956 0.
0.697999 0.0829961 0.
0.500003 0.0849967 0.
0.502003 0.084997 0.
0.504003 0.0849971 0.
0.506003 0.0849969 0.
0.508003 0.084996 0.
0.510003 0.0849951 0.
0.512003 0.084995 0.
0.514003 0.0849958 0.
0.516003 0.0849967 0.
0.518003 0.084997 0.
0.520003 0.084997 0.
0.522003 0.084997 0.
0.524003 0.0849969 0.
0.526003 0.0849967 0.
0.528003 0.0849967 0.
0.530003 0.0849974 0.
0.532004 0.0849982 0.
0.534004 0.0849989 0.
0.536004 0.0849992 0.
0.538004 0.0849996 0.
0.540004 0.0850001 0.
0.542004 0.0850008 0.
0.544004 0.0850014 0.
0.546004 0.0850024 0.
0.548005 0.0850035 0.
0.550005 0.0850047 0.
0.552005 0.0850056 0.
0.554005 0.0850065 0.
0.556005 0.0850074 0.
0.558005 0.0850082 0.
0.560006 0.085009 0.
0.562006 0.0850096 0.
0.564005 0.0850099 0.
0.566004 0.0850102 0.
0.568003 0.0850106 0.
0.570003 0.0850111 0.
0.572003 0.0850115 0.
0.574002 0.085012 0.
0.576002 0.0850125 0.
0.578002 0.0850129 0.
0.580002 0.0850126 0.
0.582002 0.0850122 0.
0.584002 0.085012 0.
0.586002 0.0850121 0.
0.588002 0.0850123 0.
0.590002 0.0850123 0.
0.592001 0.0850122 0.
0.594001 0.0850121 0.
0.596001 0.0850121 0.
0.598001 0.0850121 0.
0.600002 0.0850121 0.
0.602001 0.0850116 0.
0.604001 0.0850111 0.
0.606001 0.0850108 0.
0.608001 0.0850113 0.
0.61 0.0850117 0.
0.612 0.0850118 0.
0.614 0.0850116 0.
0.615999 0.0850113 0.
0.617999 0.0850113 0.
0.619998 0.0850112 0.
0.621998 0.0850112 0.
0.623998 0.0850107 0.
0.625998 0.0850102 0.
0.627998 0.0850097 0.
0.629998 0.0850091 0.
0.631998 0.0850086 0.
0.633998 0.0850081 0.
0.635998 0.0850078 0.
0.637998 0.0850074 0.
0.639998 0.0850064 0.
0.641998 0.0850049 0.
0.643998 0.0850033 0.
0.645997 0.0850022 0.
0.647997 0.0850013 0.
0.649997 0.0850004 0.
0.651997 0.0849996 0.
0.653997 0.0849988 0.
0.655996 0.0849981 0.
0.657996 0.0849979 0.
0.659997 0.0849977 0.
0.661997 0.0849973 0.
0.663997 0.0849969 0.
0.665997 0.0849964 0.
0.667997 0.0849959 0.
0.669997 0.0849955 0.
0.671998 0.084995 0.
0.673998 0.0849945 0.
0.675998 0.0849941 0.
0.677998 0.0849936 0.
0.679998 0.084993 0.
0.681999 0.0849924 0.
0.683999 0.0849921 0.
0.685998 0.0849924 0.
0.687998 0.0849927 0.
0.689998 0.0849933 0.
0.691997 0.0849941 0.
0.693997 0.0849948 0.
0.695997 0.0849953 0.
0.697998 0.0849957 0.
0.500002 0.0869965 0.
0.502003 0.0869968 0.
0.504003 0.0869969 0.
0.506003 0.0869967 0.
0.508003 0.0869961 0.
0.510003 0.0869954 0.
0.512003 0.0869952 0.
0.514003 0.0869957 0.
0.516003 0.0869963 0.
0.518002 0.0869965 0.
0.520002 0.0869967 0.
0.522002 0.0869969 0.
0.524003 0.0869968 0.
0.526003 0.0869967 0.
0.528003 0.0869966 0.
0.530003 0.0869972 0.
0.532004 0.0869978 0.
0.534004 0.0869983 0.
0.536004 0.0869987 0.
0.538004 0.0869991 0.
0.540004 0.0869998 0.
0.542004 0.0870006 0.
0.544004 0.0870015 0.
0.546004 0.0870024 0.
0.548004 0.0870034 0.
0.550004 0.0870044 0.
0.552004 0.0870055 0.
0.554004 0.0870066 0.
0.556004 0.0870076 0.
0.558004 0.0870083 0.
0.560005 0.087009 0.
0.562005 0.0870095 0.
0.564004 0.08701 0.
0.566004 0.0870104 0.
0.568003 0.0870109 0.
0.570003 0.0870115 0.
0.572003 0.087012 0.
0.574002 0.0870122 0.
0.576001 0.0870123 0.
0.578001 0.0870125 0.
0.580001 0.0870125 0.
0.582001 0.0870125 0.
0.584002 0.0870125 0.
0.586002 0.0870124 0.
0.588002 0.0870122 0.
0.590002 0.0870122 0.
0.592001 0.0870122 0.
0.594001 0.0870121 0.
0.596001 0.0870123 0.
0.598001 0.0870125 0.
0.600001 0.0870127 0.
0.602001 0.0870123 0.
0.604001 0.0870119 0.
0.606 0.0870116 0.
0.608 0.0870117 0.
0.61 0.0870117 0.
0.612 0.0870117 0.
0.614 0.0870117 0.
0.615999 0.0870116 0.
0.617999 0.0870115 0.
0.619998 0.0870115 0.
0.621998 0.0870114 0.
0.623998 0.0870108 0.
0.625998 0.0870101 0.
0.627999 0.0870094 0.
0.629998 0.087009 0.
0.631998 0.0870085 0.
0.633998 0.0870081 0.
0.635998 0.0870075 0.
0.637998 0.0870069 0.
0.639998 0.087006 0.
0.641998 0.0870048 0.
0.643998 0.0870036 0.
0.645998 0.0870025 0.
0.647998 0.0870015 0.
0.649998 0.0870005 0.
0.651997 0.0869997 0.
0.653997 0.0869989 0.
0.655997 0.0869981 0.
0.657997 0.0869977 0.
0.659996 0.0869974 0.
0.661996 0.0869969 0.
0.663996 0.0869965 0.
0.665996 0.086996 0.
0.667997 0.0869956 0.
0.669997 0.0869951 0.
0.671997 0.0869946 0.
0.673997 0.0869941 0.
0.675997 0.0869937 0.
0.677997 0.0869932 0.
0.679998 0.0869927 0.
0.681998 0.0869922 0.
0.683998 0.0869919 0.
0.685998 0.0869923 0.
0.687998 0.0869926 0.
0.689997 0.0869931 0.
0.691997 0.0869937 0.
0.693997 0.0869943 0.
0.695997 0.0869951 0.
0.697998 0.086996 0.
0.500002 0.0889966 0.
0.502002 0.0889966 0.
0.504003 0.0889966 0.
0.506003 0.0889965 0.
0.508003 0.0889961 0.
0.510003 0.0889957 0.
0.512003 0.0889955 0.
0.514002 0.0889957 0.
0.516002 0.0889958 0.
0.518002 0.0889961 0.
0.520002 0.0889965 0.
0.522002 0.0889968 0.
0.524002 0.0889967 0.
0.526003 0.0889966 0.
0.528003 0.0889966 0.
0.530003 0.088997 0.
0.532004 0.0889973 0.
0.534004 0.0889977 0.
0.536004 0.0889982 0.
0.538004 0.0889987 0.
0.540004 0.0889994 0.
0.542004 0.0890005 0.
0.544004 0.0890015 0.
0.546004 0.0890024 0.
0.548003 0.0890033 0.
0.550003 0.0890042 0.
0.552003 0.0890055 0.
0.554003 0.0890067 0.
0.556004 0.0890078 0.
0.558004 0.0890084 0.
0.560004 0.0890089 0.
0.562004 0.0890094 0.
0.564004 0.08901 0.
0.566003 0.0890105 0.
0.568003 0.0890112 0.
0.570003 0.0890118 0.
0.572002 0.0890125 0.
0.574002 0.0890124 0.
0.576001 0.0890121 0.
0.578 0.089012 0.
0.580001 0.0890124 0.
0.582001 0.0890128 0.
0.584002 0.089013 0.
0.586002 0.0890126 0.
0.588002 0.0890122 0.
0.590002 0.0890121 0.
0.592002 0.0890122 0.
0.594001 0.0890122 0.
0.596001 0.0890126 0.
0.598001 0.0890129 0.
0.600001 0.0890133 0.
0.602001 0.089013 0.
0.604001 0.0890127 0.
0.606 0.0890125 0.
0.608 0.0890121 0.
0.61 0.0890117 0.
0.612 0.0890116 0.
0.613999 0.0890117 0.
0.615999 0.0890118 0.
0.617999 0.0890118 0.
0.619998 0.0890117 0.
0.621998 0.0890116 0.
0.623998 0.0890108 0.
0.625999 0.08901 0.
0.627999 0.0890092 0.
0.629999 0.0890088 0.
0.631999 0.0890085 0.
0.633998 0.089008 0.
0.635999 0.0890072 0.
0.637999 0.0890064 0.
0.639999 0.0890055 0.
0.641999 0.0890047 0.
0.643998 0.0890038 0.
0.645998 0.0890028 0.
0.647998 0.0890017 0.
0.649998 0.0890006 0.
0.651998 0.0889997 0.
0.653997 0.0889989 0.
0.655997 0.0889981 0.
0.657997 0.0889976 0.
0.659996 0.088997 0.
0.661996 0.0889965 0.
0.663996 0.0889961 0.
0.665996 0.0889957 0.
0.667996 0.0889952 0.
0.669996 0.0889947 0.
0.671996 0.0889943 0.
0.673997 0.0889938 0.
0.675997 0.0889932 0.
0.677997 0.0889928 0.
0.679997 0.0889923 0.
0.681998 0.0889919 0.
0.683998 0.0889918 0.
0.685997 0.0889922 0.
0.687997 0.0889926 0.
0.689997 0.0889929 0.
0.691997 0.0889933 0.
0.693997 0.0889937 0.
0.695997 0.0889949 0.
0.697998 0.0889963 0.
0.500002 0.0909965 0.
0.502003 0.0909965 0.
0.504003 0.0909966 0.
0.506003 0.0909965 0.
0.508003 0.0909961 0.
0.510003 0.0909958 0.
0.512003 0.0909956 0.
0.514002 0.0909956 0.
0.516002 0.0909956 0.
0.518002 0.0909959 0.
0.520002 0.0909963 0.
0.522002 0.0909967 0.
0.524002 0.0909967 0.
0.526003 0.0909966 0.
0.528003 0.0909966 0.
0.530003 0.0909968 0.
0.532004 0.090997 0.
0.534004 0.0909974 0.
0.536004 0.0909981 0.
0.538004 0.0909988 0.
0.540004 0.0909996 0.
0.542004 0.0910006 0.
0.544004 0.0910015 0.
0.546004 0.0910025 0.
0.548003 0.0910035 0.
0.550002 0.0910045 0.
0.552003 0.0910058 0.
0.554003 0.091007 0.
0.556003 0.091008 0.
0.558003 0.0910086 0.
0.560003 0.0910092 0.
0.562003 0.0910098 0.
0.564003 0.0910104 0.
0.566003 0.091011 0.
0.568003 0.0910115 0.
0.570003 0.0910121 0.
0.572002 0.0910127 0.
0.574002 0.0910125 0.
0.576001 0.0910121 0.
0.578 0.0910119 0.
0.580001 0.0910124 0.
0.582002 0.0910129 0.
0.584002 0.091013 0.
0.586002 0.0910126 0.
0.588002 0.0910122 0.
0.590002 0.0910121 0.
0.592001 0.0910123 0.
0.594001 0.0910125 0.
0.596001 0.0910128 0.
0.598001 0.091013 0.
0.6 0.0910133 0.
0.602 0.0910132 0.
0.604 0.0910131 0.
0.606 0.0910129 0.
0.608 0.0910124 0.
0.61 0.0910119 0.
0.612 0.0910118 0.
0.613999 0.0910119 0.
0.615999 0.0910121 0.
0.617999 0.091012 0.
0.619998 0.0910118 0.
0.621998 0.0910117 0.
0.623998 0.0910109 0.
0.625999 0.0910101 0.
0.627999 0.0910093 0.
0.629999 0.0910088 0.
0.631999 0.0910084 0.
0.633999 0.0910078 0.
0.635999 0.0910069 0.
0.637999 0.091006 0.
0.639999 0.0910053 0.
0.641999 0.0910047 0.
0.643999 0.0910042 0.
0.645998 0.0910032 0.
0.647998 0.091002 0.
0.649998 0.0910008 0.
0.651998 0.091 0.
0.653998 0.0909991 0.
0.655997 0.0909983 0.
0.657997 0.0909976 0.
0.659997 0.0909969 0.
0.661996 0.0909963 0.
0.663996 0.090996 0.
0.665996 0.0909956 0.
0.667996 0.0909951 0.
0.669996 0.0909945 0.
0.671996 0.090994 0.
0.673996 0.0909934 0.
0.675996 0.0909928 0.
0.677996 0.0909922 0.
0.679997 0.0909919 0.
0.681997 0.0909917 0.
0.683997 0.0909917 0.
0.685997 0.0909922 0.
0.687996 0.0909926 0.
0.689996 0.090993 0.
0.691997 0.0909932 0.
0.693997 0.0909934 0.
0.695997 0.0909948 0.
0.697997 0.0909966 0.
0.500004 0.0929964 0.
0.502004 0.0929966 0.
0.504004 0.0929967 0.
0.506003 0.0929967 0.
0.508003 0.0929962 0.
0.510003 0.0929956 0.
0.512003 0.0929954 0.
0.514003 0.0929956 0.
0.516002 0.0929957 0.
0.518002 0.092996 0.
0.520002 0.0929963 0.
0.522003 0.0929966 0.
0.524003 0.0929966 0.
0.526003 0.0929966 0.
0.528003 0.0929966 0.
0.530003 0.0929968 0.
0.532003 0.0929969 0.
0.534003 0.0929973 0.
0.536004 0.0929984 0.
0.538004 0.0929995 0.
0.540004 0.0930003 0.
0.542004 0.0930009 0.
0.544004 0.0930015 0.
0.546004 0.0930027 0.
0.548003 0.093004 0.
0.550003 0.0930054 0.
0.552003 0.0930064 0.
0.554003 0.0930073 0.
0.556004 0.0930083 0.
0.558003 0.093009 0.
0.560003 0.0930098 0.
0.562003 0.0930105 0.
0.564003 0.0930111 0.
0.566003 0.0930117 0.
0.568003 0.0930121 0.
0.570003 0.0930123 0.
0.572003 0.0930125 0.
0.574002 0.0930125 0.
0.576002 0.0930123 0.
0.578002 0.0930123 0.
0.580002 0.0930125 0.
0.582002 0.0930126 0.
0.584002 0.0930127 0.
0.586002 0.0930125 0.
0.588002 0.0930122 0.
0.590001 0.0930123 0.
0.592001 0.0930126 0.
0.594 0.0930129 0.
0.596 0.0930129 0.
0.598 0.0930127 0.
0.600001 0.0930126 0.
0.602 0.0930127 0.
0.604 0.0930129 0.
0.606 0.0930129 0.
0.608 0.0930126 0.
0.61 0.0930124 0.
0.612 0.0930122 0.
0.613999 0.0930122 0.
0.615999 0.0930123 0.
0.617999 0.0930121 0.
0.619999 0.0930119 0.
0.621998 0.0930117 0.
0.623999 0.0930111 0.
0.625999 0.0930104 0.
0.627999 0.0930097 0.
0.629999 0.093009 0.
0.631999 0.0930083 0.
0.633998 0.0930075 0.
0.635999 0.0930066 0.
0.637999 0.0930057 0.
0.639999 0.0930052 0.
0.641999 0.093005 0.
0.643999 0.0930047 0.
0.645999 0.0930037 0.
0.647999 0.0930024 0.
0.649999 0.0930011 0.
0.651998 0.0930003 0.
0.653998 0.0929995 0.
0.655998 0.0929986 0.
0.657997 0.0929978 0.
0.659997 0.0929969 0.
0.661997 0.0929963 0.
0.663997 0.0929961 0.
0.665997 0.0929958 0.
0.667997 0.0929953 0.
0.669996 0.0929946 0.
0.671996 0.0929938 0.
0.673996 0.092993 0.
0.675996 0.0929922 0.
0.677996 0.0929915 0.
0.679996 0.0929915 0.
0.681996 0.0929915 0.
0.683996 0.0929917 0.
0.685996 0.0929923 0.
0.687996 0.0929929 0.
0.689996 0.0929932 0.
0.691996 0.0929934 0.
0.693996 0.0929935 0.
0.695996 0.0929951 0.
0.697997 0.092997 0.
0.500005 0.0949965 0.
0.502005 0.0949966 0.
0.504004 0.0949968 0.
0.506004 0.0949968 0.
0.508003 0.0949962 0.
0.510003 0.0949955 0.
0.512003 0.0949953 0.
0.514003 0.0949956 0.
0.516003 0.0949958 0.
0.518003 0.0949961 0.
0.520003 0.0949963 0.
0.522003 0.0949965 0.
0.524003 0.0949966 0.
0.526003 0.0949966 0.
0.528003 0.0949967 0.
0.530003 0.0949967 0.
0.532003 0.0949968 0.
0.534003 0.0949973 0.
0.536003 0.0949988 0.
0.538004 0.0950003 0.
0.540004 0.095001 0.
0.542004 0.0950012 0.
0.544004 0.0950015 0.
0.546003 0.0950028 0.
0.548003 0.0950046 0.
0.550003 0.0950063 0.
0.552003 0.095007 0.
0.554004 0.0950077 0.
0.556004 0.0950085 0.
0.558004 0.0950095 0.
0.560003 0.0950105 0.
0.562003 0.0950113 0.
0.564003 0.0950118 0.
0.566002 0.0950124 0.
0.568002 0.0950126 0.
0.570003 0.0950125 0.
0.572003 0.0950124 0.
0.574003 0.0950125 0.
0.576003 0.0950125 0.
0.578003 0.0950126 0.
0.580003 0.0950125 0.
0.582003 0.0950124 0.
0.584003 0.0950124 0.
0.586002 0.0950123 0.
0.588001 0.0950122 0.
0.590001 0.0950125 0.
0.592 0.0950129 0.
0.594 0.0950134 0.
0.596 0.095013 0.
0.598 0.0950125 0.
0.600001 0.0950119 0.
0.602 0.0950123 0.
0.603999 0.0950127 0.
0.605999 0.0950129 0.
0.608 0.0950128 0.
0.61 0.0950128 0.
0.612 0.0950127 0.
0.614 0.0950126 0.
0.615999 0.0950124 0.
0.617999 0.0950122 0.
0.619999 0.0950119 0.
0.621999 0.0950116 0.
0.623999 0.0950112 0.
0.625999 0.0950107 0.
0.627999 0.0950102 0.
0.629999 0.0950092 0.
0.631998 0.0950082 0.
0.633998 0.0950073 0.
0.635998 0.0950064 0.
0.637999 0.0950055 0.
0.639999 0.0950051 0.
0.641999 0.0950052 0.
0.643999 0.0950053 0.
0.645999 0.0950042 0.
0.647999 0.0950028 0.
0.649999 0.0950015 0.
0.651999 0.0950007 0.
0.653998 0.0949999 0.
0.655998 0.094999 0.
0.657998 0.0949979 0.
0.659997 0.0949969 0.
0.661997 0.0949963 0.
0.663997 0.0949962 0.
0.665997 0.0949961 0.
0.667997 0.0949955 0.
0.669997 0.0949946 0.
0.671997 0.0949937 0.
0.673996 0.0949927 0.
0.675996 0.0949917 0.
0.677996 0.0949908 0.
0.679996 0.0949911 0.
0.681996 0.0949913 0.
0.683996 0.0949917 0.
0.685996 0.0949924 0.
0.687995 0.0949931 0.
0.689995 0.0949935 0.
0.691995 0.0949936 0.
0.693995 0.0949936 0.
0.695996 0.0949953 0.
0.697996 0.0949974 0.
0.500006 0.0969971 0.
0.502006 0.0969972 0.
0.504005 0.0969973 0.
0.506005 0.0969972 0.
0.508005 0.0969965 0.
0.510005 0.0969959 0.
0.512005 0.0969955 0.
0.514004 0.0969954 0.
0.516004 0.0969952 0.
0.518003 0.0969955 0.
0.520003 0.096996 0.
0.522002 0.0969964 0.
0.524002 0.0969965 0.
0.526002 0.0969965 0.
0.528002 0.0969966 0.
0.530002 0.0969968 0.
0.532002 0.0969971 0.
0.534002 0.0969976 0.
0.536002 0.0969988 0.
0.538003 0.0969999 0.
0.540003 0.0970008 0.
0.542003 0.0970014 0.
0.544003 0.0970021 0.
0.546003 0.0970031 0.
0.548003 0.0970043 0.
0.550003 0.0970054 0.
0.552003 0.0970065 0.
0.554003 0.0970076 0.
0.556003 0.0970086 0.
0.558003 0.0970094 0.
0.560003 0.0970101 0.
0.562003 0.0970109 0.
0.564003 0.0970118 0.
0.566002 0.0970128 0.
0.568002 0.0970128 0.
0.570002 0.0970123 0.
0.572003 0.0970119 0.
0.574003 0.0970122 0.
0.576002 0.0970125 0.
0.578002 0.0970128 0.
0.580002 0.0970127 0.
0.582002 0.0970127 0.
0.584002 0.0970127 0.
0.586002 0.0970127 0.
0.588001 0.0970128 0.
0.590001 0.0970129 0.
0.592001 0.0970132 0.
0.594 0.0970134 0.
0.596001 0.097013 0.
0.598001 0.0970125 0.
0.600001 0.097012 0.
0.602001 0.0970122 0.
0.604 0.0970125 0.
0.606 0.0970127 0.
0.608 0.0970127 0.
0.61 0.0970126 0.
0.612 0.0970125 0.
0.614 0.0970124 0.
0.616 0.0970123 0.
0.617999 0.0970121 0.
0.619999 0.0970119 0.
0.621999 0.0970117 0.
0.623999 0.0970112 0.
0.625999 0.0970108 0.
0.627999 0.0970103 0.
0.629999 0.0970094 0.
0.631999 0.0970086 0.
0.633999 0.0970077 0.
0.635999 0.0970068 0.
0.638 0.0970059 0.
0.64 0.0970053 0.
0.642 0.0970051 0.
0.644 0.0970048 0.
0.646 0.0970038 0.
0.648 0.0970027 0.
0.65 0.0970015 0.
0.652 0.0970007 0.
0.653999 0.0969999 0.
0.655999 0.0969991 0.
0.657999 0.096998 0.
0.659999 0.0969969 0.
0.661999 0.0969963 0.
0.663999 0.0969962 0.
0.665998 0.096996 0.
0.667998 0.0969953 0.
0.669998 0.0969943 0.
0.671998 0.0969934 0.
0.673997 0.0969924 0.
0.675996 0.0969914 0.
0.677996 0.0969906 0.
0.679996 0.0969908 0.
0.681996 0.096991 0.
0.683995 0.0969915 0.
0.685995 0.0969923 0.
0.687994 0.0969932 0.
0.689994 0.0969937 0.
0.691994 0.0969938 0.
0.693994 0.0969938 0.
0.695994 0.0969952 0.
0.697994 0.096997 0.
0.500006 0.0989977 0.
0.502006 0.0989978 0.
0.504006 0.0989977 0.
0.506006 0.0989976 0.
0.508007 0.0989969 0.
0.510007 0.0989963 0.
0.512007 0.0989957 0.
0.514006 0.0989952 0.
0.516005 0.0989946 0.
0.518004 0.0989949 0.
0.520003 0.0989957 0.
0.522002 0.0989964 0.
0.524002 0.0989965 0.
0.526001 0.0989964 0.
0.528001 0.0989964 0.
0.530001 0.0989969 0.
0.532001 0.0989974 0.
0.534001 0.098998 0.
0.536001 0.0989988 0.
0.538002 0.0989996 0.
0.540002 0.0990005 0.
0.542002 0.0990016 0.
0.544002 0.0990027 0.
0.546002 0.0990034 0.
0.548003 0.099004 0.
0.550003 0.0990046 0.
0.552003 0.0990061 0.
0.554002 0.0990075 0.
0.556002 0.0990088 0.
0.558002 0.0990093 0.
0.560003 0.0990098 0.
0.562003 0.0990106 0.
0.564003 0.0990118 0.
0.566002 0.0990131 0.
0.568002 0.099013 0.
0.570002 0.0990122 0.
0.572002 0.0990114 0.
0.574002 0.0990118 0.
0.576002 0.0990125 0.
0.578002 0.099013 0.
0.580002 0.099013 0.
0.582002 0.099013 0.
0.584001 0.099013 0.
0.586001 0.0990132 0.
0.588001 0.0990133 0.
0.590001 0.0990134 0.
0.592001 0.0990134 0.
0.594001 0.0990134 0.
0.596001 0.099013 0.
0.598001 0.0990125 0.
0.600002 0.099012 0.
0.602001 0.0990122 0.
0.604 0.0990124 0.
0.606 0.0990125 0.
0.608 0.0990125 0.
0.61 0.0990124 0.
0.612 0.0990124 0.
0.614 0.0990123 0.
0.616 0.0990122 0.
0.618 0.099012 0.
0.62 0.0990119 0.
0.621999 0.0990117 0.
0.623999 0.0990113 0.
0.626 0.0990108 0.
0.628 0.0990103 0.
0.63 0.0990097 0.
0.632 0.099009 0.
0.634 0.0990082 0.
0.636 0.0990073 0.
0.638001 0.0990063 0.
0.640001 0.0990056 0.
0.642001 0.099005 0.
0.644002 0.0990044 0.
0.646002 0.0990035 0.
0.648002 0.0990025 0.
0.650002 0.0990015 0.
0.652001 0.0990008 0.
0.654001 0.099 0.
0.656 0.0989992 0.
0.658 0.0989981 0.
0.660001 0.098997 0.
0.662001 0.0989963 0.
0.664 0.0989962 0.
0.666 0.098996 0.
0.667999 0.0989952 0.
0.669999 0.0989941 0.
0.671999 0.098993 0.
0.673998 0.0989921 0.
0.675997 0.0989911 0.
0.677996 0.0989903 0.
0.679996 0.0989905 0.
0.681995 0.0989907 0.
0.683995 0.0989912 0.
0.685994 0.0989923 0.
0.687994 0.0989934 0.
0.689993 0.0989939 0.
0.691993 0.098994 0.
0.693993 0.098994 0.
0.695993 0.0989951 0.
0.697993 0.0989966 0.
CELLS 5000 10000
1 0
1 1
1 2
1 3
1 4
1 5
1 6
1 7
1 8
1 9
1 10
1 11
1 12
1 13
1 14
1 15
1 16
1 17
1 18
1 19
1 20
1 21
1 22
1 23
1 24
1 25
1 26
1 27
1 28
1 29
1 30
1 31
1 32
1 33
1 34
1 35
1 36
1 37
1 38
1 39
1 40
1 41
1 42
1 43
1 44
1 45
1 46
1 47
1 48
1 49
1 50
1 51
1 52
1 53
1 54
1 55
1 56
1 57
1 58
1 59
1 60
1 61
1 62
1 63
1 64
1 65
1 66
1 67
1 68
1 69
1 70
1 71
1 72
1 73
1 74
1 75
1 76
1 77
1 78
1 79
1 80
1 81
1 82
1 83
1 84
1 85
1 86
1 87
1 88
1 89
1 90
1 91
1 92
1 93
1 94
1 95
1 96
1 97
1 98
1 99
1 100
1 101
1 102
1 103
1 104
1 105
1 106
1 107
1 108
1 109
1 110
1 111
1 112
1 113
1 114
1 115
1 116
1 117
1 118
1 119
1 120
1 121
1 122
1 123
1 124
1 125
1 126
1 127
1 128
1 129
1 130
1 131
1 132
1 133
1 134
1 135
1 136
1 137
1 138
1 139
1 140
1 141
1 142
1 143
1 144
1 145
1 146
1 147
1 148
1 149
1 150
1 151
1 152
1 153
1 154
1 155
1 156
1 157
1 158
1 159
1 160
1 161
1 162
1 163
1 164
1 165
1 166
1 167
1 168
1 169
1 170
1 171
1 172
1 173
1 174
1 175
1 176
1 177
1 178
1 179
1 180
1 181
1 182
1 183
1 184
1 185
1 186
1 187
1 188
1 189
1 190
1 191
1 192
1 193
1 194
1 195
1 196
1 197
1 198
1 199
1 200
1 201
1 202
1 203
1 204
1 205
1 206
1 207
1 208
1 209
1 210
1 211
1 212
1 213
1 214
1 215
1 216
1 217
1 218
1 219
1 220
1 221
1 222
1 223
1 224
1 225
1 226
1 227
1 228
1 229
1 230
1 231
1 232
1 233
1 234
1 235
1 236
1 237
1 238
1 239
1 240
1 241
1 242
1 243
1 244
1 245
1 246
1 247
1 248
1 249
1 250
1 251
1 252
1 253
1 254
1 255
1 256
1 257
1 258
1 259
1 260
1 261
1 262
1 263
1 264
1 265
1 266
1 267
1 268
1 269
1 270
1 271
1 272
1 273
1 274
1 275
1 276
1 277
1 278
1 279
1 280
1 281
1 282
1 283
1 284
1 285
1 286
1 287
1 288
1 289
1 290
1 291
1 292
1 293
1 294
1 295
1 296
1 297
1 298
1 299
1 300
1 301
1 302
1 303
1 304
1 305
1 306
1 307
1 308
1 309
1 310
1 311
1 312
1 313
1 314
1 315
1 316
1 317
1 318
1 319
1 320
1 321
1 322
1 323
1 324
1 325
1 326
1 327
1 328
1 329
1 330
1 331
1 332
1 333
1 334
1 335
1 336
1 337
1 338
1 339
1 340
1 341
1 342
1 343
1 344
1 345
1 346
1 347
1 348
1 349
1 350
1 351
1 352
1 353
1 354
1 355
1 356
1 357
1 358
1 359
1 360
1 361
1 362
1 363
1 364
1 365
1 366
1 367
1 368
1 369
1 370
1 371
1 372
1 373
1 374
1 375
1 376
1 377
1 378
1 379
1 380
1 381
1 382
1 383
1 384
1 385
1 386
1 387
1 388
1 389
1 390
1 391
1 392
1 393
1 394
1 395
1 396
1 397
1 398
1 399
1 400
1 401
1 402
1 403
1 404
1 405
1 406
1 407
1 408
1 409
1 410
1 411
1 412
1 413
1 414
1 415
1 416
1 417
1 418
1 419
1 420
1 421
1 422
1 423
1 424
1 425
1 426
1 427
1 428
1 429
1 430
1 431
1 432
1 433
1 434
1 435
1 436
1 437
1 438
1 439
1 440
1 441
1 442
1 443
1 444
1 445
1 446
1 447
1 448
1 449
1 450
1 451
1 452
1 453
1 454
1 455
1 456
1 457
1 458
1 459
1 460
1 461
1 462
1 463
1 464
1 465
1 466
1 467
1 468
1 469
1 470
1 471
1 472
1 473
1 474
1 475
1 476
1 477
1 478
1 479
1 480
1 481
1 482
1 483
1 484
1 485
1 486
1 487
1 488
1 489
1 490
1 491
1 492
1 493
1 494
1 495
1 496
1 497
1 498
1 499
1 500
1 501
1 502
1 503
1 504
1 505
1 506
1 507
1 508
1 509
1 510
1 511
1 512
1 513
1 514
1 515
1 516
1 517
1 518
1 519
1 520
1 521
1 522
1 523
1 524
1 525
1 526
1 527
1 528
1 529
1 530
1 531
1 532
1 533
1 534
1 535
1 536
1 537
1 538
1 539
1 540
1 541
1 542
1 543
1 544
1 545
1 546
1 547
1 548
1 549
1 550
1 551
1 552
1 553
1 554
1 555
1 556
1 557
1 558
1 559
1 560
1 561
1 562
1 563
1 564
1 565
1 566
1 567
1 568
1 569
1 570
1 571
1 572
1 573
1 574
1 575
1 576
1 577
1 578
1 579
1 580
1 581
1 582
1 583
1 584
1 585
1 586
1 587
1 588
1 589
1 590
1 591
1 592
1 593
1 594
1 595
1 596
1 597
1 598
1 599
1 600
1 601
1 602
1 603
1 604
1 605
1 606
1 607
1 608
1 609
1 610
1 611
1 612
1 613
1 614
1 615
1 616
1 617
1 618
1 619
1 620
1 621
1 622
1 623
1 624
1 625
1 626
1 627
1 628
1 629
1 630
1 631
1 632
1 633
1 634
1 635
1 636
1 637
1 638
1 639
1 640
1 641
1 642
1 643
1 644
1 645
1 646
1 647
1 648
1 649
1 650
1 651
1 652
1 653
1 654
1 655
1 656
1 657
1 658
1 659
1 660
1 661
1 662
1 663
1 664
1 665
1 666
1 667
1 668
1 669
1 670
1 671
1 672
1 673
1 674
1 675
1 676
1 677
1 678
1 679
1 680
1 681
1 682
1 683
1 684
1 685
1 686
1 687
1 688
1 689
1 690
1 691
1 692
1 693
1 694
1 695
1 696
1 697
1 698
1 699
1 700
1 701
1 702
1 703
1 704
1 705
1 706
1 707
1 708
1 709
1 710
1 711
1 712
1 713
1 714
1 715
1 716
1 717
1 718
1 719
1 720
1 721
1 722
1 723
1 724
1 725
1 726
1 727
1 728
1 729
1 730
1 731
1 732
1 733
1 734
1 735
1 736
1 737
1 738
1 739
1 740
1 741
1 742
1 743
1 744
1 745
1 746
1 747
1 748
1 749
1 750
1 751
1 752
1 753
1 754
1 755
1 756
1 757
1 758
1 759
1 760
1 761
1 762
1 763
1 764
1 765
1 766
1 767
1 768
1 769
1 770
1 771
1 772
1 773
1 774
1 775
1 776
1 777
1 778
1 779
1 780
1 781
1 782
1 783
1 784
1 785
1 786
1 787
1 788
1 789
1 790
1 791
1 792
1 793
1 794
1 795
1 796
1 797
1 798
1 799
1 800
1 801
1 802
1 803
1 804
1 805
1 806
1 807
1 808
1 809
1 810
1 811
1 812
1 813
1 814
1 815
1 816
1 817
1 818
1 819
1 820
1 821
1 822
1 823
1 824
1 825
1 826
1 827
1 828
1 829
1 830
1 831
1 832
1 833
1 834
1 835
1 836
1 837
1 838
1 839
1 840
1 841
1 842
1 843
1 844
1 845
1 846
1 847
1 848
1 849
1 850
1 851
1 852
1 853
1 854
1 855
1 856
1 857
1 858
1 859
1 860
1 861
1 862
1 863
1 864
1 865
1 866
1 867
1 868
1 869
1 870
1 871
1 872
1 873
1 874
1 875
1 876
1 877
1 878
1 879
1 880
1 881
1 882
1 883
1 884
1 885
1 886
1 887
1 888
1 889
1 890
1 891
1 892
1 893
1 894
1 895
1 896
1 897
1 898
1 899
1 900
1 901
1 902
1 903
1 904
1 905
1 906
1 907
1 908
1 909
1 910
1 911
1 912
1 913
1 914
1 915
1 916
1 917
1 918
1 919
1 920
1 921
1 922
1 923
1 924
1 925
1 926
1 927
1 928
1 929
1 930
1 931
1 932
1 933
1 934
1 935
1 936
1 937
1 938
1 939
1 940
1 941
1 942
1 943
1 944
1 945
1 946
1 947
1 948
1 949
1 950
1 951
1 952
1 953
1 954
1 955
1 956
1 957
1 958
1 959
1 960
1 961
1 962
1 963
1 964
1 965
1 966
1 967
1 968
1 969
1 970
1 971
1 972
1 973
1 974
1 975
1 976
1 977
1 978
1 979
1 980
1 981
1 982
1 983
1 984
1 985
1 986
1 987
1 988
1 989
1 990
1 991
1 992
1 993
1 994
1 995
1 996
1 997
1 998
1 999
1 1000
1 1001
1 1002
1 1003
1 1004
1 1005
1 1006
1 1007
1 1008
1 1009
1 1010
1 1011
1 1012
1 1013
1 1014
1 1015
1 1016
1 1017
1 1018
1 1019
1 1020
1 1021
1 1022
1 1023
1 1024
1 1025
1 1026
1 1027
1 1028
1 1029
1 1030
1 1031
1 1032
1 1033
1 1034
1 1035
1 1036
1 1037
1 1038
1 1039
1 1040
1 1041
1 1042
1 1043
1 1044
1 1045
1 1046
1 1047
1 1048
1 1049
1 1050
1 1051
1 1052
1 1053
1 1054
1 1055
1 1056
1 1057
1 1058
1 1059
1 1060
1 1061
1 1062
1 1063
1 1064
1 1065
1 1066
1 1067
1 1068
1 1069
1 1070
1 1071
1 1072
1 1073
1 1074
1 1075
1 1076
1 1077
1 1078
1 1079
1 1080
1 1081
1 1082
1 1083
1 1084
1 1085
1 1086
1 1087
1 1088
1 1089
1 1090
1 1091
1 1092
1 1093
1 1094
1 1095
1 1096
1 1097
1 1098
1 1099
1 1100
1 1101
1 1102
1 1103
1 1104
1 1105
1 1106
1 1107
1 1108
1 1109
1 1110
1 1111
1 1112
1 1113
1 1114
1 1115
1 1116
1 1117
1 1118
1 1119
1 1120
1 1121
1 1122
1 1123
1 1124
1 1125
1 1126
1 1127
1 1128
1 1129
1 1130
1 1131
1 1132
1 1133
1 1134
1 1135
1 1136
1 1137
1 1138
1 1139
1 1140
1 1141
1 1142
1 1143
1 1144
1 1145
1 1146
1 1147
1 1148
1 1149
1 1150
1 1151
1 1152
1 1153
1 1154
1 1155
1 1156
1 1157
1 1158
1 1159
1 1160
1 1161
1 1162
1 1163
1 1164
1 1165
1 1166
1 1167
1 1168
1 1169
1 1170
1 1171
1 1172
1 1173
1 1174
1 1175
1 1176
1 1177
1 1178
1 1179
1 1180
1 1181
1 1182
1 1183
1 1184
1 1185
1 1186
1 1187
1 1188
1 1189
1 1190
1 1191
1 1192
1 1193
1 1194
1 1195
1 1196
1 1197
1 1198
1 1199
1 1200
1 1201
1 1202
1 1203
1 1204
1 1205
1 1206
1 1207
1 1208
1 1209
1 1210
1 1211
1 1212
1 1213
1 1214
1 1215
1 1216
1 1217
1 1218
1 1219
1 1220
1 1221
1 1222
1 1223
1 1224
1 1225
1 1226
1 1227
1 1228
1 1229
1 1230
1 1231
1 1232
1 1233
1 1234
1 1235
1 1236
1 1237
1 1238
1 1239
1 1240
1 1241
1 1242
1 1243
1 1244
1 1245
1 1246
1 1247
1 1248
1 1249
1 1250
1 1251
1 1252
1 1253
1 1254
1 1255
1 1256
1 1257
1 1258
1 1259
1 1260
1 1261
1 1262
1 1263
1 1264
1 1265
1 1266
1 1267
1 1268
1 1269
1 1270
1 1271
1 1272
1 1273
1 1274
1 1275
1 1276
1 1277
1 1278
1 1279
1 1280
1 1281
1 1282
1 1283
1 1284
1 1285
1 1286
1 1287
1 1288
1 1289
1 1290
1 1291
1 1292
1 1293
1 1294
1 1295
1 1296
1 1297
1 1298
1 1299
1 1300
1 1301
1 1302
1 1303
1 1304
1 1305
1 1306
1 1307
1 1308
1 1309
1 1310
1 1311
1 1312
1 1313
1 1314
1 1315
1 1316
1 1317
1 1318
1 1319
1 1320
1 1321
1 1322
1 1323
1 1324
1 1325
1 1326
1 1327
1 1328
1 1329
1 1330
1 1331
1 1332
1 1333
1 1334
1 1335
1 1336
1 1337
1 1338
1 1339
1 1340
1 1341
1 1342
1 1343
1 1344
1 1345
1 1346
1 1347
1 1348
1 1349
1 1350
1 1351
1 1352
1 1353
1 1354
1 1355
1 1356
1 1357
1 1358
1 1359
1 1360
1 1361
1 1362
1 1363
1 1364
1 1365
1 1366
1 1367
1 1368
1 1369
1 1370
1 1371
1 1372
1 1373
1 1374
1 1375
1 1376
1 1377
1 1378
1 1379
1 1380
1 1381
1 1382
1 1383
1 1384
1 1385
1 1386
1 1387
1 1388
1 1389
1 1390
1 1391
1 1392
1 1393
1 1394
1 1395
1 1396
1 1397
1 1398
1 1399
1 1400
1 1401
1 1402
1 1403
1 1404
1 1405
1 1406
1 1407
1 1408
1 1409
1 1410
1 1411
1 1412
1 1413
1 1414
1 1415
1 1416
1 1417
1 1418
1 1419
1 1420
1 1421
1 1422
1 1423
1 1424
1 1425
1 1426
1 1427
1 1428
1 1429
1 1430
1 1431
1 1432
1 1433
1 1434
1 1435
1 1436
1 1437
1 1438
1 1439
1 1440
1 1441
1 1442
1 1443
1 1444
1 1445
1 1446
1 1447
1 1448
1 1449
1 1450
1 1451
1 1452
1 1453
1 1454
1 1455
1 1456
1 1457
1 1458
1 1459
1 1460
1 1461
1 1462
1 1463
1 1464
1 1465
1 1466
1 1467
1 1468
1 1469
1 1470
1 1471
1 1472
1 1473
1 1474
1 1475
1 1476
1 1477
1 1478
1 1479
1 1480
1 1481
1 1482
1 1483
1 1484
1 1485
1 1486
1 1487
1 1488
1 1489
1 1490
1 1491
1 1492
1 1493
1 1494
1 1495
1 1496
1 1497
1 1498
1 1499
1 1500
1 1501
1 1502
1 1503
1 1504
1 1505
1 1506
1 1507
1 1508
1 1509
1 1510
1 1511
1 1512
1 1513
1 1514
1 1515
1 1516
1 1517
1 1518
1 1519
1 1520
1 1521
1 1522
1 1523
1 1524
1 1525
1 1526
1 1527
1 1528
1 1529
1 1530
1 1531
1 1532
1 1533
1 1534
1 1535
1 1536
1 1537
1 1538
1 1539
1 1540
1 1541
1 1542
1 1543
1 1544
1 1545
1 1546
1 1547
1 1548
1 1549
1 1550
1 1551
1 1552
1 1553
1 1554
1 1555
1 1556
1 1557
1 1558
1 1559
1 1560
1 1561
1 1562
1 1563
1 1564
1 1565
1 1566
1 1567
1 1568
1 1569
1 1570
1 1571
1 1572
1 1573
1 1574
1 1575
1 1576
1 1577
1 1578
1 1579
1 1580
1 1581
1 1582
1 1583
1 1584
1 1585
1 1586
1 1587
1 1588
1 1589
1 1590
1 1591
1 1592
1 1593
1 1594
1 1595
1 1596
1 1597
1 1598
1 1599
1 1600
1 1601
1 1602
1 1603
1 1604
1 1605
1 1606
1 1607
1 1608
1 1609
1 1610
1 1611
1 1612
1 1613
1 1614
1 1615
1 1616
1 1617
1 1618
1 1619
1 1620
1 1621
1 1622
1 1623
1 1624
1 1625
1 1626
1 1627
1 1628
1 1629
1 1630
1 1631
1 1632
1 1633
1 1634
1 1635
1 1636
1 1637
1 1638
1 1639
1 1640
1 1641
1 1642
1 1643
1 1644
1 1645
1 1646
1 1647
1 1648
1 1649
1 1650
1 1651
1 1652
1 1653
1 1654
1 1655
1 1656
1 1657
1 1658
1 1659
1 1660
1 1661
1 1662
1 1663
1 1664
1 1665
1 1666
1 1667
1 1668
1 1669
1 1670
1 1671
1 1672
1 1673
1 1674
1 1675
1 1676
1 1677
1 1678
1 1679
1 1680
1 1681
1 1682
1 1683
1 1684
1 1685
1 1686
1 1687
1 1688
1 1689
1 1690
1 1691
1 1692
1 1693
1 1694
1 1695
1 1696
1 1697
1 1698
1 1699
1 1700
1 1701
1 1702
1 1703
1 1704
1 1705
1 1706
1 1707
1 1708
1 1709
1 1710
1 1711
1 1712
1 1713
1 1714
1 1715
1 1716
1 1717
1 1718
1 1719
1 1720
1 1721
1 1722
1 1723
1 1724
1 1725
1 1726
1 1727
1 1728
1 1729
1 1730
1 1731
1 1732
1 1733
1 1734
1 1735
1 1736
1 1737
1 1738
1 1739
1 1740
1 1741
1 1742
1 1743
1 1744
1 1745
1 1746
1 1747
1 1748
1 1749
1 1750
1 1751
1 1752
1 1753
1 1754
1 1755
1 1756
1 1757
1 1758
1 1759
1 1760
1 1761
1 1762
1 1763
1 1764
1 1765
1 1766
1 1767
1 1768
1 1769
1 1770
1 1771
1 1772
1 1773
1 1774
1 1775
1 1776
1 1777
1 1778
1 1779
1 1780
1 1781
1 1782
1 1783
1 1784
1 1785
1 1786
1 1787
1 1788
1 1789
1 1790
1 1791
1 1792
1 1793
1 1794
1 1795
1 1796
1 1797
1 1798
1 1799
1 1800
1 1801
1 1802
1 1803
1 1804
1 1805
1 1806
1 1807
1 1808
1 1809
1 1810
1 1811
1 1812
1 1813
1 1814
1 1815
1 1816
1 1817
1 1818
1 1819
1 1820
1 1821
1 1822
1 1823
1 1824
1 1825
1 1826
1 1827
1 1828
1 1829
1 1830
1 1831
1 1832
1 1833
1 1834
1 1835
1 1836
1 1837
1 1838
1 1839
1 1840
1 1841
1 1842
1 1843
1 1844
1 1845
1 1846
1 1847
1 1848
1 1849
1 1850
1 1851
1 1852
1 1853
1 1854
1 1855
1 1856
1 1857
1 1858
1 1859
1 1860
1 1861
1 1862
1 1863
1 1864
1 1865
1 1866
1 1867
1 1868
1 1869
1 1870
1 1871
1 1872
1 1873
1 1874
1 1875
1 1876
1 1877
1 1878
1 1879
1 1880
1 1881
1 1882
1 1883
1 1884
1 1885
1 1886
1 1887
1 1888
1 1889
1 1890
1 1891
1 1892
1 1893
1 1894
1 1895
1 1896
1 1897
1 1898
1 1899
1 1900
1 1901
1 1902
1 1903
1 1904
1 1905
1 1906
1 1907
1 1908
1 1909
1 1910
1 1911
1 1912
1 1913
1 1914
1 1915
1 1916
1 1917
1 1918
1 1919
1 1920
1 1921
1 1922
1 1923
1 1924
1 1925
1 1926
1 1927
1 1928
1 1929
1 1930
1 1931
1 1932
1 1933
1 1934
1 1935
1 1936
1 1937
1 1938
1 1939
1 1940
1 1941
1 1942
1 1943
1 1944
1 1945
1 1946
1 1947
1 1948
1 1949
1 1950
1 1951
1 1952
1 1953
1 1954
1 1955
1 1956
1 1957
1 1958
1 1959
1 1960
1 1961
1 1962
1 1963
1 1964
1 1965
1 1966
1 1967
1 1968
1 1969
1 1970
1 1971
1 1972
1 1973
1 1974
1 1975
1 1976
1 1977
1 1978
1 1979
1 1980
1 1981
1 1982
1 1983
1 1984
1 1985
1 1986
1 1987
1 1988
1 1989
1 1990
1 1991
1 1992
1 1993
1 1994
1 1995
1 1996
1 1997
1 1998
1 1999
1 2000
1 2001
1 2002
1 2003
1 2004
1 2005
1 2006
1 2007
1 2008
1 2009
1 2010
1 2011
1 2012
1 2013
1 2014
1 2015
1 2016
1 2017
1 2018
1 2019
1 2020
1 2021
1 2022
1 2023
1 2024
1 2025
1 2026
1 2027
1 2028
1 2029
1 2030
1 2031
1 2032
1 2033
1 2034
1 2035
1 2036
1 2037
1 2038
1 2039
1 2040
1 2041
1 2042
1 2043
1 2044
1 2045
1 2046
1 2047
1 2048
1 2049
1 2050
1 2051
1 2052
1 2053
1 2054
1 2055
1 2056
1 2057
1 2058
1 2059
1 2060
1 2061
1 2062
1 2063
1 2064
1 2065
1 2066
1 2067
1 2068
1 2069
1 2070
1 2071
1 2072
1 2073
1 2074
1 2075
1 2076
1 2077
1 2078
1 2079
1 2080
1 2081
1 2082
1 2083
1 2084
1 2085
1 2086
1 2087
1 2088
1 2089
1 2090
1 2091
1 2092
1 2093
1 2094
1 2095
1 2096
1 2097
1 2098
1 2099
1 2100
1 2101
1 2102
1 2103
1 2104
1 2105
1 2106
1 2107
1 2108
1 2109
1 2110
1 2111
1 2112
1 2113
1 2114
1 2115
1 2116
1 2117
1 2118
1 2119
1 2120
1 2121
1 2122
1 2123
1 2124
1 2125
1 2126
1 2127
1 2128
1 2129
1 2130
1 2131
1 2132
1 2133
1 2134
1 2135
1 2136
1 2137
1 2138
1 2139
1 2140
1 2141
1 2142
1 2143
1 2144
1 2145
1 2146
1 2147
1 2148
1 2149
1 2150
1 2151
1 2152
1 2153
1 2154
1 2155
1 2156
1 2157
1 2158
1 2159
1 2160
1 2161
1 2162
1 2163
1 2164
1 2165
1 2166
1 2167
1 2168
1 2169
1 2170
1 2171
1 2172
1 2173
1 2174
1 2175
1 2176
1 2177
1 2178
1 2179
1 2180
1 2181
1 2182
1 2183
1 2184
1 2185
1 2186
1 2187
1 2188
1 2189
1 2190
1 2191
1 2192
1 2193
1 2194
1 2195
1 2196
1 2197
1 2198
1 2199
1 2200
1 2201
1 2202
1 2203
1 2204
1 2205
1 2206
1 2207
1 2208
1 2209
1 2210
1 2211
1 2212
1 2213
1 2214
1 2215
1 2216
1 2217
1 2218
1 2219
1 2220
1 2221
1 2222
1 2223
1 2224
1 2225
1 2226
1 2227
1 2228
1 2229
1 2230
1 2231
1 2232
1 2233
1 2234
1 2235
1 2236
1 2237
1 2238
1 2239
1 2240
1 2241
1 2242
1 2243
1 2244
1 2245
1 2246
1 2247
1 2248
1 2249
1 2250
1 2251
1 2252
1 2253
1 2254
1 2255
1 2256
1 2257
1 2258
1 2259
1 2260
1 2261
1 2262
1 2263
1 2264
1 2265
1 2266
1 2267
1 2268
1 2269
1 2270
1 2271
1 2272
1 2273
1 2274
1 2275
1 2276
1 2277
1 2278
1 2279
1 2280
1 2281
1 2282
1 2283
1 2284
1 2285
1 2286
1 2287
1 2288
1 2289
1 2290
1 2291
1 2292
1 2293
1 2294
1 2295
1 2296
1 2297
1 2298
1 2299
1 2300
1 2301
1 2302
1 2303
1 2304
1 2305
1 2306
1 2307
1 2308
1 2309
1 2310
1 2311
1 2312
1 2313
1 2314
1 2315
1 2316
1 2317
1 2318
1 2319
1 2320
1 2321
1 2322
1 2323
1 2324
1 2325
1 2326
1 2327
1 2328
1 2329
1 2330
1 2331
1 2332
1 2333
1 2334
1 2335
1 2336
1 2337
1 2338
1 2339
1 2340
1 2341
1 2342
1 2343
1 2344
1 2345
1 2346
1 2347
1 2348
1 2349
1 2350
1 2351
1 2352
1 2353
1 2354
1 2355
1 2356
1 2357
1 2358
1 2359
1 2360
1 2361
1 2362
1 2363
1 2364
1 2365
1 2366
1 2367
1 2368
1 2369
1 2370
1 2371
1 2372
1 2373
1 2374
1 2375
1 2376
1 2377
1 2378
1 2379
1 2380
1 2381
1 2382
1 2383
1 2384
1 2385
1 2386
1 2387
1 2388
1 2389
1 2390
1 2391
1 2392
1 2393
1 2394
1 2395
1 2396
1 2397
1 2398
1 2399
1 2400
1 2401
1 2402
1 2403
1 2404
1 2405
1 2406
1 2407
1 2408
1 2409
1 2410
1 2411
1 2412
1 2413
1 2414
1 2415
1 2416
1 2417
1 2418
1 2419
1 2420
1 2421
1 2422
1 2423
1 2424
1 2425
1 2426
1 2427
1 2428
1 2429
1 2430
1 2431
1 2432
1 2433
1 2434
1 2435
1 2436
1 2437
1 2438
1 2439
1 2440
1 2441
1 2442
1 2443
1 2444
1 2445
1 2446
1 2447
1 2448
1 2449
1 2450
1 2451
1 2452
1 2453
1 2454
1 2455
1 2456
1 2457
1 2458
1 2459
1 2460
1 2461
1 2462
1 2463
1 2464
1 2465
1 2466
1 2467
1 2468
1 2469
1 2470
1 2471
1 2472
1 2473
1 2474
1 2475
1 2476
1 2477
1 2478
1 2479
1 2480
1 2481
1 2482
1 2483
1 2484
1 2485
1 2486
1 2487
1 2488
1 2489
1 2490
1 2491
1 2492
1 2493
1 2494
1 2495
1 2496
1 2497
1 2498
1 2499
1 2500
1 2501
1 2502
1 2503
1 2504
1 2505
1 2506
1 2507
1 2508
1 2509
1 2510
1 2511
1 2512
1 2513
1 2514
1 2515
1 2516
1 2517
1 2518
1 2519
1 2520
1 2521
1 2522
1 2523
1 2524
1 2525
1 2526
1 2527
1 2528
1 2529
1 2530
1 2531
1 2532
1 2533
1 2534
1 2535
1 2536
1 2537
1 2538
1 2539
1 2540
1 2541
1 2542
1 2543
1 2544
1 2545
1 2546
1 2547
1 2548
1 2549
1 2550
1 2551
1 2552
1 2553
1 2554
1 2555
1 2556
1 2557
1 2558
1 2559
1 2560
1 2561
1 2562
1 2563
1 2564
1 2565
1 2566
1 2567
1 2568
1 2569
1 2570
1 2571
1 2572
1 2573
1 2574
1 2575
1 2576
1 2577
1 2578
1 2579
1 2580
1 2581
1 2582
1 2583
1 2584
1 2585
1 2586
1 2587
1 2588
1 2589
1 2590
1 2591
1 2592
1 2593
1 2594
1 2595
1 2596
1 2597
1 2598
1 2599
1 2600
1 2601
1 2602
1 2603
1 2604
1 2605
1 2606
1 2607
1 2608
1 2609
1 2610
1 2611
1 2612
1 2613
1 2614
1 2615
1 2616
1 2617
1 2618
1 2619
1 2620
1 2621
1 2622
1 2623
1 2624
1 2625
1 2626
1 2627
1 2628
1 2629
1 2630
1 2631
1 2632
1 2633
1 2634
1 2635
1 2636
1 2637
1 2638
1 2639
1 2640
1 2641
1 2642
1 2643
1 2644
1 2645
1 2646
1 2647
1 2648
1 2649
1 2650
1 2651
1 2652
1 2653
1 2654
1 2655
1 2656
1 2657
1 2658
1 2659
1 2660
1 2661
1 2662
1 2663
1 2664
1 2665
1 2666
1 2667
1 2668
1 2669
1 2670
1 2671
1 2672
1 2673
1 2674
1 2675
1 2676
1 2677
1 2678
1 2679
1 2680
1 2681
1 2682
1 2683
1 2684
1 2685
1 2686
1 2687
1 2688
1 2689
1 2690
1 2691
1 2692
1 2693
1 2694
1 2695
1 2696
1 2697
1 2698
1 2699
1 2700
1 2701
1 2702
1 2703
1 2704
1 2705
1 2706
1 2707
1 2708
1 2709
1 2710
1 2711
1 2712
1 2713
1 2714
1 2715
1 2716
1 2717
1 2718
1 2719
1 2720
1 2721
1 2722
1 2723
1 2724
1 2725
1 2726
1 2727
1 2728
1 2729
1 2730
1 2731
1 2732
1 2733
1 2734
1 2735
1 2736
1 2737
1 2738
1 2739
1 2740
1 2741
1 2742
1 2743
1 2744
1 2745
1 2746
1 2747
1 2748
1 2749
1 2750
1 2751
1 2752
1 2753
1 2754
1 2755
1 2756
1 2757
1 2758
1 2759
1 2760
1 2761
1 2762
1 2763
1 2764
1 2765
1 2766
1 2767
1 2768
1 2769
1 2770
1 2771
1 2772
1 2773
1 2774
1 2775
1 2776
1 2777
1 2778
1 2779
1 2780
1 2781
1 2782
1 2783
1 2784
1 2785
1 2786
1 2787
1 2788
1 2789
1 2790
1 2791
1 2792
1 2793
1 2794
1 2795
1 2796
1 2797
1 2798
1 2799
1 2800
1 2801
1 2802
1 2803
1 2804
1 2805
1 2806
1 2807
1 2808
1 2809
1 2810
1 2811
1 2812
1 2813
1 2814
1 2815
1 2816
1 2817
1 2818
1 2819
1 2820
1 2821
1 2822
1 2823
1 2824
1 2825
1 2826
1 2827
1 2828
1 2829
1 2830
1 2831
1 2832
1 2833
1 2834
1 2835
1 2836
1 2837
1 2838
1 2839
1 2840
1 2841
1 2842
1 2843
1 2844
1 2845
1 2846
1 2847
1 2848
1 2849
1 2850
1 2851
1 2852
1 2853
1 2854
1 2855
1 2856
1 2857
1 2858
1 2859
1 2860
1 2861
1 2862
1 2863
1 2864
1 2865
1 2866
1 2867
1 2868
1 2869
1 2870
1 2871
1 2872
1 2873
1 2874
1 2875
1 2876
1 2877
1 2878
1 2879
1 2880
1 2881
1 2882
1 2883
1 2884
1 2885
1 2886
1 2887
1 2888
1 2889
1 2890
1 2891
1 2892
1 2893
1 2894
1 2895
1 2896
1 2897
1 2898
1 2899
1 2900
1 2901
1 2902
1 2903
1 2904
1 2905
1 2906
1 2907
1 2908
1 2909
1 2910
1 2911
1 2912
1 2913
1 2914
1 2915
1 2916
1 2917
1 2918
1 2919
1 2920
1 2921
1 2922
1 2923
1 2924
1 2925
1 2926
1 2927
1 2928
1 2929
1 2930
1 2931
1 2932
1 2933
1 2934
1 2935
1 2936
1 2937
1 2938
1 2939
1 2940
1 2941
1 2942
1 2943
1 2944
1 2945
1 2946
1 2947
1 2948
1 2949
1 2950
1 2951
1 2952
1 2953
1 2954
1 2955
1 2956
1 2957
1 2958
1 2959
1 2960
1 2961
1 2962
1 2963
1 2964
1 2965
1 2966
1 2967
1 2968
1 2969
1 2970
1 2971
1 2972
1 2973
1 2974
1 2975
1 2976
1 2977
1 2978
1 2979
1 2980
1 2981
1 2982
1 2983
1 2984
1 2985
1 2986
1 2987
1 2988
1 2989
1 2990
1 2991
1 2992
1 2993
1 2994
1 2995
1 2996
1 2997
1 2998
1 2999
1 3000
1 3001
1 3002
1 3003
1 3004
1 3005
1 3006
1 3007
1 3008
1 3009
1 3010
1 3011
1 3012
1 3013
1 3014
1 3015
1 3016
1 3017
1 3018
1 3019
1 3020
1 3021
1 3022
1 3023
1 3024
1 3025
1 3026
1 3027
1 3028
1 3029
1 3030
1 3031
1 3032
1 3033
1 3034
1 3035
1 3036
1 3037
1 3038
1 3039
1 3040
1 3041
1 3042
1 3043
1 3044
1 3045
1 3046
1 3047
1 3048
1 3049
1 3050
1 3051
1 3052
1 3053
1 3054
1 3055
1 3056
1 3057
1 3058
1 3059
1 3060
1 3061
1 3062
1 3063
1 3064
1 3065
1 3066
1 3067
1 3068
1 3069
1 3070
1 3071
1 3072
1 3073
1 3074
1 3075
1 3076
1 3077
1 3078
1 3079
1 3080
1 3081
1 3082
1 3083
1 3084
1 3085
1 3086
1 3087
1 3088
1 3089
1 3090
1 3091
1 3092
1 3093
1 3094
1 3095
1 3096
1 3097
1 3098
1 3099
1 3100
1 3101
1 3102
1 3103
1 3104
1 3105
1 3106
1 3107
1 3108
1 3109
1 3110
1 3111
1 3112
1 3113
1 3114
1 3115
1 3116
1 3117
1 3118
1 3119
1 3120
1 3121
1 3122
1 3123
1 3124
1 3125
1 3126
1 3127
1 3128
1 3129
1 3130
1 3131
1 3132
1 3133
1 3134
1 3135
1 3136
1 3137
1 3138
1 3139
1 3140
1 3141
1 3142
1 3143
1 3144
1 3145
1 3146
1 3147
1 3148
1 3149
1 3150
1 3151
1 3152
1 3153
1 3154
1 3155
1 3156
1 3157
1 3158
1 3159
1 3160
1 3161
1 3162
1 3163
1 3164
1 3165
1 3166
1 3167
1 3168
1 3169
1 3170
1 3171
1 3172
1 3173
1 3174
1 3175
1 3176
1 3177
1 3178
1 3179
1 3180
1 3181
1 3182
1 3183
1 3184
1 3185
1 3186
1 3187
1 3188
1 3189
1 3190
1 3191
1 3192
1 3193
1 3194
1 3195
1 3196
1 3197
1 3198
1 3199
1 3200
1 3201
1 3202
1 3203
1 3204
1 3205
1 3206
1 3207
1 3208
1 3209
1 3210
1 3211
1 3212
1 3213
1 3214
1 3215
1 3216
1 3217
1 3218
1 3219
1 3220
1 3221
1 3222
1 3223
1 3224
1 3225
1 3226
1 3227
1 3228
1 3229
1 3230
1 3231
1 3232
1 3233
1 3234
1 3235
1 3236
1 3237
1 3238
1 3239
1 3240
1 3241
1 3242
1 3243
1 3244
1 3245
1 3246
1 3247
1 3248
1 3249
1 3250
1 3251
1 3252
1 3253
1 3254
1 3255
1 3256
1 3257
1 3258
1 3259
1 3260
1 3261
1 3262
1 3263
1 3264
1 3265
1 3266
1 3267
1 3268
1 3269
1 3270
1 3271
1 3272
1 3273
1 3274
1 3275
1 3276
1 3277
1 3278
1 3279
1 3280
1 3281
1 3282
1 3283
1 3284
1 3285
1 3286
1 3287
1 3288
1 3289
1 3290
1 3291
1 3292
1 3293
1 3294
1 3295
1 3296
1 3297
1 3298
1 3299
1 3300
1 3301
1 3302
1 3303
1 3304
1 3305
1 3306
1 3307
1 3308
1 3309
1 3310
1 3311
1 3312
1 3313
1 3314
1 3315
1 3316
1 3317
1 3318
1 3319
1 3320
1 3321
1 3322
1 3323
1 3324
1 3325
1 3326
1 3327
1 3328
1 3329
1 3330
1 3331
1 3332
1 3333
1 3334
1 3335
1 3336
1 3337
1 3338
1 3339
1 3340
1 3341
1 3342
1 3343
1 3344
1 3345
1 3346
1 3347
1 3348
1 3349
1 3350
1 3351
1 3352
1 3353
1 3354
1 3355
1 3356
1 3357
1 3358
1 3359
1 3360
1 3361
1 3362
1 3363
1 3364
1 3365
1 3366
1 3367
1 3368
1 3369
1 3370
1 3371
1 3372
1 3373
1 3374
1 3375
1 3376
1 3377
1 3378
1 3379
1 3380
1 3381
1 3382
1 3383
1 3384
1 3385
1 3386
1 3387
1 3388
1 3389
1 3390
1 3391
1 3392
1 3393
1 3394
1 3395
1 3396
1 3397
1 3398
1 3399
1 3400
1 3401
1 3402
1 3403
1 3404
1 3405
1 3406
1 3407
1 3408
1 3409
1 3410
1 3411
1 3412
1 3413
1 3414
1 3415
1 3416
1 3417
1 3418
1 3419
1 3420
1 3421
1 3422
1 3423
1 3424
1 3425
1 3426
1 3427
1 3428
1 3429
1 3430
1 3431
1 3432
1 3433
1 3434
1 3435
1 3436
1 3437
1 3438
1 3439
1 3440
1 3441
1 3442
1 3443
1 3444
1 3445
1 3446
1 3447
1 3448
1 3449
1 3450
1 3451
1 3452
1 3453
1 3454
1 3455
1 3456
1 3457
1 3458
1 3459
1 3460
1 3461
1 3462
1 3463
1 3464
1 3465
1 3466
1 3467
1 3468
1 3469
1 3470
1 3471
1 3472
1 3473
1 3474
1 3475
1 3476
1 3477
1 3478
1 3479
1 3480
1 3481
1 3482
1 3483
1 3484
1 3485
1 3486
1 3487
1 3488
1 3489
1 3490
1 3491
1 3492
1 3493
1 3494
1 3495
1 3496
1 3497
1 3498
1 3499
1 3500
1 3501
1 3502
1 3503
1 3504
1 3505
1 3506
1 3507
1 3508
1 3509
1 3510
1 3511
1 3512
1 3513
1 3514
1 3515
1 3516
1 3517
1 3518
1 3519
1 3520
1 3521
1 3522
1 3523
1 3524
1 3525
1 3526
1 3527
1 3528
1 3529
1 3530
1 3531
1 3532
1 3533
1 3534
1 3535
1 3536
1 3537
1 3538
1 3539
1 3540
1 3541
1 3542
1 3543
1 3544
1 3545
1 3546
1 3547
1 3548
1 3549
1 3550
1 3551
1 3552
1 3553
1 3554
1 3555
1 3556
1 3557
1 3558
1 3559
1 3560
1 3561
1 3562
1 3563
1 3564
1 3565
1 3566
1 3567
1 3568
1 3569
1 3570
1 3571
1 3572
1 3573
1 3574
1 3575
1 3576
1 3577
1 3578
1 3579
1 3580
1 3581
1 3582
1 3583
1 3584
1 3585
1 3586
1 3587
1 3588
1 3589
1 3590
1 3591
1 3592
1 3593
1 3594
1 3595
1 3596
1 3597
1 3598
1 3599
1 3600
1 3601
1 3602
1 3603
1 3604
1 3605
1 3606
1 3607
1 3608
1 3609
1 3610
1 3611
1 3612
1 3613
1 3614
1 3615
1 3616
1 3617
1 3618
1 3619
1 3620
1 3621
1 3622
1 3623
1 3624
1 3625
1 3626
1 3627
1 3628
1 3629
1 3630
1 3631
1 3632
1 3633
1 3634
1 3635
1 3636
1 3637
1 3638
1 3639
1 3640
1 3641
1 3642
1 3643
1 3644
1 3645
1 3646
1 3647
1 3648
1 3649
1 3650
1 3651
1 3652
1 3653
1 3654
1 3655
1 3656
1 3657
1 3658
1 3659
1 3660
1 3661
1 3662
1 3663
1 3664
1 3665
1 3666
1 3667
1 3668
1 3669
1 3670
1 3671
1 3672
1 3673
1 3674
1 3675
1 3676
1 3677
1 3678
1 3679
1 3680
1 3681
1 3682
1 3683
1 3684
1 3685
1 3686
1 3687
1 3688
1 3689
1 3690
1 3691
1 3692
1 3693
1 3694
1 3695
1 3696
1 3697
1 3698
1 3699
1 3700
1 3701
1 3702
1 3703
1 3704
1 3705
1 3706
1 3707
1 3708
1 3709
1 3710
1 3711
1 3712
1 3713
1 3714
1 3715
1 3716
1 3717
1 3718
1 3719
1 3720
1 3721
1 3722
1 3723
1 3724
1 3725
1 3726
1 3727
1 3728
1 3729
1 3730
1 3731
1 3732
1 3733
1 3734
1 3735
1 3736
1 3737
1 3738
1 3739
1 3740
1 3741
1 3742
1 3743
1 3744
1 3745
1 3746
1 3747
1 3748
1 3749
1 3750
1 3751
1 3752
1 3753
1 3754
1 3755
1 3756
1 3757
1 3758
1 3759
1 3760
1 3761
1 3762
1 3763
1 3764
1 3765
1 3766
1 3767
1 3768
1 3769
1 3770
1 3771
1 3772
1 3773
1 3774
1 3775
1 3776
1 3777
1 3778
1 3779
1 3780
1 3781
1 3782
1 3783
1 3784
1 3785
1 3786
1 3787
1 3788
1 3789
1 3790
1 3791
1 3792
1 3793
1 3794
1 3795
1 3796
1 3797
1 3798
1 3799
1 3800
1 3801
1 3802
1 3803
1 3804
1 3805
1 3806
1 3807
1 3808
1 3809
1 3810
1 3811
1 3812
1 3813
1 3814
1 3815
1 3816
1 3817
1 3818
1 3819
1 3820
1 3821
1 3822
1 3823
1 3824
1 3825
1 3826
1 3827
1 3828
1 3829
1 3830
1 3831
1 3832
1 3833
1 3834
1 3835
1 3836
1 3837
1 3838
1 3839
1 3840
1 3841
1 3842
1 3843
1 3844
1 3845
1 3846
1 3847
1 3848
1 3849
1 3850
1 3851
1 3852
1 3853
1 3854
1 3855
1 3856
1 3857
1 3858
1 3859
1 3860
1 3861
1 3862
1 3863
1 3864
1 3865
1 3866
1 3867
1 3868
1 3869
1 3870
1 3871
1 3872
1 3873
1 3874
1 3875
1 3876
1 3877
1 3878
1 3879
1 3880
1 3881
1 3882
1 3883
1 3884
1 3885
1 3886
1 3887
1 3888
1 3889
1 3890
1 3891
1 3892
1 3893
1 3894
1 3895
1 3896
1 3897
1 3898
1 3899
1 3900
1 3901
1 3902
1 3903
1 3904
1 3905
1 3906
1 3907
1 3908
1 3909
1 3910
1 3911
1 3912
1 3913
1 3914
1 3915
1 3916
1 3917
1 3918
1 3919
1 3920
1 3921
1 3922
1 3923
1 3924
1 3925
1 3926
1 3927
1 3928
1 3929
1 3930
1 3931
1 3932
1 3933
1 3934
1 3935
1 3936
1 3937
1 3938
1 3939
1 3940
1 3941
1 3942
1 3943
1 3944
1 3945
1 3946
1 3947
1 3948
1 3949
1 3950
1 3951
1 3952
1 3953
1 3954
1 3955
1 3956
1 3957
1 3958
1 3959
1 3960
1 3961
1 3962
1 3963
1 3964
1 3965
1 3966
1 3967
1 3968
1 3969
1 3970
1 3971
1 3972
1 3973
1 3974
1 3975
1 3976
1 3977
1 3978
1 3979
1 3980
1 3981
1 3982
1 3983
1 3984
1 3985
1 3986
1 3987
1 3988
1 3989
1 3990
1 3991
1 3992
1 3993
1 3994
1 3995
1 3996
1 3997
1 3998
1 3999
1 4000
1 4001
1 4002
1 4003
1 4004
1 4005
1 4006
1 4007
1 4008
1 4009
1 4010
1 4011
1 4012
1 4013
1 4014
1 4015
1 4016
1 4017
1 4018
1 4019
1 4020
1 4021
1 4022
1 4023
1 4024
1 4025
1 4026
1 4027
1 4028
1 4029
1 4030
1 4031
1 4032
1 4033
1 4034
1 4035
1 4036
1 4037
1 4038
1 4039
1 4040
1 4041
1 4042
1 4043
1 4044
1 4045
1 4046
1 4047
1 4048
1 4049
1 4050
1 4051
1 4052
1 4053
1 4054
1 4055
1 4056
1 4057
1 4058
1 4059
1 4060
1 4061
1 4062
1 4063
1 4064
1 4065
1 4066
1 4067
1 4068
1 4069
1 4070
1 4071
1 4072
1 4073
1 4074
1 4075
1 4076
1 4077
1 4078
1 4079
1 4080
1 4081
1 4082
1 4083
1 4084
1 4085
1 4086
1 4087
1 4088
1 4089
1 4090
1 4091
1 4092
1 4093
1 4094
1 4095
1 4096
1 4097
1 4098
1 4099
1 4100
1 4101
1 4102
1 4103
1 4104
1 4105
1 4106
1 4107
1 4108
1 4109
1 4110
1 4111
1 4112
1 4113
1 4114
1 4115
1 4116
1 4117
1 4118
1 4119
1 4120
1 4121
1 4122
1 4123
1 4124
1 4125
1 4126
1 4127
1 4128
1 4129
1 4130
1 4131
1 4132
1 4133
1 4134
1 4135
1 4136
1 4137
1 4138
1 4139
1 4140
1 4141
1 4142
1 4143
1 4144
1 4145
1 4146
1 4147
1 4148
1 4149
1 4150
1 4151
1 4152
1 4153
1 4154
1 4155
1 4156
1 4157
1 4158
1 4159
1 4160
1 4161
1 4162
1 4163
1 4164
1 4165
1 4166
1 4167
1 4168
1 4169
1 4170
1 4171
1 4172
1 4173
1 4174
1 4175
1 4176
1 4177
1 4178
1 4179
1 4180
1 4181
1 4182
1 4183
1 4184
1 4185
1 4186
1 4187
1 4188
1 4189
1 4190
1 4191
1 4192
1 4193
1 4194
1 4195
1 4196
1 4197
1 4198
1 4199
1 4200
1 4201
1 4202
1 4203
1 4204
1 4205
1 4206
1 4207
1 4208
1 4209
1 4210
1 4211
1 4212
1 4213
1 4214
1 4215
1 4216
1 4217
1 4218
1 4219
1 4220
1 4221
1 4222
1 4223
1 4224
1 4225
1 4226
1 4227
1 4228
1 4229
1 4230
1 4231
1 4232
1 4233
1 4234
1 4235
1 4236
1 4237
1 4238
1 4239
1 4240
1 4241
1 4242
1 4243
1 4244
1 4245
1 4246
1 4247
1 4248
1 4249
1 4250
1 4251
1 4252
1 4253
1 4254
1 4255
1 4256
1 4257
1 4258
1 4259
1 4260
1 4261
1 4262
1 4263
1 4264
1 4265
1 4266
1 4267
1 4268
1 4269
1 4270
1 4271
1 4272
1 4273
1 4274
1 4275
1 4276
1 4277
1 4278
1 4279
1 4280
1 4281
1 4282
1 4283
1 4284
1 4285
1 4286
1 4287
1 4288
1 4289
1 4290
1 4291
1 4292
1 4293
1 4294
1 4295
1 4296
1 4297
1 4298
1 4299
1 4300
1 4301
1 4302
1 4303
1 4304
1 4305
1 4306
1 4307
1 4308
1 4309
1 4310
1 4311
1 4312
1 4313
1 4314
1 4315
1 4316
1 4317
1 4318
1 4319
1 4320
1 4321
1 4322
1 4323
1 4324
1 4325
1 4326
1 4327
1 4328
1 4329
1 4330
1 4331
1 4332
1 4333
1 4334
1 4335
1 4336
1 4337
1 4338
1 4339
1 4340
1 4341
1 4342
1 4343
1 4344
1 4345
1 4346
1 4347
1 4348
1 4349
1 4350
1 4351
1 4352
1 4353
1 4354
1 4355
1 4356
1 4357
1 4358
1 4359
1 4360
1 4361
1 4362
1 4363
1 4364
1 4365
1 4366
1 4367
1 4368
1 4369
1 4370
1 4371
1 4372
1 4373
1 4374
1 4375
1 4376
1 4377
1 4378
1 4379
1 4380
1 4381
1 4382
1 4383
1 4384
1 4385
1 4386
1 4387
1 4388
1 4389
1 4390
1 4391
1 4392
1 4393
1 4394
1 4395
1 4396
1 4397
1 4398
1 4399
1 4400
1 4401
1 4402
1 4403
1 4404
1 4405
1 4406
1 4407
1 4408
1 4409
1 4410
1 4411
1 4412
1 4413
1 4414
1 4415
1 4416
1 4417
1 4418
1 4419
1 4420
1 4421
1 4422
1 4423
1 4424
1 4425
1 4426
1 4427
1 4428
1 4429
1 4430
1 4431
1 4432
1 4433
1 4434
1 4435
1 4436
1 4437
1 4438
1 4439
1 4440
1 4441
1 4442
1 4443
1 4444
1 4445
1 4446
1 4447
1 4448
1 4449
1 4450
1 4451
1 4452
1 4453
1 4454
1 4455
1 4456
1 4457
1 4458
1 4459
1 4460
1 4461
1 4462
1 4463
1 4464
1 4465
1 4466
1 4467
1 4468
1 4469
1 4470
1 4471
1 4472
1 4473
1 4474
1 4475
1 4476
1 4477
1 4478
1 4479
1 4480
1 4481
1 4482
1 4483
1 4484
1 4485
1 4486
1 4487
1 4488
1 4489
1 4490
1 4491
1 4492
1 4493
1 4494
1 4495
1 4496
1 4497
1 4498
1 4499
1 4500
1 4501
1 4502
1 4503
1 4504
1 4505
1 4506
1 4507
1 4508
1 4509
1 4510
1 4511
1 4512
1 4513
1 4514
1 4515
1 4516
1 4517
1 4518
1 4519
1 4520
1 4521
1 4522
1 4523
1 4524
1 4525
1 4526
1 4527
1 4528
1 4529
1 4530
1 4531
1 4532
1 4533
1 4534
1 4535
1 4536
1 4537
1 4538
1 4539
1 4540
1 4541
1 4542
1 4543
1 4544
1 4545
1 4546
1 4547
1 4548
1 4549
1 4550
1 4551
1 4552
1 4553
1 4554
1 4555
1 4556
1 4557
1 4558
1 4559
1 4560
1 4561
1 4562
1 4563
1 4564
1 4565
1 4566
1 4567
1 4568
1 4569
1 4570
1 4571
1 4572
1 4573
1 4574
1 4575
1 4576
1 4577
1 4578
1 4579
1 4580
1 4581
1 4582
1 4583
1 4584
1 4585
1 4586
1 4587
1 4588
1 4589
1 4590
1 4591
1 4592
1 4593
1 4594
1 4595
1 4596
1 4597
1 4598
1 4599
1 4600
1 4601
1 4602
1 4603
1 4604
1 4605
1 4606
1 4607
1 4608
1 4609
1 4610
1 4611
1 4612
1 4613
1 4614
1 4615
1 4616
1 4617
1 4618
1 4619
1 4620
1 4621
1 4622
1 4623
1 4624
1 4625
1 4626
1 4627
1 4628
1 4629
1 4630
1 4631
1 4632
1 4633
1 4634
1 4635
1 4636
1 4637
1 4638
1 4639
1 4640
1 4641
1 4642
1 4643
1 4644
1 4645
1 4646
1 4647
1 4648
1 4649
1 4650
1 4651
1 4652
1 4653
1 4654
1 4655
1 4656
1 4657
1 4658
1 4659
1 4660
1 4661
1 4662
1 4663
1 4664
1 4665
1 4666
1 4667
1 4668
1 4669
1 4670
1 4671
1 4672
1 4673
1 4674
1 4675
1 4676
1 4677
1 4678
1 4679
1 4680
1 4681
1 4682
1 4683
1 4684
1 4685
1 4686
1 4687
1 4688
1 4689
1 4690
1 4691
1 4692
1 4693
1 4694
1 4695
1 4696
1 4697
1 4698
1 4699
1 4700
1 4701
1 4702
1 4703
1 4704
1 4705
1 4706
1 4707
1 4708
1 4709
1 4710
1 4711
1 4712
1 4713
1 4714
1 4715
1 4716
1 4717
1 4718
1 4719
1 4720
1 4721
1 4722
1 4723
1 4724
1 4725
1 4726
1 4727
1 4728
1 4729
1 4730
1 4731
1 4732
1 4733
1 4734
1 4735
1 4736
1 4737
1 4738
1 4739
1 4740
1 4741
1 4742
1 4743
1 4744
1 4745
1 4746
1 4747
1 4748
1 4749
1 4750
1 4751
1 4752
1 4753
1 4754
1 4755
1 4756
1 4757
1 4758
1 4759
1 4760
1 4761
1 4762
1 4763
1 4764
1 4765
1 4766
1 4767
1 4768
1 4769
1 4770
1 4771
1 4772
1 4773
1 4774
1 4775
1 4776
1 4777
1 4778
1 4779
1 4780
1 4781
1 4782
1 4783
1 4784
1 4785
1 4786
1 4787
1 4788
1 4789
1 4790
1 4791
1 4792
1 4793
1 4794
1 4795
1 4796
1 4797
1 4798
1 4799
1 4800
1 4801
1 4802
1 4803
1 4804
1 4805
1 4806
1 4807
1 4808
1 4809
1 4810
1 4811
1 4812
1 4813
1 4814
1 4815
1 4816
1 4817
1 4818
1 4819
1 4820
1 4821
1 4822
1 4823
1 4824
1 4825
1 4826
1 4827
1 4828
1 4829
1 4830
1 4831
1 4832
1 4833
1 4834
1 4835
1 4836
1 4837
1 4838
1 4839
1 4840
1 4841
1 4842
1 4843
1 4844
1 4845
1 4846
1 4847
1 4848
1 4849
1 4850
1 4851
1 4852
1 4853
1 4854
1 4855
1 4856
1 4857
1 4858
1 4859
1 4860
1 4861
1 4862
1 4863
1 4864
1 4865
1 4866
1 4867
1 4868
1 4869
1 4870
1 4871
1 4872
1 4873
1 4874
1 4875
1 4876
1 4877
1 4878
1 4879
1 4880
1 4881
1 4882
1 4883
1 4884
1 4885
1 4886
1 4887
1 4888
1 4889
1 4890
1 4891
1 4892
1 4893
1 4894
1 4895
1 4896
1 4897
1 4898
1 4899
1 4900
1 4901
1 4902
1 4903
1 4904
1 4905
1 4906
1 4907
1 4908
1 4909
1 4910
1 4911
1 4912
1 4913
1 4914
1 4915
1 4916
1 4917
1 4918
1 4919
1 4920
1 4921
1 4922
1 4923
1 4924
1 4925
1 4926
1 4927
1 4928
1 4929
1 4930
1 4931
1 4932
1 4933
1 4934
1 4935
1 4936
1 4937
1 4938
1 4939
1 4940
1 4941
1 4942
1 4943
1 4944
1 4945
1 4946
1 4947
1 4948
1 4949
1 4950
1 4951
1 4952
1 4953
1 4954
1 4955
1 4956
1 4957
1 4958
1 4959
1 4960
1 4961
1 4962
1 4963
1 4964
1 4965
1 4966
1 4967
1 4968
1 4969
1 4970
1 4971
1 4972
1 4973
1 4974
1 4975
1 4976
1 4977
1 4978
1 4979
1 4980
1 4981
1 4982
1 4983
1 4984
1 4985
1 4986
1 4987
1 4988
1 4989
1 4990
1 4991
1 4992
1 4993
1 4994
1 4995
1 4996
1 4997
1 4998
1 4999
CELL_TYPES 5000
1 
1 
1 
1 
1 
1 
1 
1 
1 
1 
1 
1 
1 
1 
1 
1 
1 
1 
1 
1 
1 
1 
1 
1 
1 
1 
1 
1 
1 
1 
1 
1 
1 
1 
1 
1 
1 
1 
1 
1 
1 
1 
1 
1 
1 
1 
1 
1 
1 
1 
1 
1 
1 
1 
1 
1 
1 
1 
1 
1 
1 
1 
1 
1 
1 
1 
1 
1 
1 
1 
1 
1 
1 
1 
1 
1 
1 
1 
1 
1 
1 
1 
1 
1 
1 
1 
1 
1 
1 
1 
1 
1 
1 
1 
1 
1 
1 
1 
1 
1 
1 
1 
1 
1 
1 
1 
1 
1 
1 
1 
1 
1 
1 
1 
1 
1 
1 
1 
1 
1 
1 
1 
1 
1 
1 
1 
1 
1 
1 
1 
1 
1 
1 
1 
1 
1 
1 
1 
1 
1 
1 
1 
1 
1 
1 
1 
1 
1 
1 
1 
1 
1 
1 
1 
1 
1 
1 
1 
1 
1 
1 
1 
1 
1 
1 
1 
1 
1 
1 
1 
1 
1 
1 
1 
1 
1 
1 
1 
1 
1 
1 
1 
1 
1 
1 
1 
1 
1 
1 
1 
1 
1 
1 
1 
1 
1 
1 
1 
1 
1 
1 
1 
1 
1 
1 
1 
1 
1 
1 
1 
1 
1 
1 
1 
1 
1 
1 
1 
1 
1 
1 
1 
1 
1 
1 
1 
1 
1 
1 
1 
1 
1 
1 
1 
1 
1 
1 
1 
1 
1 
1 
1 
1 
1 
1 
1 
1 
1 
1 
1 
1 
1 
1 
1 
1 
1 
1 
1 
1 
1 
1 
1 
1 
1 
1 
1 
1 
1 
1 
1 
1 
1 
1 
1 
1 
1 
1 
1 
1 
1 
1 
1 
1 
1 
1 
1 
1 
1 
1 
1 
1 
1 
1 
1 
1 
1 
1 
1 
1 
1 
1 
1 
1 
1 
1 
1 
1 
1 
1 
1 
1 
1 
1 
1 
1 
1 
1 
1 
1 
1 
1 
1 
1 
1 
1 
1 
1 
1 
1 
1 
1 
1 
1 
1 
1 
1 
1 
1 
1 
1 
1 
1 
1 
1 
1 
1 
1 
1 
1 
1 
1 
1 
1 
1 
1 
1 
1 
1 
1 
1 
1 
1 
1 
1 
1 
1 
1 
1 
1 
1 
1 
1 
1 
1 
1 
1 
1 
1 
1 
1 
1 
1 
1 
1 
1 
1 
1 
1 
1 
1 
1 
1 
1 
1 
1 
1 
1 
1 
1 
1 
1 
1 
1 
1 
1 
1 
1 
1 
1 
1 
1 
1 
1 
1 
1 
1 
1 
1 
1 
1 
1 
1 
1 
1 
1 
1 
1 
1 
1 
1 
1 
1 
1 
1 
1 
1 
1 
1 
1 
1 
1 
1 
1 
1 
1 
1 
1 
1 
1 
1 
1 
1 
1 
1 
1 
1 
1 
1 
1 
1 
1 
1 
1 
1 
1 
1 
1 
1 
1 
1 
1 
1 
1 
1 
1 
1 
1 
1 
1 
1 
1 
1 
1 
1 
1 
1 
1 
1 
1 
1 
1 
1 
1 
1 
1 
1 
1 
1 
1 
1 
1 
1 
1 
1 
1 
1 
1 
1 
1 
1 
1 
1 
1 
1 
1 
1 
1 
1 
1 
1 
1 
1 
1 
1 
1 
1 
1 
1 
1 
1 
1 
1 
1 
1 
1 
1 
1 
1 
1 
1 
1 
1 
1 
1 
1 
1 
1 
1 
1 
1 
1 
1 
1 
1 
1 
1 
1 
1 
1 
1 
1 
1 
1 
1 
1 
1 
1 
1 
1 
1 
1 
1 
1 
1 
1 
1 
1 
1 
1 
1 
1 
1 
1 
1 
1 
1 
1 
1 
1 
1 
1 
1 
1 
1 
1 
1 
1 
1 
1 
1 
1 
1 
1 
1 
1 
1 
1 
1 
1 
1 
1 
1 
1 
1 
1 
1 
1 
1 
1 
1 
1 
1 
1 
1 
1 
1 
1 
1 
1 
1 
1 
1 
1 
1 
1 
1 
1 
1 
1 
1 
1 
1 
1 
1 
1 
1 
1 
1 
1 
1 
1 
1 
1 
1 
1 
1 
1 
1 
1 
1 
1 
1 
1 
1 
1 
1 
1 
1 
1 
1 
1 
1 
1 
1 
1 
1 
1 
1 
1 
1 
1 
1 
1 
1 
1 
1 
1 
1 
1 
1 
1 
1 
1 
1 
1 
1 
1 
1 
1 
1 
1 
1 
1 
1 
1 
1 
1 
1 
1 
1 
1 
1 
1 
1 
1 
1 
1 
1 
1 
1 
1 
1 
1 
1 
1 
1 
1 
1 
1 
1 
1 
1 
1 
1 
1 
1 
1 
1 
1 
1 
1 
1 
1 
1 
1 
1 
1 
1 
1 
1 
1 
1 
1 
1 
1 
1 
1 
1 
1 
1 
1 
1 
1 
1 
1 
1 
1 
1 
1 
1 
1 
1 
1 
1 
1 
1 
1 
1 
1 
1 
1 
1 
1 
1 
1 
1 
1 
1 
1 
1 
1 
1 
1 
1 
1 
1 
1 
1 
1 
1 
1 
1 
1 
1 
1 
1 
1 
1 
1 
1 
1 
1 
1 
1 
1 
1 
1 
1 
1 
1 
1 
1 
1 
1 
1 
1 
1 
1 
1 
1 
1 
1 
1 
1 
1 
1 
1 
1 
1 
1 
1 
1 
1 
1 
1 
1 
1 
1 
1 
1 
1 
1 
1 
1 
1 
1 
1 
1 
1 
1 
1 
1 
1 
1 
1 
1 
1 
1 
1 
1 
1 
1 
1 
1 
1 
1 
1 
1 
1 
1 
1 
1 
1 
1 
1 
1 
1 
1 
1 
1 
1 
1 
1 
1 
1 
1 
1 
1 
1 
1 
1 
1 
1 
1 
1 
1 
1 
1 
1 
1 
1 
1 
1 
1 
1 
1 
1 
1 
1 
1 
1 
1 
1 
1 
1 
1 
1 
1 
1 
1 
1 
1 
1 
1 
1 
1 
1 
1 
1 
1 
1 
1 
1 
1 
1 
1 
1 
1 
1 
1 
1 
1 
1 
1 
1 
1 
1 
1 
1 
1 
1 
1 
1 
1 
1 
1 
1 
1 
1 
1 
1 
1 
1 
1 
1 
1 
1 
1 
1 
1 
1 
1 
1 
1 
1 
1 
1 
1 
1 
1 
1 
1 
1 
1 
1 
1 
1 
1 
1 
1 
1 
1 
1 
1 
1 
1 
1 
1 
1 
1 
1 
1 
1 
1 
1 
1 
1 
1 
1 
1 
1 
1 
1 
1 
1 
1 
1 
1 
1 
1 
1 
1 
1 
1 
1 
1 
1 
1 
1 
1 
1 
1 
1 
1 
1 
1 
1 
1 
1 
1 
1 
1 
1 
1 
1 
1 
1 
1 
1 
1 
1 
1 
1 
1 
1 
1 
1 
1 
1 
1 
1 
1 
1 
1 
1 
1 
1 
1 
1 
1 
1 
1 
1 
1 
1 
1 
1 
1 
1 
1 
1 
1 
1 
1 
1 
1 
1 
1 
1 
1 
1 
1 
1 
1 
1 
1 
1 
1 
1 
1 
1 
1 
1 
1 
1 
1 
1 
1 
1 
1 
1 
1 
1 
1 
1 
1 
1 
1 
1 
1 
1 
1 
1 
1 
1 
1 
1 
1 
1 
1 
1 
1 
1 
1 
1 
1 
1 
1 
1 
1 
1 
1 
1 
1 
1 
1 
1 
1 
1 
1 
1 
1 
1 
1 
1 
1 
1 
1 
1 
1 
1 
1 
1 
1 
1 
1 
1 
1 
1 
1 
1 
1 
1 
1 
1 
1 
1 
1 
1 
1 
1 
1 
1 
1 
1 
1 
1 
1 
1 
1 
1 
1 
1 
1 
1 
1 
1 
1 
1 
1 
1 
1 
1 
1 
1 
1 
1 
1 
1 
1 
1 
1 
1 
1 
1 
1 
1 
1 
1 
1 
1 
1 
1 
1 
1 
1 
1 
1 
1 
1 
1 
1 
1 
1 
1 
1 
1 
1 
1 
1 
1 
1 
1 
1 
1 
1 
1 
1 
1 
1 
1 
1 
1 
1 
1 
1 
1 
1 
1 
1 
1 
1 
1 
1 
1 
1 
1 
1 
1 
1 
1 
1 
1 
1 
1 
1 
1 
1 
1 
1 
1 
1 
1 
1 
1 
1 
1 
1 
1 
1 
1 
1 
1 
1 
1 
1 
1 
1 
1 
1 
1 
1 
1 
1 
1 
1 
1 
1 
1 
1 
1 
1 
1 
1 
1 
1 
1 
1 
1 
1 
1 
1 
1 
1 
1 
1 
1 
1 
1 
1 
1 
1 
1 
1 
1 
1 
1 
1 
1 
1 
1 
1 
1 
1 
1 
1 
1 
1 
1 
1 
1 
1 
1 
1 
1 
1 
1 
1 
1 
1 
1 
1 
1 
1 
1 
1 
1 
1 
1 
1 
1 
1 
1 
1 
1 
1 
1 
1 
1 
1 
1 
1 
1 
1 
1 
1 
1 
1 
1 
1 
1 
1 
1 
1 
1 
1 
1 
1 
1 
1 
1 
1 
1 
1 
1 
1 
1 
1 
1 
1 
1 
1 
1 
1 
1 
1 
1 
1 
1 
1 
1 
1 
1 
1 
1 
1 
1 
1 
1 
1 
1 
1 
1 
1 
1 
1 
1 
1 
1 
1 
1 
1 
1 
1 
1 
1 
1 
1 
1 
1 
1 
1 
1 
1 
1 
1 
1 
1 
1 
1 
1 
1 
1 
1 
1 
1 
1 
1 
1 
1 
1 
1 
1 
1 
1 
1 
1 
1 
1 
1 
1 
1 
1 
1 
1 
1 
1 
1 
1 
1 
1 
1 
1 
1 
1 
1 
1 
1 
1 
1 
1 
1 
1 
1 
1 
1 
1 
1 
1 
1 
1 
1 
1 
1 
1 
1 
1 
1 
1 
1 
1 
1 
1 
1 
1 
1 
1 
1 
1 
1 
1 
1 
1 
1 
1 
1 
1 
1 
1 
1 
1 
1 
1 
1 
1 
1 
1 
1 
1 
1 
1 
1 
1 
1 
1 
1 
1 
1 
1 
1 
1 
1 
1 
1 
1 
1 
1 
1 
1 
1 
1 
1 
1 
1 
1 
1 
1 
1 
1 
1 
1 
1 
1 
1 
1 
1 
1 
1 
1 
1 
1 
1 
1 
1 
1 
1 
1 
1 
1 
1 
1 
1 
1 
1 
1 
1 
1 
1 
1 
1 
1 
1 
1 
1 
1 
1 
1 
1 
1 
1 
1 
1 
1 
1 
1 
1 
1 
1 
1 
1 
1 
1 
1 
1 
1 
1 
1 
1 
1 
1 
1 
1 
1 
1 
1 
1 
1 
1 
1 
1 
1 
1 
1 
1 
1 
1 
1 
1 
1 
1 
1 
1 
1 
1 
1 
1 
1 
1 
1 
1 
1 
1 
1 
1 
1 
1 
1 
1 
1 
1 
1 
1 
1 
1 
1 
1 
1 
1 
1 
1 
1 
1 
1 
1 
1 
1 
1 
1 
1 
1 
1 
1 
1 
1 
1 
1 
1 
1 
1 
1 
1 
1 
1 
1 
1 
1 
1 
1 
1 
1 
1 
1 
1 
1 
1 
1 
1 
1 
1 
1 
1 
1 
1 
1 
1 
1 
1 
1 
1 
1 
1 
1 
1 
1 
1 
1 
1 
1 
1 
1 
1 
1 
1 
1 
1 
1 
1 
1 
1 
1 
1 
1 
1 
1 
1 
1 
1 
1 
1 
1 
1 
1 
1 
1 
1 
1 
1 
1 
1 
1 
1 
1 
1 
1 
1 
1 
1 
1 
1 
1 
1 
1 
1 
1 
1 
1 
1 
1 
1 
1 
1 
1 
1 
1 
1 
1 
1 
1 
1 
1 
1 
1 
1 
1 
1 
1 
1 
1 
1 
1 
1 
1 
1 
1 
1 
1 
1 
1 
1 
1 
1 
1 
1 
1 
1 
1 
1 
1 
1 
1 
1 
1 
1 
1 
1 
1 
1 
1 
1 
1 
1 
1 
1 
1 
1 
1 
1 
1 
1 
1 
1 
1 
1 
1 
1 
1 
1 
1 
1 
1 
1 
1 
1 
1 
1 
1 
1 
1 
1 
1 
1 
1 
1 
1 
1 
1 
1 
1 
1 
1 
1 
1 
1 
1 
1 
1 
1 
1 
1 
1 
1 
1 
1 
1 
1 
1 
1 
1 
1 
1 
1 
1 
1 
1 
1 
1 
1 
1 
1 
1 
1 
1 
1 
1 
1 
1 
1 
1 
1 
1 
1 
1 
1 
1 
1 
1 
1 
1 
1 
1 
1 
1 
1 
1 
1 
1 
1 
1 
1 
1 
1 
1 
1 
1 
1 
1 
1 
1 
1 
1 
1 
1 
1 
1 
1 
1 
1 
1 
1 
1 
1 
1 
1 
1 
1 
1 
1 
1 
1 
1 
1 
1 
1 
1 
1 
1 
1 
1 
1 
1 
1 
1 
1 
1 
1 
1 
1 
1 
1 
1 
1 
1 
1 
1 
1 
1 
1 
1 
1 
1 
1 
1 
1 
1 
1 
1 
1 
1 
1 
1 
1 
1 
1 
1 
1 
1 
1 
1 
1 
1 
1 
1 
1 
1 
1 
1 
1 
1 
1 
1 
1 
1 
1 
1 
1 
1 
1 
1 
1 
1 
1 
1 
1 
1 
1 
1 
1 
1 
1 
1 
1 
1 
1 
1 
1 
1 
1 
1 
1 
1 
1 
1 
1 
1 
1 
1 
1 
1 
1 
1 
1 
1 
1 
1 
1 
1 
1 
1 
1 
1 
1 
1 
1 
1 
1 
1 
1 
1 
1 
1 
1 
1 
1 
1 
1 
1 
1 
1 
1 
1 
1 
1 
1 
1 
1 
1 
1 
1 
1 
1 
1 
1 
1 
1 
1 
1 
1 
1 
1 
1 
1 
1 
1 
1 
1 
1 
1 
1 
1 
1 
1 
1 
1 
1 
1 
1 
1 
1 
1 
1 
1 
1 
1 
1 
1 
1 
1 
1 
1 
1 
1 
1 
1 
1 
1 
1 
1 
1 
1 
1 
1 
1 
1 
1 
1 
1 
1 
1 
1 
1 
1 
1 
1 
1 
1 
1 
1 
1 
1 
1 
1 
1 
1 
1 
1 
1 
1 
1 
1 
1 
1 
1 
1 
1 
1 
1 
1 
1 
1 
1 
1 
1 
1 
1 
1 
1 
1 
1 
1 
1 
1 
1 
1 
1 
1 
1 
1 
1 
1 
1 
1 
1 
1 
1 
1 
1 
1 
1 
1 
1 
1 
1 
1 
1 
1 
1 
1 
1 
1 
1 
1 
1 
1 
1 
1 
1 
1 
1 
1 
1 
1 
1 
1 
1 
1 
1 
1 
1 
1 
1 
1 
1 
1 
1 
1 
1 
1 
1 
1 
1 
1 
1 
1 
1 
1 
1 
1 
1 
1 
1 
1 
1 
1 
1 
1 
1 
1 
1 
1 
1 
1 
1 
1 
1 
1 
1 
1 
1 
1 
1 
1 
1 
1 
1 
1 
1 
1 
1 
1 
1 
1 
1 
1 
1 
1 
1 
1 
1 
1 
1 
1 
1 
1 
1 
1 
1 
1 
1 
1 
1 
1 
1 
1 
1 
1 
1 
1 
1 
1 
1 
1 
1 
1 
1 
1 
1 
1 
1 
1 
1 
1 
1 
1 
1 
1 
1 
1 
1 
1 
1 
1 
1 
1 
1 
1 
1 
1 
1 
1 
1 
1 
1 
1 
1 
1 
1 
1 
1 
1 
1 
1 
1 
1 
1 
1 
1 
1 
1 
1 
1 
1 
1 
1 
1 
1 
1 
1 
1 
1 
1 
1 
1 
1 
1 
1 
1 
1 
1 
1 
1 
1 
1 
1 
1 
1 
1 
1 
1 
1 
1 
1 
1 
1 
1 
1 
1 
1 
1 
1 
1 
1 
1 
1 
1 
1 
1 
1 
1 
1 
1 
1 
1 
1 
1 
1 
1 
1 
1 
1 
1 
1 
1 
1 
1 
1 
1 
1 
1 
1 
1 
1 
1 
1 
1 
1 
1 
1 
1 
1 
1 
1 
1 
1 
1 
1 
1 
1 
1 
1 
1 
1 
1 
1 
1 
1 
1 
1 
1 
1 
1 
1 
1 
1 
1 
1 
1 
1 
1 
1 
1 
1 
1 
1 
1 
1 
1 
1 
1 
1 
1 
1 
1 
1 
1 
1 
1 
1 
1 
1 
1 
1 
1 
1 
1 
1 
1 
1 
1 
1 
1 
1 
1 
1 
1 
1 
1 
1 
1 
1 
1 
1 
1 
1 
1 
1 
1 
1 
1 
1 
1 
1 
1 
1 
1 
1 
1 
1 
1 
1 
1 
1 
1 
1 
1 
1 
1 
1 
1 
1 
1 
1 
1 
1 
1 
1 
1 
1 
1 
1 
1 
1 
1 
1 
1 
1 
1 
1 
1 
1 
1 
1 
1 
1 
1 
1 
1 
1 
1 
1 
1 
1 
1 
1 
1 
1 
1 
1 
1 
1 
1 
1 
1 
1 
1 
1 
1 
1 
1 
1 
1 
1 
1 
1 
1 
1 
1 
1 
1 
1 
1 
1 
1 
1 
1 
1 
1 
1 
1 
1 
1 
1 
1 
1 
1 
1 
1 
1 
1 
1 
1 
1 
1 
1 
1 
1 
1 
1 
1 
1 
1 
1 
1 
1 
1 
1 
1 
1 
1 
1 
1 
1 
1 
1 
1 
1 
1 
1 
1 
1 
1 
1 
1 
1 
1 
1 
1 
1 
1 
1 
1 
1 
1 
1 
1 
1 
1 
1 
1 
1 
1 
1 
1 
1 
1 
1 
1 
1 
1 
1 
1 
1 
1 
1 
1 
1 
1 
1 
1 
1 
1 
1 
1 
1 
1 
1 
1 
1 
1 
1 
1 
1 
1 
1 
1 
1 
1 
1 
1 
1 
1 
1 
1 
1 
1 
1 
1 
1 
1 
1 
1 
1 
1 
1 
1 
1 
1 
1 
1 
1 
1 
1 
1 
1 
1 
1 
1 
1 
1 
1 
1 
1 
1 
1 
1 
1 
1 
1 
1 
1 
1 
1 
1 
1 
1 
1 
1 
1 
1 
1 
1 
1 
1 
1 
1 
1 
1 
1 
1 
1 
1 
1 
1 
1 
1 
1 
1 
1 
1 
1 
1 
1 
1 
1 
1 
1 
1 
1 
1 
1 
1 
1 
1 
1 
1 
1 
1 
1 
1 
1 
1 
1 
1 
1 
1 
1 
1 
1 
1 
1 
1 
1 
1 
1 
1 
1 
1 
1 
1 
1 
1 
1 
1 
1 
1 
1 
1 
1 
1 
1 
1 
1 
1 
1 
1 
1 
1 
1 
1 
1 
1 
1 
1 
1 
1 
1 
1 
1 
1 
1 
1 
1 
1 
1 
1 
1 
1 
1 
1 
1 
1 
1 
1 
1 
1 
1 
1 
1 
1 
1 
1 
1 
1 
1 
1 
1 
1 
1 
1 
1 
1 
1 
1 
1 
1 
1 
1 
1 
1 
1 
1 
1 
1 
1 
1 
1 
1 
1 
1 
1 
1 
1 
1 
1 
1 
1 
1 
1 
1 
1 
1 
1 
1 
1 
1 
1 
1 
1 
1 
1 
1 
1 
1 
1 
1 
1 
1 
1 
1 
1 
1 
1 
1 
1 
1 
1 
1 
1 
1 
1 
1 
1 
1 
1 
1 
1 
1 
1 
1 
1 
1 
1 
1 
1 
1 
1 
1 
1 
1 
1 
1 
1 
1 
1 
1 
1 
1 
1 
1 
1 
1 
1 
1 
1 
1 
1 
1 
1 
1 
1 
1 
1 
1 
1 
1 
1 
1 
1 
1 
1 
1 
1 
1 
1 
1 
1 
1 
1 
1 
1 
1 
1 
1 
1 
1 
1 
1 
1 
1 
1 
1 
1 
1 
1 
1 
1 
1 
1 
1 
1 
1 
1 
1 
1 
1 
1 
1 
1 
1 
1 
1 
1 
1 
1 
1 
1 
1 
1 
1 
1 
1 
1 
1 
1 
1 
1 
1 
1 
1 
1 
1 
1 
1 
1 
1 
1 
1 
1 
1 
1 
1 
1 
1 
1 
1 
1 
1 
1 
1 
1 
1 
1 
1 
1 
1 
1 
1 
1 
1 
1 
1 
1 
1 
1 
1 
1 
1 
1 
1 
1 
1 
1 
1 
1 
1 
1 
1 
1 
1 
1 
1 
1 
1 
1 
1 
1 
1 
1 
1 
1 
1 
1 
1 
1 
1 
1 
1 
1 
1 
1 
1 
1 
1 
1 
1 
1 
1 
1 
1 
1 
1 
1 
1 
1 
1 
1 
1 
1 
1 
1 
1 
1 
1 
1 
1 
1 
1 
1 
1 
1 
1 
1 
1 
1 
1 
1 
1 
1 
1 
1 
1 
1 
1 
1 
1 
1 
1 
1 
1 
1 
1 
1 
1 
1 
1 
1 
1 
1 
1 
1 
1 
1 
1 
1 
1 
1 
1 
1 
1 
1 
1 
1 
1 
1 
1 
1 
1 
1 
1 
1 
1 
1 
1 
1 
1 
1 
1 
1 
1 
1 
1 
1 
1 
1 
1 
1 
1 
1 
1 
1 
1 
1 
1 
1 
1 
1 
1 
1 
1 
1 
1 
1 
1 
1 
1 
1 
1 
1 
1 
1 
1 
1 
1 
1 
1 
1 
1 
1 
1 
1 
1 
1 
1 
1 
1 
1 
1 
1 
1 
1 
1 
1 
1 
1 
1 
1 
1 
1 
1 
1 
1 
1 
1 
1 
1 
1 
1 
1 
1 
1 
1 
1 
1 
1 
1 
1 
1 
1 
1 
1 
1 
1 
1 
1 
1 
1 
1 
1 
1 
1 
1 
1 
1 
1 
1 
1 
1 
1 
1 
1 
1 
1 
1 
1 
1 
1 
1 
1 
1 
1 
1 
1 
1 
1 
1 
1 
1 
1 
1 
1 
1 
1 
1 
1 
1 
1 
1 
1 
1 
1 
1 
1 
1 
1 
1 
1 
1 
1 
1 
1 
1 
1 
1 
1 
1 
1 
1 
1 
1 
1 
1 
1 
1 
1 
1 
1 
1 
1 
1 
1 
1 
1 
1 
1 
1 
1 
1 
1 
1 
1 
1 
1 
1 
1 
1 
1 
1 
1 
1 
1 
1 
1 
1 
1 
1 
1 
1 
1 
1 
1 
1 
1 
1 
1 
1 
1 
1 
1 
1 
1 
1 
1 
1 
1 
1 
1 
1 
1 
1 
1 
1 
1 
1 
1 
1 
1 
1 
1 
1 
1 
1 
1 
1 
1 
1 
1 
1 
1 
1 
1 
1 
1 
1 
1 
1 
1 
1 
1 
1 
1 
1 
1 
1 
1 
1 
1 
1 
1 
1 
1 
1 
1 
1 
1 
1 
1 
1 
1 
1 
1 
1 
1 
1 
1 
1 
1 
1 
1 
1 
1 
1 
1 
1 
1 
1 
1 
1 
1 
1 
1 
1 
1 
1 
1 
1 
1 
1 
1 
1 
1 
1 
1 
1 
1 
1 
1 
1 
1 
1 
1 
1 
1 
1 
1 
1 
1 
1 
1 
1 
1 
1 
1 
1 
1 
1 
1 
1 
1 
1 
1 
1 
1 
1 
1 
1 
1 
1 
1 
1 
1 
1 
1 
1 
1 
1 
1 
1 
1 
1 
1 
1 
1 
1 
1 
1 
1 
1 
1 
1 
1 
1 
1 
1 
1 
1 
1 
1 
1 
1 
1 
1 
1 
1 
1 
1 
1 
1 
1 
1 
1 
1 
1 
1 
1 
1 
1 
1 
1 
1 
1 
1 
1 
1 
1 
1 
1 
1 
1 
1 
1 
1 
1 
1 
1 
1 
1 
1 
1 
1 
1 
1 
1 
1 
1 
1 
1 
1 
1 
1 
1 
1 
1 
1 
1 
1 
1 
1 
1 
1 
1 
1 
1 
1 
1 
1 
1 
1 
1 
1 
1 
1 
1 
1 
1 
1 
1 
1 
1 
1 
1 
1 
1 
1 
1 
1 
1 
1 
1 
1 
1 
1 
1 
1 
1 
1 
1 
1 
1 
1 
1 
1 
1 
1 
1 
1 
1 
1 
1 
1 
1 
1 
1 
1 
1 
1 
1 
1 
1 
1 
1 
1 
1 
1 
1 
1 
1 
1 
1 
1 
1 
1 
1 
1 
1 
1 
1 
1 
1 
1 
1 
1 
1 
1 
1 
1 
1 
1 
1 
1 
1 
1 
1 
1 
1 
1 
1 
1 
1 
1 
1 
1 
1 
1 
1 
1 
1 
1 
1 
1 
1 
1 
1 
1 
1 
1 
1 
1 
1 
1 
1 
1 
1 
1 
1 
1 
1 
1 
1 
1 
1 
1 
1 
1 
1 
1 
1 
1 
1 
1 
1 
1 
1 
1 
1 
1 
1 
1 
1 
1 
1 
1 
1 
1 
1 
1 
1 
1 
1 
1 
1 
1 
1 
1 
1 
1 
1 
1 
1 
1 
1 
1 
1 
1 
1 
1 
1 
1 
1 
1 
1 
1 
1 
1 
1 
1 
1 
1 
1 
1 
1 
1 
1 
1 
1 
1 
1 
1 
1 
1 
1 
1 
1 
1 
1 
1 
1 
1 
1 
1 
1 
1 
1 
1 
1 
1 
1 
1 
1 
1 
1 
1 
1 
1 
1 
1 
1 
1 
1 
1 
1 
1 
1 
1 
1 
1 
1 
1 
1 
1 
1 
1 
1 
1 
1 
1 
1 
1 
1 
1 
1 
1 
1 
1 
1 
1 
1 
1 
1 
1 
1 
1 
1 
1 
1 
1 
1 
1 
1 
1 
1 
1 
1 
1 
1 
1 
1 
1 
1 
1 
1 
1 
1 
1 
1 
1 
1 
1 
1 
1 
1 
1 
1 
1 
1 
1 
1 
1 
1 
1 
1 
1 
1 
1 
1 
1 
1 
1 
1 
1 
1 
1 
1 
1 
1 
1 
1 
1 
1 
1 
1 
1 
1 
1 
1 
1 
1 
1 
1 
1 
1 
1 
1 
1 
1 
1 
1 
1 
1 
1 
1 
1 
1 
1 
1 
1 
1 
1 
1 
1 
1 
1 
1 
1 
1 
1 
1 
1 
1 
1 
1 
1 
1 
1 
1 
1 
1 
1 
1 
1 
1 
1 
1 
1 
1 
1 
1 
1 
1 
1 
1 
1 
1 
1 
1 
1 
1 
1 
1 
1 
1 
1 
1 
1 
1 
1 
1 
1 
1 
1 
1 
1 
1 
1 
1 
1 
1 
1 
1 
1 
1 
1 
1 
1 
1 
1 
1 
1 
1 
1 
1 
1 
1 
1 
1 
1 
1 
1 
1 
1 
1 
1 
1 
1 
1 
1 
1 
1 
1 
1 
1 
1 
1 
1 
1 
1 
1 
1 
1 
1 
1 
1 
1 
1 
1 
1 
1 
1 
1 
1 
1 
1 
1 
1 
1 
1 
1 
1 
1 
1 
1 
1 
1 
1 
1 
1 
1 
1 
1 
1 
1 
1 
1 
1 
1 
1 
1 
1 
1 
1 
1 
1 
1 
1 
1 
1 
1 
1 
1 
1 
1 
1 
1 
1 
1 
1 
1 
1 
1 
1 
1 
1 
1 
1 
1 
1 
1 
1 
1 
1 
1 
1 
1 
1 
1 
1 
1 
1 
1 
1 
1 
1 
1 
1 
1 
1 
1 
1 
1 
1 
1 
1 
1 
1 
1 
1 
1 
1 
1 
1 
1 
1 
1 
1 
1 
1 
1 
1 
1 
1 
1 
1 
1 
1 
1 
1 
1 
1 
1 
1 
1 
1 
1 
1 
1 
1 
1 
1 
1 
1 
1 
1 
1 
1 
1 
1 
1 
1 
1 
1 
1 
1 
1 
1 
1 
1 
1 
1 
1 
1 
1 
1 
1 
1 
1 
1 
1 
1 
1 
1 
1 
1 
1 
1 
1 
1 
1 
1 
1 
1 
1 
1 
1 
1 
1 
1 
1 
1 
1 
1 
1 
1 
1 
1 
1 
1 
1 
1 
1 
1 
1 
1 
1 
1 
1 
1 
1 
1 
1 
1 
1 
1 
1 
1 
1 
1 
1 
1 
1 
1 
1 
1 
1 
1 
1 
1 
1 
1 
1 
1 
1 
1 
1 
1 
1 
1 
1 
1 
1 
1 
1 
1 
1 
1 
1 
1 
1 
1 
1 
1 
1 
1 
1 
1 
1 
1 
1 
1 
1 
1 
1 
1 
1 
1 
1 
1 
1 
1 
1 
1 
1 
1 
1 
1 
1 
1 
1 
1 
1 
1 
1 
1 
1 
1 
1 
1 
1 
1 
1 
1 
1 
1 
1 
1 
1 
1 
1 
1 
1 
1 
1 
1 
1 
1 
1 
1 
1 
1 
1 
1 
1 
1 
1 
1 
1 
1 
1 
1 
1 
1 
1 
1 
1 
1 
1 
1 
1 
1 
1 
1 
1 
1 
1 
1 
1 
1 
1 
1 
1 
1 
1 
1 
1 
1 
1 
1 
1 
1 
1 
1 
1 
1 
1 
1 
1 
1 
1 
1 
1 
1 
1 
1 
1 
1 
1 
1 
1 
1 
1 
1 
1 
1 
1 
1 
1 
1 
1 
1 
1 
1 
1 
1 
1 
1 
1 
1 
1 
1 
1 
1 
1 
1 
1 
1 
1 
1 
1 
1 
1 
1 
1 
1 
1 
1 
1 
1 
1 
1 
1 
1 
1 
1 
1 
1 
1 
1 
1 
1 
1 
1 
1 
1 
1 
1 
1 
1 
1 
1 
1 
1 
1 
1 
1 
1 
1 
1 
1 
1 
1 
1 
1 
1 
1 
1 
1 
1 
1 
1 
1 
1 
1 
1 
1 
1 
1 
1 
1 
1 
1 
1 
1 
1 
1 
1 
1 
1 
1 
1 
1 
1 
1 
1 
1 
1 
1 
1 
1 
1 
1 
1 
1 
1 
1 
1 
1 
1 
1 
1 
1 
1 
1 
1 
1 
1 
1 
1 
1 
1 
1 
1 
1 
1 
1 
1 
1 
1 
1 
1 
1 
1 
1 
1 
1 
1 
1 
1 
1 
1 
1 
1 
1 
1 
1 
1 
1 
1 
1 
1 
1 
1 
1 
1 
1 
1 
1 
1 
1 
1 
1 
1 
1 
1 
1 
1 
1 
1 
1 
1 
1 
1 
1 
1 
1 
1 
1 
1 
1 
1 
1 
1 
1 
1 
1 
1 
1 
1 
1 
1 
1 
1 
1 
1 
1 
1 
1 
1 
1 
1 
1 
1 
1 
1 
1 
1 
1 
1 
1 
1 
1 
1 
1 
1 
1 
1 
1 
1 
1 
1 
1 
1 
1 
1 
1 
1 
1 
1 
1 
1 
1 
1 
1 
1 
1 
1 
1 
1 
1 
1 
1 
1 
1 
1 
1 
1 
1 
1 
1 
1 
1 
1 
1 
1 
1 
1 
1 
1 
1 
1 
1 
1 
1 
1 
1 
1 
1 
1 
1 
1 
1 
1 
1 
1 
1 
1 
1 
1 
1 
1 
1 
1 
1 
1 
1 
1 
1 
1 
1 
1 
1 
1 
1 
1 
1 
1 
1 
1 
1 
1 
1 
1 
1 
1 
1 
1 
1 
1 
1 
1 
1 
1 
1 
1 
1 
1 
1 
1 
1 
1 
1 
1 
1 
1 
1 
1 
1 
1 
1 
1 
1 
1 
1 
1 
1 
1 
1 
1 
1 
1 
1 
1 
1 
1 
1 
1 
1 
1 
1 
1 
1 
1 
1 
1 
1 
1 
1 
1 
1 
1 
1 
1 
1 
1 
1 
1 
1 
1 
1 
1 
1 
1 
1 
1 
1 
1 
1 
1 
1 
1 
1 
1 
1 
1 
1 
1 
1 
1 
1 
1 
1 
1 
1 
1 
1 
1 
1 
1 
1 
1 
1 
1 
1 
1 
1 
1 
1 
1 
1 
1 
1 
1 
1 
1 
1 
1 
1 
1 
1 
1 
1 
1 
1 
1 
1 
1 
1 
1 
1 
1 
1 
1 
1 
1 
1 
1 
1 
1 
1 
1 
1 
1 
1 
1 
1 
1 
1 
1 
1 
1 
1 
1 
1 
1 
1 
1 
1 
1 
1 
1 
1 
1 
1 
1 
1 
1 
1 
1 
1 
1 
1 
1 
1 
1 
1 
1 
1 
1 
1 
1 
1 
1 
1 
1 
1 
1 
1 
1 
1 
1 
1 
1 
1 
1 
1 
1 
1 
1 
1 
1 
1 
1 
1 
1 
POINT_DATA 5000
VECTORS Stress float
-171.274 -1330.24 0.
231.227 -1281.28 0.
179.129 -1402.79 0.
-175.738 -1629.15 0.
-172.253 -1621.07 0.
-168.768 -1612.98 0.
-166.449 -1607.63 0.
-166.139 -1606.87 0.
-165.829 -1606.11 0.
-262.551 -1650.5 0.
-262.616 -1650.72 0.
-262.682 -1650.94 0.
-1101.72 -2008.4 0.
-1100.41 -2005.35 0.
-426.376 -1716.79 0.
-428.309 -1721.39 0.
-430.242 -1725.99 0.
-392.917 -1707.27 0.
-390.581 -1702.1 0.
-388.245 -1696.94 0.
-1218.84 -2056.15 0.
-1220.24 -2059.39 0.
-1221.64 -2062.64 0.
-445.006 -1725.58 0.
-441.467 -1717.29 0.
-309.46 -1653.96 0.
-1389.83 -1968.6 0.
-1309.93 -1782.25 0.
-806.389 -1474.3 0.
-886.503 -1661.52 0.
-966.617 -1848.74 0.
-888.8 -1908.17 0.
-892.222 -1916.2 0.
-895.644 -1924.23 0.
-747.661 -1859.3 0.
-746.047 -1855.24 0.
-744.433 -1851.18 0.
-1585.09 -2218.48 0.
-1589.23 -2228.22 0.
-829.377 -1900.2 0.
-781.001 -1787.22 0.
-732.624 -1674.25 0.
-992.422 -1667.96 0.
-904.464 -1462.5 0.
-816.506 -1257.03 0.
-1534.87 -1636.81 0.
-1676.73 -1967.9 0.
-1818.59 -2299 0.
1237.96 -928.643 0.
1321.32 -734.287 0.
-12905.1 -6672.99 0.
-343.767 -1420.56 0.
-412.257 -1580.81 0.
-937.969 -1907.73 0.
-934.072 -1898.76 0.
-930.176 -1889.79 0.
-1007.26 -1921.98 0.
-1011.34 -1931.6 0.
-1015.43 -1941.23 0.
-1305.05 -1936.69 0.
-1202.88 -1698.19 0.
-1100.71 -1459.69 0.
-1020.83 -1586.01 0.
-1125.51 -1829.98 0.
-716.994 -1828.72 0.
-718.476 -1832.05 0.
-719.957 -1835.38 0.
-730.772 -1842.4 0.
-730.878 -1842.78 0.
-730.984 -1843.17 0.
-846.424 -1895.42 0.
-848.83 -1901.18 0.
-851.236 -1906.93 0.
-572.763 -1757.69 0.
-554.013 -1714.07 0.
-860.028 -1819.89 0.
-844.266 -1852.05 0.
-864.509 -1899.63 0.
-534.413 -1781.51 0.
-530.199 -1771.59 0.
-525.985 -1761.67 0.
-1135.87 -2019.11 0.
-1137.04 -2021.42 0.
-1138.21 -2023.73 0.
-377.68 -1692.74 0.
-378.268 -1693.36 0.
-378.857 -1693.98 0.
-748.314 -1856.41 0.
-747.429 -1854.68 0.
-438.913 -1717.26 0.
-437.026 -1712.63 0.
-435.139 -1708 0.
51.2165 -1500.93 0.
47.1953 -1509.79 0.
43.1742 -1518.66 0.
-65.5336 -1547.46 0.
-48.5088 -1507.56 0.
-31.4841 -1467.65 0.
-334.253 -1625.44 0.
-358.717 -1682.39 0.
92.0446 -1186.46 0.
0.399588 -1349.49 0.
-51.7492 -1471 0.
-172.724 -1596.14 0.
-169.247 -1588.16 0.
-165.769 -1580.17 0.
-198.012 -1589.82 0.
-197.721 -1589.04 0.
-197.431 -1588.26 0.
-206.819 -1595.26 0.
-206.833 -1595.5 0.
-206.846 -1595.75 0.
-1141.19 -1994.02 0.
-1139.84 -1990.94 0.
-348.308 -1652.44 0.
-350.17 -1657.05 0.
-352.031 -1661.67 0.
-613.9 -1770.2 0.
-611.4 -1765.22 0.
-608.9 -1760.24 0.
-640.973 -1777.04 0.
-642.381 -1780.26 0.
-643.789 -1783.48 0.
-721.354 -1812.87 0.
-717.865 -1804.65 0.
-1045.07 -1938.15 0.
-1308.23 -1901.68 0.
-1228.29 -1715.4 0.
-878.206 -1473.76 0.
-958.111 -1661.06 0.
-1038.02 -1848.37 0.
-801.609 -1839.48 0.
-804.987 -1847.5 0.
-808.365 -1855.52 0.
-675.835 -1797.37 0.
-674.415 -1793.16 0.
-672.995 -1788.96 0.
-1617.31 -2201.17 0.
-1621.4 -2210.92 0.
-866.609 -1884.81 0.
-818.279 -1771.74 0.
-769.948 -1658.68 0.
-1145.04 -1702.13 0.
-1057.16 -1496.37 0.
-969.27 -1290.61 0.
-1122.17 -1430 0.
-1263.96 -1761.09 0.
-1405.75 -2092.19 0.
968.675 -1012.36 0.
1052.11 -818.133 0.
-9707.37 -5271.07 0.
-401.442 -1414.16 0.
-469.685 -1574.7 0.
-940.876 -1877.09 0.
-936.929 -1868.26 0.
-932.982 -1859.42 0.
-913.332 -1849.84 0.
-917.374 -1859.58 0.
-921.416 -1869.32 0.
-1053.85 -1798.44 0.
-951.704 -1559.8 0.
-849.554 -1321.16 0.
-1418.53 -1724.44 0.
-1523.37 -1968.23 0.
-724.509 -1801.5 0.
-726.095 -1804.82 0.
-727.681 -1808.14 0.
-412.653 -1674 0.
-412.676 -1674.47 0.
-412.698 -1674.94 0.
-485.643 -1709.67 0.
-487.953 -1715.48 0.
-490.263 -1721.29 0.
-1299.69 -2038.1 0.
-1280.85 -1994.54 0.
-988.708 -1842.88 0.
-897.875 -1843.17 0.
-917.92 -1890.98 0.
-260.359 -1632.75 0.
-256.208 -1622.81 0.
-252.056 -1612.86 0.
-604.684 -1760.08 0.
-606.109 -1762.14 0.
-607.534 -1764.19 0.
-647.512 -1777.79 0.
-648.577 -1778.02 0.
-649.642 -1778.25 0.
-773.409 -1836.35 0.
-772.343 -1834.86 0.
-241.853 -1601.22 0.
-240.154 -1596.57 0.
-238.455 -1591.92 0.
-108.508 -1538.68 0.
-112.879 -1547.33 0.
-117.25 -1555.98 0.
50.7428 -1466.67 0.
67.6993 -1426.56 0.
84.6557 -1386.44 0.
-436.453 -1638.13 0.
-460.87 -1694.73 0.
154.586 -1512.88 0.
-294.8 -1572.66 0.
-225.043 -1409.26 0.
-478.065 -2278.87 0.
-268.101 -1789.83 0.
-568.099 -2490.76 0.
-1556.58 -4669.75 0.
-1470.44 -4469.83 0.
-2473.6 -6811.6 0.
-2318.1 -6594.48 0.
-1857.2 -5519.99 0.
-1748.52 -5267.34 0.
-2777.79 -5707.01 0.
-2523.27 -5111.43 0.
-2665.23 -7180.07 0.
-1359.21 -4131.47 0.
-1415.7 -4262.04 0.
-1952.48 -4448.23 0.
-2493.13 -5708.94 0.
-4242.02 -9788.86 0.
-4741.91 -12414.8 0.
-2672.04 -7584.85 0.
-2320.05 -6763.29 0.
-2402.54 -5176.27 0.
-2079.62 -4423.72 0.
-2816.68 -6200.71 0.
-2611.17 -5067.12 0.
-2458.12 -4708.98 0.
-1921.56 -3745.23 0.
-2049.94 -4043.62 0.
-3018.02 -6301.32 0.
-3632.2 -8580.22 0.
-2753.49 -6530.36 0.
-2667.17 -6329.41 0.
-2355.34 -5818.97 0.
-2975.54 -7267.83 0.
-5027.37 -12057.2 0.
-5415.31 -10972.1 0.
-4302.04 -8374.9 0.
-4578.62 -10447 0.
-3418.54 -7740.04 0.
-3426.68 -7758.97 0.
-3027.29 -5772.26 0.
-2061.03 -3517.11 0.
-2104.6 -3618.23 0.
-2254.23 -4825.06 0.
-2696.48 -5857.66 0.
-4087.51 -9104.04 0.
-1383.68 -5959.56 0.
-1018.93 -5108.89 0.
-11193 -12028.4 0.
-2287.93 -5676.24 0.
-2642.9 -6503.53 0.
-3739.42 -8372.21 0.
-2460.34 -5386.38 0.
-3164.37 -7027.83 0.
-2757.04 -6297.48 0.
-2284.85 -5195.69 0.
-2929.1 -6698.89 0.
-3053.42 -6916.09 0.
-2154.61 -4819.16 0.
-2238.15 -5014.38 0.
-2941.66 -4488.29 0.
-2944.65 -4495.94 0.
-2957.08 -6964.81 0.
-3158.77 -7435.49 0.
-4607.09 -10815 0.
-4221.39 -11136.4 0.
-2637.59 -7441.02 0.
-2857.98 -7955.35 0.
-2727.45 -7596.24 0.
-2442.51 -6931.77 0.
-3420.71 -9214.63 0.
-3370.41 -5454.52 0.
-2692.39 -3871.58 0.
-1876.26 -3780.74 0.
-1741.16 -3682.22 0.
-2968.57 -6545.27 0.
-3920.86 -10663.7 0.
-2744.42 -7918.04 0.
-3260.64 -9121.91 0.
-3351.11 -9147.63 0.
-2807.61 -7879.91 0.
-3291.89 -9010.37 0.
-2640.43 -5879.51 0.
-1581.82 -3410.31 0.
-1917.57 -4194.61 0.
-2020.99 -4668.56 0.
-2331.64 -5392.9 0.
-1444.74 -4755.44 0.
-729.878 -3087.15 0.
-769.478 -3179.33 0.
-914.792 -3079.91 0.
-642.274 -2444.54 0.
-1350.81 -4098.24 0.
-286.949 -2446.65 0.
153.141 -1419.94 0.
66.3642 -1622.66 0.
-862.132 -2409.94 0.
-1326.72 -3493.9 0.
256.614 -561.78 0.
52.4248 -615.671 0.
32.026 -662.661 0.
166.03 -646.893 0.
154.163 -675.187 0.
142.296 -703.482 0.
141.845 -611.375 0.
269.703 -313.461 0.
397.562 -15.5465 0.
567.073 205.006 0.
617.822 322.507 0.
668.572 440.007 0.
-125.454 130.124 0.
-114.427 157.59 0.
537.154 481.195 0.
626.878 691.353 0.
716.602 901.51 0.
378.766 880.081 0.
407.692 947.865 0.
436.617 1015.65 0.
968.71 1300.14 0.
991.44 1352.1 0.
1014.17 1404.06 0.
266.537 995.191 0.
201.03 841.201 0.
685.439 922.832 0.
-18.5387 500.214 0.
-81.7965 352.955 0.
-148.84 304.784 0.
46.2218 761.083 0.
241.283 1217.38 0.
545.992 1519.38 0.
497.62 1406.39 0.
449.248 1293.4 0.
585.161 1398.97 0.
650.864 1550.72 0.
716.568 1702.47 0.
4.0324 1490.45 0.
49.6145 1596.18 0.
749.672 1952.4 0.
648.32 1716.24 0.
546.967 1480.08 0.
95.7799 1016.87 0.
-131.973 485.803 0.
-359.725 -45.2642 0.
-121.123 35.9933 0.
44.3691 421.084 0.
209.861 806.175 0.
1643.96 1627.89 0.
1738.61 1847.26 0.
-1167.19 781.086 0.
836.458 1660.97 0.
846.954 1686.43 0.
372.52 1513.2 0.
401.22 1581.22 0.
429.919 1649.25 0.
704.916 1736.99 0.
630.948 1564.85 0.
556.98 1392.72 0.
414.785 1118.79 0.
287.5 821.609 0.
160.214 524.424 0.
-393.875 523.685 0.
-240.882 880.286 0.
564.294 1479.72 0.
543.209 1429.66 0.
522.123 1379.59 0.
894.586 1438.01 0.
785.056 1181.24 0.
675.527 924.469 0.
619.755 834.426 0.
644.004 889.743 0.
668.253 945.06 0.
-376.36 467.921 0.
-399.136 416.928 0.
529.907 790.382 0.
512.425 910.097 0.
578.549 1065.64 0.
757.19 1230.91 0.
755.063 1225.84 0.
752.935 1220.76 0.
795.898 1184.66 0.
735.032 1042.08 0.
674.165 899.502 0.
286.325 533.694 0.
163.847 246.747 0.
41.3697 -40.2001 0.
178.035 5.84108 0.
177.814 7.17112 0.
467.507 103.358 0.
372.962 -116.689 0.
278.416 -336.736 0.
114.25 -525.271 0.
99.5338 -559.146 0.
84.8174 -593.021 0.
515.777 -451.794 0.
489.512 -513.005 0.
463.247 -574.216 0.
301.499 -517.776 0.
390.17 -311.127 0.
-101.177 -683.596 0.
-8.40823 -610.753 0.
-28.8263 -657.834 0.
115.115 -636.701 0.
103.106 -664.99 0.
91.096 -693.278 0.
108.472 -593.855 0.
236.103 -295.817 0.
363.733 2.22094 0.
548.346 228.737 0.
599.079 346.214 0.
649.812 463.692 0.
75.3095 246.914 0.
86.3678 274.476 0.
454.386 477.108 0.
544.282 687.238 0.
634.179 897.367 0.
453.846 944.029 0.
482.95 1011.7 0.
512.054 1079.37 0.
781.015 1252.37 0.
804.195 1304.03 0.
827.375 1355.7 0.
313.106 1047.46 0.
247.622 893.317 0.
878.086 1037.35 0.
251.25 647.569 0.
188.19 500.095 0.
-86.8329 363.157 0.
108.191 819.346 0.
303.214 1275.53 0.
378.428 1478.88 0.
329.97 1366.04 0.
281.512 1253.19 0.
413.847 1356 0.
479.477 1507.76 0.
545.108 1659.52 0.
116.967 1571.38 0.
162.646 1677.14 0.
784.028 1999.23 0.
682.691 1763.38 0.
581.353 1527.53 0.
373.536 1166.93 0.
145.789 635.687 0.
-81.9582 104.448 0.
-44.3641 98.9063 0.
121.277 483.947 0.
286.918 868.989 0.
1386.24 1549.52 0.
1481.12 1768.35 0.
-1138.12 824.859 0.
828.17 1688.61 0.
838.765 1714.3 0.
236.482 1486.66 0.
265.27 1554.63 0.
294.059 1622.61 0.
744.058 1784.89 0.
669.934 1612.82 0.
595.809 1440.76 0.
461.591 1170.41 0.
334.325 873.371 0.
207.059 576.328 0.
112.965 773.446 0.
265.966 1130.36 0.
460.777 1466.17 0.
439.965 1415.95 0.
419.153 1365.73 0.
576.96 1334.07 0.
467.707 1076.84 0.
358.455 819.609 0.
310.912 734.313 0.
335.422 789.372 0.
359.931 844.432 0.
199.002 746.743 0.
175.793 696.001 0.
868.574 966.554 0.
878.498 1098.21 0.
944.542 1253.92 0.
259.799 1049.48 0.
257.993 1044.42 0.
256.188 1039.37 0.
468.001 1075.54 0.
407.202 933.007 0.
346.402 790.474 0.
521.567 666.688 0.
399.12 379.546 0.
276.674 92.404 0.
434.177 146.83 0.
433.478 148.412 0.
275.11 51.2447 0.
180.405 -168.802 0.
85.7006 -388.848 0.
50.7712 -519.824 0.
35.7801 -553.408 0.
20.7891 -586.992 0.
468.128 -441.118 0.
441.759 -502.296 0.
415.39 -563.474 0.
750.097 -293.84 0.
838.912 -87.2497 0.
-747.073 -1929.95 0.
-558.526 -1834.87 0.
-521.492 -1750.31 0.
-281.419 -1590.17 0.
-263.127 -1547.5 0.
-244.836 -1504.82 0.
-303.955 -1524.85 0.
-324.413 -1574.99 0.
-344.871 -1625.13 0.
-330.018 -1691.23 0.
-370.988 -1788.19 0.
-411.958 -1885.15 0.
-838.168 -1960.78 0.
-771.98 -1807.27 0.
-458.653 -1586.31 0.
-558.42 -1820.48 0.
-658.187 -2054.65 0.
-893.453 -2278.67 0.
-888.94 -2267.54 0.
-884.426 -2256.42 0.
-744.755 -2165.93 0.
-713.407 -2093.92 0.
-682.059 -2021.91 0.
-1055.86 -2191.91 0.
-1070.74 -2228.81 0.
-569.755 -2044.52 0.
-830.52 -2017.11 0.
-755.203 -1842.72 0.
-955.479 -1819.11 0.
-960.554 -1831.24 0.
-965.629 -1843.37 0.
-1113.69 -1912.48 0.
-1110.67 -1907.66 0.
-1107.64 -1902.84 0.
-1020.88 -1947.65 0.
-1086.75 -2102.56 0.
-1152.63 -2257.48 0.
-1496.34 -2272.86 0.
-1409.46 -2067.9 0.
-753.826 -1635.74 0.
-743.257 -1611.92 0.
-732.687 -1588.11 0.
-732.526 -1544.78 0.
-686.226 -1438.27 0.
-639.926 -1331.77 0.
-638.137 -1347.1 0.
-691.695 -1472.57 0.
-745.253 -1598.05 0.
-157.35 -1545.87 0.
-271.231 -1812.68 0.
-2858.12 -3140.97 0.
-879.999 -2179.46 0.
-819.076 -2039.58 0.
-1167.73 -2117.61 0.
-1211.01 -2215.78 0.
-1254.29 -2313.94 0.
-1045.87 -2217.21 0.
-981.841 -2071.04 0.
-917.818 -1924.86 0.
-839.729 -1876.05 0.
-861.474 -1925.09 0.
-883.219 -1974.13 0.
-964.672 -2056.13 0.
-989.333 -2114.33 0.
-1137.46 -2215.07 0.
-1119.68 -2172.58 0.
-1101.89 -2130.09 0.
-998.515 -2010.82 0.
-912.767 -1810.01 0.
-827.019 -1609.19 0.
-793.755 -1579.95 0.
-847.27 -1701.6 0.
-900.785 -1823.25 0.
-738.668 -1857.44 0.
-793.644 -1989.73 0.
-333.428 -1903.82 0.
-328.905 -1819.73 0.
-286.12 -1719.24 0.
-1080.53 -1990.86 0.
-1079.43 -1986.71 0.
-1078.33 -1982.56 0.
-976.089 -1974.38 0.
-1021.69 -2080.36 0.
-1067.3 -2186.33 0.
-502.717 -1975.94 0.
-505.716 -1982.91 0.
-508.714 -1989.89 0.
-480.339 -2015.25 0.
-501.307 -2064.38 0.
-700.569 -2170.68 0.
-641.721 -2032.16 0.
-582.873 -1893.63 0.
-420.036 -1779.85 0.
-463.406 -1879.89 0.
-506.777 -1979.93 0.
-170.383 -1835.9 0.
-140.739 -1767.37 0.
-111.095 -1698.83 0.
183.698 -1615.39 0.
148.344 -1695.82 0.
-638.687 -1854.65 0.
-515.104 -1784.4 0.
-478.481 -1699.72 0.
-174.583 -1513.83 0.
-156.486 -1471.09 0.
-138.388 -1428.35 0.
-267.636 -1477.82 0.
-288.299 -1527.96 0.
-308.962 -1578.11 0.
-414.597 -1696.11 0.
-455.729 -1792.97 0.
-496.86 -1889.82 0.
-926.848 -1968.64 0.
-860.752 -1814.89 0.
-409.074 -1532.69 0.
-508.902 -1766.71 0.
-608.731 -2000.74 0.
-851.143 -2229.61 0.
-846.693 -2218.47 0.
-842.243 -2207.33 0.
-677.057 -2105.49 0.
-645.734 -2033.24 0.
-614.412 -1961 0.
-1015.06 -2142.94 0.
-1029.79 -2179.72 0.
-1569.49 -2441.52 0.
-914.012 -2021.73 0.
-838.996 -1847.21 0.
-820.883 -1729.87 0.
-826.001 -1742.23 0.
-831.119 -1754.59 0.
-1015.37 -1839.38 0.
-1012.49 -1834.72 0.
-1009.62 -1830.06 0.
-867.567 -1851.24 0.
-933.224 -2006.26 0.
-998.881 -2161.28 0.
-1491.94 -2239.36 0.
-1404.71 -2034.43 0.
-704.628 -1583.68 0.
-694.168 -1559.83 0.
-683.707 -1535.99 0.
-842.433 -1559.54 0.
-796.071 -1453.24 0.
-749.709 -1346.94 0.
-626.455 -1313.89 0.
-679.745 -1439.69 0.
-733.036 -1565.48 0.
-421.784 -1626.52 0.
-535.059 -1893.7 0.
-816.883 -2235.56 0.
-954.764 -2181.08 0.
-893.475 -2041.39 0.
-673.355 -1873.94 0.
-716.312 -1972.19 0.
-759.27 -2070.44 0.
-1230.56 -2265.52 0.
-1166.63 -2119.37 0.
-1102.71 -1973.22 0.
-842.328 -1846.52 0.
-864.146 -1895.3 0.
-885.964 -1944.07 0.
-1099.2 -2082.16 0.
-1123.61 -2140.55 0.
-1050.59 -2146.41 0.
-1032.77 -2104.05 0.
-1014.94 -2061.68 0.
-1003.88 -1980.7 0.
-917.585 -1780.43 0.
-831.292 -1580.15 0.
-735.714 -1523.34 0.
-789.229 -1645.01 0.
-842.744 -1766.67 0.
-839.21 -1869.3 0.
-894.267 -2001.32 0.
-539.229 -1960.78 0.
-547.067 -1881.92 0.
-504.423 -1781.42 0.
-657.854 -1779.55 0.
-657.07 -1774.82 0.
-656.287 -1770.08 0.
-953.755 -1934.85 0.
-999.438 -2040.76 0.
-1045.12 -2146.66 0.
-445.802 -1920.64 0.
-449.189 -1927.43 0.
-452.576 -1934.23 0.
-679.132 -2070.94 0.
-700.192 -2119.97 0.
-533.646 -2066.75 0.
-474.493 -1928.56 0.
-415.341 -1790.36 0.
-156.282 -1635.9 0.
-199.554 -1735.83 0.
-242.827 -1835.75 0.
-178.713 -1808.79 0.
-149.291 -1740.11 0.
-119.869 -1671.44 0.
-226.837 -1760.56 0.
-262.389 -1841.11 0.
-376.985 -1398.1 0.
-105.726 -884.874 0.
-109.269 -891.539 0.
12.2854 -1246.78 0.
240.916 -714.329 0.
378.185 -395.031 0.
-475.721 -1998.6 0.
407.493 61.4531 0.
300.883 -188.488 0.
-217.122 -1053.95 0.
-504.497 -1725.6 0.
22.5861 -496.861 0.
-346.077 -408.807 0.
-513.999 -804.322 0.
-353.293 -1461.46 0.
-26.3862 -701.005 0.
-376.595 -1520.5 0.
-930.753 -2455.39 0.
-670.502 -1850.12 0.
-182.711 -713.946 0.
77.2947 -437.133 0.
81.3184 -428.207 0.
98.5224 -388.57 0.
-231.568 -366.173 0.
-542.405 -1090.71 0.
-436.123 -791.404 0.
-423.194 -681.306 0.
-782.362 -1522.29 0.
-451.632 -1092.18 0.
11.8132 -12.2652 0.
388.06 864.205 0.
-1116.65 -2227.8 0.
-682.454 -1215.65 0.
-199.862 -90.4799 0.
225.6 436.25 0.
-659.984 -1628.6 0.
-1370.01 -3283.9 0.
-1767.83 -2862.83 0.
-1251.5 -1661.35 0.
-585.41 -1362.4 0.
-516.747 -1203.14 0.
-243.833 -567.384 0.
-757.445 -1126.57 0.
-873.77 -1396.2 0.
-150.631 292.8 0.
-41.5893 54.2016 0.
-436.146 -862.92 0.
-271.911 -476.245 0.
-689.557 -1717.65 0.
8.63652 -85.6267 0.
578.328 -563.697 0.
-323.538 -542.894 0.
-617.955 -1225.23 0.
115.06 -929.975 0.
-281.494 -1855.63 0.
-664.329 -2749.25 0.
-717.305 -694.107 0.
-94.1442 759.83 0.
-110.799 720.883 0.
-284.592 -509.593 0.
-780.932 -1668.3 0.
292.601 836.117 0.
-441.099 -264.091 0.
-1304.24 -2275.3 0.
-971.801 -2089.21 0.
165.57 564.419 0.
-234.716 -369.846 0.
-495.032 -756.263 0.
-699.655 -1232.61 0.
-597.243 -992.497 0.
-693.538 -1496.06 0.
150.561 470.496 0.
8.65565 136.436 0.
-901.965 -1792.85 0.
-1118.24 -2296.25 0.
133.709 -408.43 0.
-378.134 -1042.99 0.
-664.182 -1710.59 0.
445.962 32.7243 0.
16.7405 -968.781 0.
78.5679 -824.436 0.
-583.123 -1085.67 0.
-533.587 -971.153 0.
-521.824 -944.709 0.
-356.235 -1789.49 0.
-321.64 -1710.35 0.
-711.918 -2622.63 0.
-451.676 -1133 0.
-66.0116 -234.348 0.
615.627 322.95 0.
379.779 -227.141 0.
125.435 -820.552 0.
299.615 -1044.82 0.
392.911 -827.086 0.
970.779 521.315 0.
377.476 -469.502 0.
198.86 -886.423 0.
128.124 -1051.59 0.
-3.64422 -431.206 0.
-450.002 -1471.5 0.
44.765 -1275.04 0.
-167.722 -1223.24 0.
-84.0104 -1026.55 0.
166 -779.085 0.
184.714 -736.287 0.
203.429 -693.489 0.
-74.7378 -886.144 0.
-181.094 -1133.67 0.
-287.451 -1381.2 0.
-264.665 -1342.08 0.
-189.138 -1167.37 0.
-113.611 -992.67 0.
-680.438 -1340.23 0.
-747.638 -1500.64 0.
-391.127 -1458.39 0.
-345.868 -1354.57 0.
-300.61 -1250.76 0.
-337.561 -1238.19 0.
-393.788 -1370.74 0.
-450.015 -1503.3 0.
-395.263 -1531.97 0.
-398.059 -1538.62 0.
-400.855 -1545.27 0.
-680.218 -1526.67 0.
-584.038 -1301.89 0.
-470.189 -1069.4 0.
-806.935 -1307.81 0.
-855.711 -1423.24 0.
-505.361 -1351.56 0.
-519.486 -1386.61 0.
-533.61 -1421.66 0.
-881.512 -1585.57 0.
-874.236 -1570.63 0.
-866.959 -1555.69 0.
-665.157 -1339.58 0.
-564.676 -1103.49 0.
-464.195 -867.394 0.
-1013.7 -1274.55 0.
-1129.19 -1546.01 0.
-683.916 -1541.65 0.
-646.91 -1456.53 0.
-609.904 -1371.41 0.
-621.235 -1308.15 0.
-582.403 -1216.52 0.
-543.569 -1124.9 0.
-518.031 -1073.28 0.
-514.146 -1063.09 0.
-510.262 -1052.9 0.
-496.99 -1156.33 0.
-569.531 -1322.78 0.
535.929 -982.677 0.
-591.688 -1349.88 0.
-533.053 -1208.82 0.
-276.575 -1013.34 0.
-271.063 -1001.27 0.
-265.551 -989.2 0.
-798.324 -1292.42 0.
-901.092 -1532.68 0.
-1003.86 -1772.94 0.
-814.199 -1641.48 0.
-725.072 -1432.91 0.
-635.945 -1224.34 0.
-948.722 -1430.48 0.
-1003.88 -1556.67 0.
-652.276 -1510.4 0.
-684.41 -1585.58 0.
-716.544 -1660.75 0.
-716.408 -1658.72 0.
-654.481 -1512.68 0.
-592.554 -1366.65 0.
-674.526 -1362.71 0.
-684.567 -1387.34 0.
-694.607 -1411.97 0.
-749.517 -1382.14 0.
-713.257 -1294.83 0.
-516.235 -1141.7 0.
-640.846 -1371.28 0.
-733.637 -1587.22 0.
-296.336 -1527.69 0.
-282.139 -1495.02 0.
-267.942 -1462.36 0.
-615.974 -1565.38 0.
-578.603 -1478.15 0.
-541.232 -1390.92 0.
-111.718 -1037.77 0.
4.83801 -767.554 0.
121.394 -497.341 0.
-409.762 -1007.5 0.
-587.516 -1422.17 0.
-120.604 -1538.7 0.
-193.974 -1708.5 0.
-267.345 -1878.29 0.
-361.668 -1945.83 0.
-264.025 -1716.71 0.
-166.383 -1487.6 0.
64.5213 -1270.37 0.
98.3694 -1191.67 0.
132.217 -1112.98 0.
-50.3404 -1262.77 0.
-105.472 -1391.67 0.
512.149 -1045.49 0.
-49.5254 -1141.25 0.
34.2462 -944.605 0.
125.086 -765.489 0.
143.742 -722.725 0.
162.397 -679.96 0.
-150.944 -887.125 0.
-257.661 -1134.2 0.
-364.379 -1381.27 0.
-154.67 -1263.35 0.
-79.0624 -1088.83 0.
-3.45449 -914.298 0.
-584.114 -1267.11 0.
-651.368 -1427.35 0.
-422.081 -1439.52 0.
-376.874 -1335.63 0.
-331.667 -1231.75 0.
-233.584 -1162.59 0.
-289.929 -1294.96 0.
-346.275 -1427.33 0.
-382.779 -1495.08 0.
-385.753 -1501.55 0.
-388.727 -1508.01 0.
-603.914 -1462.4 0.
-507.439 -1237.74 0.
-410.144 -1012.59 0.
-931.376 -1330.51 0.
-980.477 -1445.45 0.
-419.116 -1283.33 0.
-433.233 -1318.55 0.
-447.349 -1353.77 0.
-913.077 -1566.83 0.
-905.67 -1552.2 0.
-898.262 -1537.57 0.
-807.56 -1368.93 0.
-707.112 -1132.83 0.
-606.664 -896.725 0.
-907.025 -1197.49 0.
-1022.82 -1468.75 0.
-693.942 -1513.65 0.
-656.868 -1428.85 0.
-619.793 -1344.06 0.
-342.428 -1157.71 0.
-303.378 -1066.09 0.
-264.327 -974.463 0.
-492.657 -1029.96 0.
-488.118 -1020.03 0.
-483.58 -1010.1 0.
-538.249 -1142.24 0.
-610.71 -1308.59 0.
-621.742 -1447.83 0.
-481.487 -1272.16 0.
-422.619 -1131.25 0.
-695.304 -1160.4 0.
-689.703 -1148.38 0.
-684.102 -1136.37 0.
-566.518 -1160.97 0.
-669.217 -1401.52 0.
-771.917 -1642.06 0.
-852.627 -1627.4 0.
-763.961 -1418.18 0.
-675.294 -1208.97 0.
-942.057 -1397.42 0.
-996.941 -1523.7 0.
-547.548 -1432.17 0.
-579.394 -1507.42 0.
-611.241 -1582.67 0.
-496.679 -1532.23 0.
-434.886 -1385.98 0.
-373.094 -1239.72 0.
-705.157 -1345.97 0.
-715.843 -1370.11 0.
-726.53 -1394.25 0.
-762.232 -1356.61 0.
-726.374 -1268.95 0.
-566.609 -1133 0.
-774.825 -1398.24 0.
-867.692 -1614.01 0.
-369.07 -1526.41 0.
-354.681 -1493.75 0.
-340.293 -1461.1 0.
-388.638 -1437.25 0.
-351.428 -1349.76 0.
-314.219 -1262.27 0.
-189.884 -1038.97 0.
-73.2147 -768.795 0.
43.4552 -498.615 0.
-407.682 -974.922 0.
-585.96 -1389.21 0.
-29.3893 -1468.67 0.
-103.072 -1638.19 0.
-176.754 -1807.71 0.
-683.199 -2053.7 0.
-585.961 -1824.41 0.
-488.724 -1595.12 0.
118.101 -1216.14 0.
151.981 -1137.43 0.
185.861 -1058.73 0.
345.479 -1061.81 0.
290.771 -1191.21 0.
426.948 -1073 0.
-112.577 -1261.35 0.
-112.149 -1262.91 0.
-123.599 -1286.98 0.
-167.547 -1390.33 0.
-211.494 -1493.68 0.
-428.167 -1615.08 0.
-407.443 -1567.97 0.
-386.72 -1520.86 0.
-254.115 -1459.08 0.
-260.119 -1472.69 0.
-266.123 -1486.29 0.
-733.644 -1765.4 0.
-780.133 -1871.7 0.
-663.767 -1898.08 0.
-635.821 -1831.87 0.
-607.874 -1765.66 0.
-419.207 -1674.94 0.
-459.876 -1770.17 0.
-500.544 -1865.39 0.
-656.907 -2001.89 0.
-690.522 -2080.86 0.
-724.138 -2159.82 0.
-814.397 -2122.98 0.
-753.635 -1980.91 0.
-602.243 -1799.92 0.
-1223.66 -1994.41 0.
-1187.04 -1909.85 0.
-550.8 -1594.08 0.
-567.453 -1629.32 0.
-584.105 -1664.56 0.
-1037.04 -1839.21 0.
-993.975 -1741.01 0.
-950.905 -1642.81 0.
-992.975 -1695.16 0.
-1038.84 -1802.11 0.
-1084.71 -1909.06 0.
-1178.83 -2009.58 0.
-1208.81 -2078.97 0.
-940.067 -2017.88 0.
-949.378 -2036.01 0.
-958.688 -2054.14 0.
-628.848 -1936.91 0.
-657.11 -2000.65 0.
-685.372 -2064.4 0.
-895.976 -2057.54 0.
-781.653 -1791.26 0.
-667.33 -1524.98 0.
-716.508 -1490.66 0.
-711.217 -1482.16 0.
-2673.8 -2316.74 0.
-490.773 -1398.52 0.
-499.706 -1419.74 0.
-1006.72 -1658.66 0.
-1041.66 -1737.31 0.
-1076.6 -1815.97 0.
-774.057 -1657.14 0.
-692.919 -1465.33 0.
-611.781 -1273.53 0.
-729.767 -1392.65 0.
-823.448 -1612.15 0.
-917.13 -1831.66 0.
-1237.26 -2140.96 0.
-1327.83 -2353.37 0.
-962.242 -2304.43 0.
-768.857 -1851.95 0.
-575.471 -1399.47 0.
-301.854 -1066 0.
-351.332 -1183.05 0.
-400.81 -1300.09 0.
-682.482 -1432.79 0.
-658.682 -1378.82 0.
-634.881 -1324.85 0.
-737.586 -1375.94 0.
-743.928 -1394.49 0.
-586.065 -1343.96 0.
-873.905 -1524.78 0.
-904.661 -1595.45 0.
-379.388 -1423.46 0.
-401.835 -1473.94 0.
-424.281 -1524.42 0.
-445.17 -1621.57 0.
-523.952 -1807.36 0.
-602.735 -1993.15 0.
-629.611 -2038.28 0.
-615.94 -2006.29 0.
-602.27 -1974.31 0.
-802.089 -2053.01 0.
-802.419 -2056.63 0.
-274 -1824.36 0.
-211.416 -1680.67 0.
-148.832 -1536.97 0.
-574.928 -1620.04 0.
-546.715 -1557.07 0.
-518.503 -1494.1 0.
76.895 -1288.79 0.
10.4352 -1443.93 0.
-56.0244 -1599.08 0.
276.734 -1355.9 0.
362.775 -1157.13 0.
-201.221 -1308.47 0.
-220.226 -1275.78 0.
-220.045 -1277.3 0.
-112.043 -1250.96 0.
-156.185 -1353.84 0.
-200.327 -1456.73 0.
-228.337 -1497.09 0.
-207.482 -1449.82 0.
-186.628 -1402.56 0.
-360.704 -1474.68 0.
-366.664 -1488.2 0.
-372.623 -1501.72 0.
-638.292 -1693.12 0.
-684.607 -1799.55 0.
-714.293 -1887.75 0.
-686.206 -1821.57 0.
-658.118 -1755.39 0.
-406.038 -1637.94 0.
-446.702 -1733.2 0.
-487.366 -1828.46 0.
-778.926 -2022.19 0.
-812.605 -2101.07 0.
-846.283 -2179.95 0.
-686.176 -2038.59 0.
-625.753 -1896.48 0.
-428.011 -1695.44 0.
-1092.09 -1907.31 0.
-1055.25 -1823 0.
-606.999 -1585.6 0.
-623.674 -1621.17 0.
-640.348 -1656.74 0.
-1000.11 -1793.66 0.
-957.155 -1695.53 0.
-914.204 -1597.41 0.
-926.245 -1634.26 0.
-972.756 -1741.02 0.
-1019.27 -1847.79 0.
-1066.82 -1929.88 0.
-1096.95 -1999.26 0.
-975.532 -2002.11 0.
-985.053 -2020.65 0.
-994.573 -2039.18 0.
-763.208 -1963.78 0.
-791.24 -2027.97 0.
-819.273 -2092.17 0.
-801.448 -1984.7 0.
-687.07 -1718.44 0.
-572.693 -1452.18 0.
-707.515 -1456.09 0.
-702.47 -1447.38 0.
-1245.68 -1673.83 0.
-461.492 -1354.65 0.
-470.776 -1375.54 0.
-805.356 -1541.47 0.
-840.276 -1620.26 0.
-875.196 -1699.04 0.
-960.094 -1703.77 0.
-878.562 -1512.8 0.
-797.029 -1321.84 0.
-607.547 -1308.23 0.
-701.718 -1527.41 0.
-795.89 -1746.58 0.
-1143.92 -2069.81 0.
-1234.78 -2282.13 0.
-1141.9 -2351.19 0.
-948.958 -1898.12 0.
-756.014 -1445.06 0.
-498.423 -1120.31 0.
-547.967 -1236.86 0.
-597.51 -1353.4 0.
-480.583 -1316.23 0.
-456.756 -1262 0.
-432.928 -1207.76 0.
-605.353 -1287.63 0.
-611.566 -1306.26 0.
-1064.84 -1517.86 0.
-816.009 -1469.03 0.
-846.402 -1539.87 0.
-417.446 -1407.92 0.
-439.801 -1458.34 0.
-462.157 -1508.76 0.
-571.002 -1645.24 0.
-649.719 -1831.16 0.
-728.437 -2017.08 0.
-545.477 -1968.54 0.
-531.927 -1936.34 0.
-518.377 -1904.13 0.
-598.822 -1935.94 0.
-599.502 -1938.93 0.
-550.245 -1911.41 0.
-487.961 -1767.48 0.
-425.677 -1623.55 0.
-404.073 -1515.73 0.
-376.749 -1452.22 0.
-349.426 -1388.7 0.
32.4044 -1276.91 0.
-34.1844 -1431.86 0.
-100.773 -1586.81 0.
52.3262 -1421.45 0.
138.723 -1222.36 0.
-651.306 -1132.37 0.
-247.692 -1108.23 0.
325.577 230.051 0.
315.252 -244.055 0.
78.2992 -797.147 0.
178.56 -563.267 0.
486.152 -184.029 0.
492.626 -168.638 0.
516.208 -114.399 0.
8.50146 -378.349 0.
275.904 244.792 0.
179.865 20.0077 0.
-152.155 -712.007 0.
-337.565 -1145.45 0.
257.512 513.574 0.
194.152 362.191 0.
-13.8767 -126.767 0.
475.576 429.289 0.
435.641 335.476 0.
429.432 320.301 0.
194.65 510.087 0.
126.116 349.718 0.
-697.639 -1572.68 0.
-18.0696 -689.91 0.
405.341 295.258 0.
-38.2038 61.9573 0.
-238.498 -140.506 0.
-797.025 -1447.61 0.
-309.155 -747.548 0.
156.529 337.637 0.
412.336 933.066 0.
-83.6918 306.161 0.
-352.22 -320.316 0.
-260.213 -105.403 0.
-20.265 382.561 0.
245.692 1004.71 0.
-24.2859 376.969 0.
337.686 1172.63 0.
-437.983 -637.507 0.
-618.936 -1070.8 0.
-310.042 -353.147 0.
-386.773 -534.957 0.
-442.356 -927.073 0.
248.999 684.404 0.
-112.051 -159.858 0.
-284.314 -924.509 0.
-69.2571 -422.721 0.
201.23 208.345 0.
117.999 477.844 0.
216.536 707.477 0.
-3317.98 -1143.99 0.
82.2634 -100.395 0.
-40.8542 -390.331 0.
124.081 284.141 0.
175.55 402.302 0.
-22.6235 -61.3917 0.
-232.577 376.015 0.
-468.805 -174.744 0.
-265.693 299.696 0.
-383.539 -978.417 0.
-56.8025 -216.801 0.
379.234 799.144 0.
-92.9365 230.958 0.
-22.9367 399.708 0.
-86.2433 491.133 0.
-234.461 144.42 0.
-297.415 -3.11337 0.
-594.781 -947.698 0.
50.3926 558.707 0.
-20.8844 393.355 0.
402.385 396.156 0.
369.886 319.031 0.
224.657 -21.3689 0.
-27.8579 -167.802 0.
544.014 1166.42 0.
-672.249 287.601 0.
-269.564 -275.087 0.
38.1776 442.085 0.
38.4847 -234.816 0.
0.282459 -327.066 0.
-37.5303 -418.445 0.
-195.264 -510.337 0.
-218.503 -560.366 0.
-17.6191 -87.3485 0.
267.557 -199.294 0.
30.8297 -751.108 0.
534.559 424.342 0.
433.376 127.208 0.
669.565 681.774 0.
202.6 400.145 0.
139.872 254.574 0.
260.057 535.426 0.
148.211 -517.659 0.
217.071 -357.127 0.
207.475 -380.263 0.
-70.7812 -1403.93 0.
334.134 -459.792 0.
221.424 -723.261 0.
-36.8731 -1168.07 0.
-198.754 -1541.9 0.
-433.885 -1296.54 0.
-14.0271 -1169.17 0.
-31.877 -1209.56 0.
-1.0968 -1227.54 0.
-18.3626 -1266.65 0.
-35.6283 -1305.76 0.
-185.654 -1410.75 0.
-212.484 -1473.45 0.
-239.313 -1536.15 0.
-457.398 -1672.77 0.
-475.353 -1714.64 0.
-493.309 -1756.51 0.
-583.429 -1699.3 0.
-527.434 -1567.4 0.
-491.911 -1462.13 0.
-534.222 -1562.46 0.
-576.532 -1662.8 0.
-522.322 -1649.16 0.
-444.075 -1467.59 0.
-365.83 -1286.03 0.
-603.293 -1277.5 0.
-558.619 -1173.98 0.
-513.944 -1070.46 0.
-393.6 -1130.43 0.
-481.121 -1337.58 0.
-296.447 -1428.22 0.
-711.134 -1524.03 0.
-663.809 -1415.98 0.
-611.77 -1348.84 0.
-676.097 -1501.64 0.
-740.425 -1654.44 0.
-783 -1748.67 0.
-789.752 -1764.47 0.
-796.504 -1780.27 0.
-921.029 -1796.93 0.
-890.388 -1725.17 0.
-859.746 -1653.41 0.
-1087.13 -1787.02 0.
-1111.75 -1842.92 0.
-911.004 -1787.58 0.
-870.626 -1694.42 0.
-830.247 -1601.26 0.
-611.519 -1465.29 0.
-623.062 -1492.39 0.
-634.606 -1519.5 0.
-646.175 -1530.35 0.
-643.011 -1524.71 0.
-639.848 -1519.07 0.
-712.844 -1586.83 0.
-736.067 -1641.3 0.
-1601.74 -2057 0.
-594.276 -1820.76 0.
-696.509 -2060.41 0.
-1151.28 -2366.38 0.
-1055.69 -2143.21 0.
-960.092 -1920.04 0.
-1122.04 -1868.48 0.
-1096.65 -1809.86 0.
-1071.27 -1751.24 0.
-642.037 -1558.7 0.
-646.693 -1572.36 0.
-651.349 -1586.02 0.
-1108.59 -1673.27 0.
-1047.52 -1527.55 0.
-623.932 -1265.74 0.
-738.746 -1534.11 0.
-853.559 -1802.47 0.
-932.41 -1982.86 0.
-939.995 -1998.3 0.
-947.58 -2013.73 0.
-650.049 -1836.92 0.
-599.291 -1718.04 0.
-548.532 -1599.17 0.
-650.638 -1657.21 0.
-672.097 -1706.97 0.
-791.788 -1799.12 0.
-867.878 -1799.55 0.
-849.786 -1759.59 0.
-479.189 -1582.12 0.
-491.384 -1611.95 0.
-503.58 -1641.78 0.
-706.081 -1705.52 0.
-669.157 -1615.15 0.
-632.233 -1524.79 0.
-412.2 -1466.22 0.
-457.766 -1572.08 0.
-503.332 -1677.93 0.
-396.981 -1428.96 0.
-274.256 -1140.17 0.
-160.247 -900.771 0.
-261.118 -1136.36 0.
-361.988 -1371.95 0.
-240.849 -1452.22 0.
-239.264 -1451.08 0.
-237.68 -1449.95 0.
-56.3486 -1279.06 0.
31.7538 -1075.23 0.
119.856 -871.409 0.
115.202 -920.613 0.
57.3038 -1052.76 0.
-66.5919 -1111.03 0.
320.166 -995.761 0.
302.272 -1036.27 0.
144.002 -1134.48 0.
126.27 -1173.14 0.
108.539 -1211.81 0.
-347.964 -1448.33 0.
-374.582 -1510.99 0.
-401.2 -1573.65 0.
-332.717 -1588.81 0.
-350.709 -1630.4 0.
-368.7 -1672 0.
-578.658 -1666.13 0.
-522.976 -1534.34 0.
-357.242 -1372.71 0.
-399.801 -1472.95 0.
-442.359 -1573.19 0.
-637.441 -1667.1 0.
-559.296 -1485.6 0.
-481.151 -1304.11 0.
-623.239 -1253.36 0.
-578.096 -1150.07 0.
-532.953 -1046.78 0.
-605.189 -1190.24 0.
-693.078 -1396.87 0.
-377.665 -1430.87 0.
-546.67 -1422.73 0.
-499.039 -1314.96 0.
-648.071 -1331.96 0.
-712.04 -1485.18 0.
-776.009 -1638.39 0.
-544.02 -1613.06 0.
-550.572 -1629.36 0.
-557.124 -1645.66 0.
-862.9 -1740.09 0.
-831.983 -1668.34 0.
-801.065 -1596.6 0.
-1261.34 -1829.78 0.
-1286.24 -1885.43 0.
-875.834 -1741.4 0.
-836.053 -1647.54 0.
-796.271 -1553.69 0.
-520.191 -1396.31 0.
-531.985 -1423.11 0.
-543.779 -1449.9 0.
-755.774 -1546.33 0.
-752.175 -1541.02 0.
-748.575 -1535.71 0.
-628.55 -1518.48 0.
-651.652 -1573.27 0.
-3288.77 -2747.67 0.
-503.087 -1749.73 0.
-605.448 -1989.71 0.
-1306.75 -2401.58 0.
-1211.1 -2178.59 0.
-1115.45 -1955.6 0.
-1015.21 -1790.16 0.
-989.265 -1731.88 0.
-963.325 -1673.59 0.
-638.599 -1526.97 0.
-643.261 -1540.53 0.
-647.923 -1554.1 0.
-1335.56 -1738.54 0.
-1274.34 -1593.01 0.
-341.25 -1112.28 0.
-456.696 -1380.51 0.
-572.143 -1648.74 0.
-787.518 -1890.11 0.
-795.04 -1905.64 0.
-802.563 -1921.17 0.
-752.542 -1849.38 0.
-701.501 -1730.44 0.
-650.46 -1611.51 0.
-615.104 -1609.47 0.
-636.502 -1659.1 0.
-424.363 -1611.27 0.
-784.891 -1733.41 0.
-767.013 -1693.47 0.
-387.712 -1512.61 0.
-400.553 -1541.83 0.
-413.395 -1571.06 0.
-689.422 -1667.62 0.
-652.34 -1577.4 0.
-615.257 -1487.19 0.
-562.906 -1499.15 0.
-608.445 -1605.05 0.
-653.984 -1710.96 0.
-579.933 -1475.9 0.
-457.05 -1186.97 0.
95.4706 -759.788 0.
-5.42086 -995.515 0.
-106.313 -1231.24 0.
-209.89 -1407.38 0.
-207.854 -1406.86 0.
-205.818 -1406.33 0.
-87.4733 -1260.55 0.
0.996289 -1056.99 0.
89.4663 -853.422 0.
188.203 -857.765 0.
130.735 -989.93 0.
40.2335 -1126.06 0.
310.619 -1130.47 0.
264.096 -1240.04 0.
87.0097 -1362.38 0.
151.059 -1216.39 0.
215.108 -1070.4 0.
-334.507 -1264.26 0.
-367.246 -1339.74 0.
-399.985 -1415.21 0.
-173.814 -1377.77 0.
-204.693 -1449.34 0.
-235.573 -1520.91 0.
-519.64 -1560.18 0.
-467.975 -1440.52 0.
-355.009 -1310.31 0.
-378.753 -1364.51 0.
-402.496 -1418.72 0.
-518.928 -1469.02 0.
-471.932 -1357.84 0.
-424.937 -1246.66 0.
-769.22 -1431.13 0.
-844.445 -1606.45 0.
-919.67 -1781.77 0.
-766.943 -1624.84 0.
-680.996 -1424.01 0.
-277.067 -1086.91 0.
-458.577 -1266.59 0.
-513.88 -1396.22 0.
-798.467 -1584.96 0.
-738.223 -1440.81 0.
-677.979 -1296.66 0.
-279.091 -1118.34 0.
-349.205 -1281.66 0.
-419.319 -1444.98 0.
-818.568 -1701.98 0.
-850.901 -1777.2 0.
-883.235 -1852.43 0.
-1353.61 -1956.72 0.
-1293.73 -1816.69 0.
-787.608 -1513.3 0.
-847.709 -1656.52 0.
-907.811 -1799.73 0.
-709.069 -1742.71 0.
-635.591 -1571.01 0.
-562.112 -1399.32 0.
-682.779 -1395.7 0.
-688.334 -1407.64 0.
-693.889 -1419.57 0.
-602.96 -1499.6 0.
-679.628 -1677.74 0.
-4014.38 -3252.5 0.
-409.839 -1627.69 0.
-366.914 -1528.74 0.
-1125.65 -1739.28 0.
-1006.05 -1461.79 0.
-886.451 -1184.31 0.
-679.48 -1095.6 0.
-833.946 -1451.17 0.
-988.41 -1806.73 0.
-661.767 -1605.05 0.
-541.712 -1320.63 0.
-421.657 -1036.22 0.
-1229.03 -1419.22 0.
-1265.95 -1504.7 0.
-294.755 -1142.8 0.
-266.314 -1074.91 0.
-237.873 -1007.01 0.
-397.024 -1078.29 0.
-462.817 -1231.17 0.
-528.61 -1384.05 0.
-662.406 -1533.13 0.
-700.073 -1621.52 0.
-737.741 -1709.9 0.
-665.245 -1651.9 0.
-633.382 -1582.09 0.
-299.488 -1386.15 0.
-760.9 -1785.01 0.
-866.521 -2031.41 0.
-576.302 -2049.53 0.
-560.09 -2008.89 0.
-543.877 -1968.25 0.
-885.239 -2032.06 0.
-805.782 -1849.35 0.
-726.323 -1666.65 0.
-597.209 -1549.9 0.
-589.517 -1533.6 0.
-581.825 -1517.31 0.
-641.672 -1561.64 0.
-649.713 -1583.3 0.
-44.2003 -1311.31 0.
52.42 -1087.98 0.
149.04 -864.648 0.
-93.9095 -907.193 0.
-178.869 -1106.49 0.
-263.828 -1305.79 0.
-177.889 -1399.85 0.
-233.372 -1526.09 0.
-288.854 -1652.34 0.
-108.618 -1530.13 0.
-64.503 -1428.02 0.
-8.318 -1117.79 0.
127.315 -1177.85 0.
80.3788 -1287.23 0.
84.0418 -1333.43 0.
147.474 -1186.99 0.
210.908 -1040.56 0.
-300.777 -1217.5 0.
-333.443 -1293.19 0.
-366.11 -1368.88 0.
-94.3253 -1313.3 0.
-125.356 -1384.79 0.
-156.386 -1456.28 0.
-460.857 -1504.23 0.
-409.344 -1384.36 0.
-517.407 -1348.47 0.
-541.412 -1402.46 0.
-565.416 -1456.45 0.
-291.076 -1340.24 0.
-244.073 -1229.07 0.
-197.071 -1117.91 0.
-893.234 -1454.29 0.
-968.757 -1629.27 0.
-1044.28 -1804.25 0.
-466.184 -1464.7 0.
-380.324 -1263.83 0.
-601.561 -1194.7 0.
-532.373 -1267.23 0.
-587.142 -1397.33 0.
-842.544 -1571.53 0.
-782.234 -1427.62 0.
-721.925 -1283.71 0.
-354.643 -1117.38 0.
-425.021 -1280.66 0.
-495.4 -1443.93 0.
-770.845 -1650.61 0.
-803.725 -1725.67 0.
-836.605 -1800.73 0.
-1239.7 -1876.77 0.
-1179.39 -1736.67 0.
-803.535 -1489.03 0.
-864.11 -1631.6 0.
-924.684 -1774.17 0.
-859.455 -1776.71 0.
-786.129 -1604.97 0.
-712.803 -1433.23 0.
-526.27 -1297.24 0.
-531.639 -1309.55 0.
-537.008 -1321.87 0.
-615.182 -1471.98 0.
-691.238 -1650.77 0.
-14.4839 -1506.61 0.
-365.934 -1576.79 0.
-322.932 -1477.9 0.
-1186.02 -1734.48 0.
-1066.78 -1456.62 0.
-947.542 -1178.75 0.
-672.946 -1062.65 0.
-827.839 -1417.84 0.
-982.73 -1773.03 0.
-619.15 -1557.01 0.
-499.247 -1272.19 0.
-379.345 -987.374 0.
-1040.9 -1306.14 0.
-1078.08 -1391.56 0.
-396.952 -1155.55 0.
-368.175 -1087.94 0.
-339.397 -1020.32 0.
-399.083 -1046.78 0.
-464.726 -1199.95 0.
-530.37 -1353.12 0.
-640.602 -1493.47 0.
-678.181 -1581.94 0.
-715.761 -1670.41 0.
-741.719 -1652.74 0.
-710.387 -1582.52 0.
-211.284 -1316.94 0.
-695.395 -1726.09 0.
-800.966 -1972.96 0.
-543.983 -2004.91 0.
-527.431 -1964.39 0.
-510.879 -1923.86 0.
-960.183 -2032.11 0.
-880.87 -1849.36 0.
-801.558 -1666.61 0.
-441.058 -1452.43 0.
-433.568 -1436.09 0.
-426.077 -1419.75 0.
-491.492 -1466.23 0.
-499.741 -1487.53 0.
-29.761 -1274.82 0.
67.1681 -1051.62 0.
164.097 -828.414 0.
-338.499 -980.3 0.
-422.857 -1180.22 0.
-507.215 -1380.14 0.
-201.284 -1378.58 0.
-256.631 -1505.01 0.
-311.978 -1631.43 0.
-171.16 -1525.47 0.
-127.194 -1423.97 0.
758.557 789.799 0.
311.392 -361.439 0.
153.784 -731.963 0.
589.244 -122.263 0.
470.103 -400.644 0.
1147.14 1179.59 0.
426.003 448.39 0.
248.912 33.3735 0.
595.983 840.934 0.
131.078 -907.356 0.
399.106 -282.636 0.
777.867 600.968 0.
5.88467 -494.095 0.
192.261 -57.4811 0.
-2.46982 194.303 0.
-263.604 -415.544 0.
-90.3627 -11.584 0.
483.208 66.6768 0.
575.614 280.737 0.
261.368 -453.929 0.
-746.712 -847.684 0.
-568.123 -431.687 0.
-219.724 380.736 0.
226.308 -396.723 0.
339.315 -134.255 0.
56.8727 -195.927 0.
-326.949 -622.579 0.
238.317 694.484 0.
-208.018 29.35 0.
-380.452 -372.872 0.
-714.096 -1151.09 0.
148.059 238.759 0.
91.6348 103.841 0.
368.074 745.672 0.
275.538 739.692 0.
-188.255 -343.072 0.
-252.162 -492.888 0.
-691.967 -777.885 0.
-529.876 -400.085 0.
-161.38 63.0163 0.
-178.332 22.5999 0.
-603.895 -971.513 0.
-266.102 -72.3085 0.
-379.431 -338.098 0.
-108.657 292.308 0.
322.329 423.946 0.
-100.65 -563.039 0.
313.454 402.957 0.
69.8945 183.973 0.
395.572 945.954 0.
-4547.99 -1322.52 0.
408.377 174.406 0.
655.647 752.325 0.
-327.747 410.728 0.
-446.178 132.489 0.
-844.771 -799.22 0.
-637.995 -957.58 0.
-199.053 63.3189 0.
-410.313 -432.505 0.
-112.988 -411.572 0.
137.174 168.97 0.
68.2801 4.77366 0.
-595.893 -593.225 0.
-555.327 -500.88 0.
-24.9135 -60.2569 0.
70.4794 160.569 0.
-133.955 -318.032 0.
-53.3911 -204.463 0.
-61.938 -224.354 0.
19.7089 -33.795 0.
-99.1453 -244.669 0.
-205.089 -489.539 0.
32.757 68.0276 0.
-105.646 -0.775471 0.
-430.696 -756.814 0.
359.636 158.166 0.
-219.339 -710.387 0.
147.989 150.197 0.
-1.40556 -765.876 0.
74.614 -588.27 0.
-33.3602 -840.2 0.
-137.46 47.4836 0.
-212.757 -127.063 0.
-472.709 -731.96 0.
99.3078 -454.337 0.
106.445 -436.728 0.
364.077 165.112 0.
-235.293 -1126.3 0.
-272.122 -1209.51 0.
811.691 684.182 0.
643.418 296.308 0.
167.739 -809.065 0.
-142.018 -44.8929 0.
115.813 559.684 0.
-74.8359 118.575 0.
49.5121 -711.873 0.
163.657 -447.063 0.
638.962 661.385 0.
593.781 401.04 0.
726.849 714.324 0.
273.714 -886.565 0.
121.809 -944.297 0.
103.682 -987.99 0.
63.4807 -1038.54 0.
46.2285 -1078.73 0.
28.9763 -1118.91 0.
-219.863 -1234.05 0.
-203.599 -1197.26 0.
-187.335 -1160.47 0.
-87.1626 -1107.33 0.
-89.046 -1111.77 0.
-90.9295 -1116.2 0.
-248.606 -1294.86 0.
-312.977 -1445 0.
-636.273 -1661.72 0.
-490.102 -1321.93 0.
-343.93 -982.136 0.
-29.5108 -728.132 0.
-134.671 -975.403 0.
-239.832 -1222.68 0.
-979.668 -1587.83 0.
-942.47 -1502.81 0.
-905.273 -1417.78 0.
-260.026 -1160.32 0.
-282.128 -1213.82 0.
-20.5433 -1145.77 0.
-723.125 -1382.05 0.
-686.285 -1296.36 0.
-656.082 -1258.84 0.
-734.744 -1443.63 0.
-813.405 -1628.42 0.
-591.43 -1489.83 0.
-441.359 -1142.58 0.
-291.288 -795.335 0.
-412.905 -857.549 0.
-493.717 -1048.42 0.
-574.529 -1239.3 0.
-968.193 -1414.94 0.
-960.462 -1397.38 0.
-614.846 -1239.53 0.
-617.182 -1246.04 0.
-619.517 -1252.55 0.
-842.199 -1336.67 0.
-819.681 -1284.14 0.
-797.162 -1231.6 0.
-477.683 -1178.62 0.
-575.632 -1408.8 0.
-673.58 -1638.98 0.
-535.968 -1542.75 0.
-482.717 -1418.41 0.
-1648.98 -1817.9 0.
-332.978 -1178.79 0.
-294.314 -1087.46 0.
-879.21 -1320.34 0.
-978.048 -1550.74 0.
-1076.89 -1781.14 0.
-948.398 -1764.72 0.
-866.254 -1573.25 0.
-784.109 -1381.78 0.
-504.886 -1219.44 0.
-513.149 -1241.53 0.
-521.412 -1263.62 0.
-878.406 -1412.55 0.
-873.406 -1402.3 0.
-471.037 -1223.9 0.
-486.905 -1262.26 0.
-502.774 -1300.61 0.
-586.983 -1336.43 0.
-552.421 -1254.16 0.
-517.859 -1171.89 0.
-366.474 -1090.55 0.
-376.58 -1111.96 0.
-386.687 -1133.37 0.
-681.244 -1353.26 0.
-743.783 -1496.26 0.
-412.963 -1465.37 0.
-623.365 -1331.68 0.
-507.811 -1058.3 0.
-173.861 -777.552 0.
-246.397 -947.826 0.
-318.934 -1118.1 0.
-623.337 -1347.96 0.
-651.118 -1409.96 0.
-678.899 -1471.97 0.
-222.596 -1254.21 0.
-192.804 -1183.3 0.
-163.012 -1112.4 0.
-383.508 -1147.85 0.
-357.26 -1083.3 0.
163.73 -826.045 0.
126.507 -908.797 0.
89.284 -991.548 0.
-492.854 -1262.49 0.
-460.251 -1183.24 0.
-427.648 -1103.99 0.
-254.328 -1067.74 0.
-314.109 -1207.74 0.
-373.889 -1347.74 0.
-216.29 -1251.26 0.
-179.219 -1163.55 0.
576.908 -724.42 0.
212.005 -874.646 0.
193.533 -918.317 0.
-82.8153 -1069.51 0.
-100.281 -1109.45 0.
-117.747 -1149.39 0.
-111.955 -1156.86 0.
-95.8814 -1119.89 0.
-79.8075 -1082.92 0.
-233.386 -1139.19 0.
-235.341 -1143.65 0.
-237.297 -1148.12 0.
-123.771 -1209.93 0.
-187.957 -1360.38 0.
-420.786 -1536.78 0.
-274.552 -1196.91 0.
-128.318 -857.041 0.
-223.749 -779.955 0.
-329.053 -1026.7 0.
-434.357 -1273.45 0.
-859.901 -1506.19 0.
-822.951 -1421.18 0.
-786.001 -1336.17 0.
-436.919 -1204.82 0.
-459.169 -1258.58 0.
-35.1774 -1121.51 0.
-792.63 -1379.61 0.
-755.815 -1294.35 0.
-509.663 -1165.89 0.
-588.435 -1350.66 0.
-667.206 -1535.43 0.
-571.418 -1448.42 0.
-420.949 -1101.39 0.
-270.479 -754.355 0.
-399.391 -818.8 0.
-480.519 -1009.41 0.
-561.647 -1200.02 0.
-955.049 -1379.15 0.
-947.56 -1361.2 0.
-470.626 -1146.49 0.
-472.726 -1152.95 0.
-474.827 -1159.4 0.
-870.349 -1317.16 0.
-847.966 -1264.43 0.
-825.582 -1211.69 0.
-600.266 -1200.38 0.
-698.335 -1430.29 0.
-796.404 -1660.21 0.
-353.395 -1432.9 0.
-300.025 -1308.56 0.
-379.527 -1241.83 0.
-513.746 -1224.71 0.
-474.682 -1133.57 0.
-629.494 -1181.55 0.
-728.42 -1412.36 0.
-827.347 -1643.17 0.
-888.719 -1707.01 0.
-806.75 -1515.65 0.
-724.78 -1324.28 0.
-544.965 -1205.54 0.
-553.34 -1227.54 0.
-561.714 -1249.54 0.
-779.85 -1339.12 0.
-774.966 -1329.05 0.
-388.351 -1156.36 0.
-403.691 -1195.19 0.
-419.032 -1234.03 0.
-634.165 -1324.77 0.
-599.621 -1242.54 0.
-565.078 -1160.31 0.
-233.274 -1003.2 0.
-242.984 -1024.82 0.
-252.693 -1046.44 0.
-661.677 -1313.6 0.
-723.781 -1457.1 0.
-531.079 -1483.41 0.
-776.329 -1365.54 0.
-660.336 -1092.84 0.
-362.117 -826.568 0.
-434.652 -996.673 0.
-507.186 -1166.78 0.
-471.248 -1251.66 0.
-498.82 -1313.74 0.
-526.392 -1375.82 0.
-180.86 -1205.13 0.
-151.031 -1134.23 0.
-121.203 -1063.33 0.
-538.056 -1183.04 0.
-511.588 -1118.66 0.
178.956 -788.35 0.
142.139 -871.229 0.
105.323 -954.107 0.
-265.694 -1132.35 0.
-232.865 -1053.31 0.
-200.037 -974.268 0.
-424.416 -1109.73 0.
-484.235 -1249.96 0.
-544.055 -1390.19 0.
-324.006 -1265.28 0.
-286.62 -1178.34 0.
695.362 -467.246 0.
83.5228 -1033.64 0.
-49.1429 -1342.4 0.
-405.251 -1667.96 0.
-343.997 -1524.65 0.
-282.743 -1381.35 0.
-166.079 -1280.23 0.
-184.997 -1323.66 0.
-203.915 -1367.08 0.
-406.401 -1445.13 0.
-386.246 -1398.82 0.
-366.091 -1352.5 0.
-168.768 -1252.7 0.
-162.448 -1237.77 0.
-228.657 -1256.82 0.
-262.95 -1334.38 0.
-297.243 -1411.93 0.
-584.111 -1584.47 0.
-597.152 -1612.71 0.
-610.194 -1640.95 0.
-864.412 -1632.81 0.
-740.403 -1342.65 0.
-616.395 -1052.5 0.
-478.353 -1044.52 0.
-547.344 -1205.73 0.
277.584 -983.509 0.
-764.122 -1384.89 0.
-746.368 -1341.66 0.
-497.794 -1218.09 0.
-506.947 -1239.32 0.
-516.1 -1260.56 0.
-510.946 -1290.21 0.
-536.818 -1348.53 0.
-562.689 -1406.85 0.
-623.307 -1404.69 0.
-586.558 -1320.15 0.
-549.809 -1235.6 0.
-1086.26 -1550 0.
-1143.48 -1683.14 0.
-606.612 -1535.63 0.
-549.809 -1403.27 0.
-493.007 -1270.9 0.
-861.854 -1320.54 0.
-800.957 -1179.13 0.
-740.059 -1037.73 0.
-532.614 -1006.91 0.
-634.546 -1244.18 0.
-736.478 -1481.45 0.
-315.727 -1311.96 0.
-290.745 -1253.73 0.
-2138.09 -1996.88 0.
-505.242 -1139.04 0.
-422.681 -945.772 0.
-393.705 -860.384 0.
-516.43 -1148.35 0.
-639.156 -1436.32 0.
-815.579 -1540.21 0.
-693.286 -1254.91 0.
-570.992 -969.621 0.
-493.732 -961.882 0.
-576.998 -1155.63 0.
-660.263 -1349.37 0.
-730.745 -1334.66 0.
-694.163 -1246.34 0.
-264.555 -1009.51 0.
-323.5 -1145.47 0.
-382.444 -1281.43 0.
-721.311 -1492.93 0.
-700.069 -1443.46 0.
-678.827 -1394 0.
-404.567 -1320.82 0.
-473.444 -1480.99 0.
-542.32 -1641.17 0.
-803.744 -1712.35 0.
-759.179 -1608.81 0.
-539.278 -1442.64 0.
-867.552 -1500.91 0.
-823.231 -1399.58 0.
-582.231 -1233.98 0.
-606.097 -1288.2 0.
-629.964 -1342.42 0.
-462.989 -1338.9 0.
-506.854 -1440.85 0.
-550.719 -1542.8 0.
-370.751 -1439.55 0.
-334.333 -1355.63 0.
-297.916 -1271.7 0.
-693.52 -1538.18 0.
-749.238 -1670.11 0.
-182.531 -1490.11 0.
-56.2777 -1197.42 0.
69.9758 -904.728 0.
-99.1481 -872.405 0.
-170.261 -1041.06 0.
-241.373 -1209.71 0.
-557.7 -1361.32 0.
-519.416 -1271.19 0.
-481.132 -1181.06 0.
-122.898 -818.327 0.
7.82611 -513.59 0.
442.482 -548.39 0.
-119.927 -1090.03 0.
-252.736 -1398.47 0.
-379.619 -1625.86 0.
-318.382 -1482.42 0.
-257.146 -1338.97 0.
-241.827 -1279.86 0.
-260.221 -1323.67 0.
-278.616 -1367.47 0.
-332.51 -1383.11 0.
-312.233 -1336.87 0.
-291.956 -1290.63 0.
-324.705 -1286.27 0.
-318.337 -1271.64 0.
-231.596 -1226.58 0.
-266.432 -1303.87 0.
-301.268 -1381.16 0.
-395.742 -1472.99 0.
-408.532 -1501.43 0.
-421.322 -1529.86 0.
-827.527 -1584.77 0.
-703.491 -1294.66 0.
-579.456 -1004.55 0.
-530.633 -1034.75 0.
-599.487 -1196.18 0.
131.917 -1014.5 0.
-583.122 -1276.06 0.
-565.253 -1232.73 0.
-529.449 -1200.27 0.
-538.446 -1221.48 0.
-547.444 -1242.7 0.
-526.199 -1266.08 0.
-551.977 -1324.5 0.
-577.755 -1382.92 0.
-540.671 -1336.71 0.
-503.849 -1252.12 0.
-467.027 -1167.53 0.
-1212.34 -1573.57 0.
-1269.67 -1706.28 0.
-637.451 -1518.6 0.
-580.925 -1385.74 0.
-524.399 -1252.88 0.
-773.203 -1251.52 0.
-712.333 -1109.96 0.
-651.463 -968.402 0.
-415.085 -924.012 0.
-516.509 -1161.66 0.
-617.933 -1399.32 0.
-506.498 -1361.77 0.
-481.388 -1303.66 0.
-2289.21 -2029.82 0.
-355.309 -1042.73 0.
-273.008 -849.318 0.
-370.763 -820.012 0.
-493.393 -1107.77 0.
-616.022 -1395.53 0.
-834.772 -1518.2 0.
-712.641 -1232.61 0.
-590.511 -947.024 0.
-553.696 -957.018 0.
-636.476 -1151.27 0.
-719.257 -1345.53 0.
-679.217 -1280.45 0.
-642.81 -1192.22 0.
-178.632 -939.913 0.
-237.001 -1076.33 0.
-295.369 -1212.74 0.
-680.876 -1443.64 0.
-659.519 -1394.37 0.
-638.161 -1345.11 0.
-588.225 -1368.3 0.
-657.056 -1528.28 0.
-725.887 -1688.26 0.
-719.709 -1646.12 0.
-675.285 -1542.4 0.
-472.398 -1380.67 0.
-759.423 -1421.22 0.
-715.343 -1319.94 0.
-475.129 -1157.77 0.
-499.079 -1212.01 0.
-523.029 -1266.26 0.
-461.483 -1306.49 0.
-505.509 -1408.48 0.
-549.535 -1510.47 0.
-598.555 -1505.42 0.
-561.916 -1421.86 0.
-525.278 -1338.31 0.
-513.668 -1430.44 0.
-569.261 -1562.56 0.
-308.196 -1512.23 0.
-181.54 -1219.58 0.
-54.8833 -926.928 0.
-147.865 -861.313 0.
-218.966 -1029.92 0.
-290.067 -1198.53 0.
-417.447 -1270.33 0.
-379.166 -1180.25 0.
-340.886 -1090.16 0.
53.543 -712.034 0.
184.238 -408.226 0.
544.727 213.129 0.
335.734 392.81 0.
-153.938 -750.22 0.
332.765 18.0504 0.
-88.7305 -966.217 0.
77.438 -578.798 0.
69.1986 -378.938 0.
621.224 910.765 0.
469.126 557.33 0.
409.691 233.242 0.
670.666 842.742 0.
229.416 -185.574 0.
-10.7668 -225.389 0.
418.521 777.062 0.
804.238 1238.12 0.
269.945 -11.3263 0.
138.451 -320.395 0.
160.187 -506.03 0.
466.572 209.421 0.
278.203 -229.573 0.
-581.441 -1040.96 0.
-260.155 -291.029 0.
-12.2557 287.609 0.
-324.965 -436.216 0.
203.691 794.944 0.
447.688 96.1782 0.
-135.954 -545.681 0.
12.4046 -198.616 0.
-550.853 -1171.69 0.
170.052 512.648 0.
166.865 507.7 0.
-227.672 -503.904 0.
117.609 302.15 0.
92.5181 244.236 0.
-85.2304 -401.691 0.
36.8595 -115.876 0.
321.855 549.865 0.
-581.633 172.181 0.
-649.638 12.0763 0.
182.847 484.026 0.
107.296 311.225 0.
-24.5298 7.28804 0.
-370.823 -454.589 0.
-191.033 -34.5051 0.
-232.606 -131.008 0.
110.885 109.694 0.
21.4573 -98.9951 0.
320.654 598.868 0.
124.669 509.012 0.
181.907 642.109 0.
-2694.61 -1048.21 0.
518.788 739.831 0.
70.1844 -307.142 0.
-398.533 -899.962 0.
-64.1006 -119.551 0.
54.7183 157.65 0.
-116.19 224.078 0.
103.781 737.829 0.
-346.39 -312.018 0.
-351.714 -350.954 0.
-500.198 -698.475 0.
38.7918 558.021 0.
-159.86 -132.039 0.
-117.76 -35.5499 0.
442.163 370.412 0.
190.067 -213.275 0.
361.052 190.117 0.
-158.419 -274.766 0.
90.3489 307.274 0.
-367.865 -760.114 0.
-626.711 -1086.32 0.
-178.339 -36.4688 0.
200.932 852.217 0.
-193.458 -555.199 0.
-456.475 -1170.49 0.
308.586 546.08 0.
-47.7013 64.9057 0.
-21.104 125.168 0.
367.817 644.487 0.
-121.107 -499.339 0.
156.869 145.864 0.
-297.779 -899.94 0.
-14.7255 -240.29 0.
54.4141 -79.6548 0.
-482.883 -771.119 0.
-289.798 -321.77 0.
-402.33 -584.94 0.
262.585 63.069 0.
-59.3476 -688.697 0.
43.2305 -429.374 0.
193.403 -76.7226 0.
-66.6718 -681.716 0.
181.465 21.8046 0.
423.044 586.013 0.
-217.197 -907.712 0.
-86.6816 -729.232 0.
-241.219 -1089.33 0.
231.506 13.2161 0.
437.053 -143.199 0.
334.579 -383.035 0.
374.217 -718.8 0.
-27.3366 -880.181 0.
-36.9457 -903.513 0.
-196.078 -1014.5 0.
-269.044 -1186.85 0.
-342.011 -1359.21 0.
-189.41 -1265.88 0.
-61.8802 -966.766 0.
65.6496 -667.653 0.
-40.5855 -705.18 0.
-100.478 -846.009 0.
-160.371 -986.837 0.
-427.572 -1186 0.
-467.257 -1278.48 0.
-294.848 -1278.34 0.
-307.338 -1311.98 0.
-319.829 -1345.62 0.
-255.506 -1266.8 0.
-151.757 -1024.67 0.
-48.0081 -782.537 0.
-394.489 -941.239 0.
-490.236 -1164.74 0.
-585.983 -1388.25 0.
-636.241 -1362.29 0.
-577.923 -1225.33 0.
-118.298 -916.814 0.
-677.756 -1287.62 0.
-741.392 -1436.92 0.
-762.764 -1491.86 0.
-662.509 -1258.22 0.
-562.253 -1024.58 0.
-232.286 -851.161 0.
-320.485 -1056.12 0.
-408.684 -1261.08 0.
-596.078 -1320.79 0.
-535.644 -1179.34 0.
-475.21 -1037.88 0.
-968.881 -1216.73 0.
-955.979 -1188.24 0.
-517.646 -979.299 0.
-500.94 -942.617 0.
-484.234 -905.935 0.
-543.142 -971.624 0.
-637.901 -1193.86 0.
-732.66 -1416.1 0.
-547.936 -1377.87 0.
-508.817 -1288.24 0.
-469.699 -1198.6 0.
-632.202 -1149.58 0.
-561.688 -985.901 0.
-423.708 -794.417 0.
-360.813 -865.495 0.
-412.697 -986.163 0.
-326.038 -1028.29 0.
-328.828 -1035.85 0.
-331.617 -1043.4 0.
-760.126 -1255.32 0.
-792.6 -1331.35 0.
-825.074 -1407.39 0.
-647.973 -1297.03 0.
-604.932 -1193.91 0.
-561.892 -1090.79 0.
-806.18 -1296.87 0.
-871.258 -1450.72 0.
-459.973 -1388.8 0.
-472.371 -1414.71 0.
-484.77 -1440.62 0.
-676.485 -1523.17 0.
-664.282 -1493.3 0.
-652.079 -1463.44 0.
-441.521 -1234.88 0.
-318.065 -947.501 0.
-194.609 -660.123 0.
-530.486 -847.967 0.
-592.203 -993.709 0.
-218.033 -947.988 0.
-459.146 -1108.95 0.
-489.067 -1179.36 0.
-466.438 -1204.75 0.
-442.507 -1153.51 0.
-418.577 -1102.28 0.
-273.75 -978.256 0.
-227.931 -872.817 0.
-182.112 -767.377 0.
-425.53 -913.37 0.
-475.567 -1030.28 0.
-525.605 -1147.2 0.
-348.877 -1127.75 0.
-378.234 -1196.13 0.
-329.89 -1239.66 0.
-388.373 -1374.35 0.
-446.855 -1509.03 0.
-365.979 -1468.01 0.
-246.802 -1188.46 0.
-127.626 -908.914 0.
-325.502 -909.056 0.
-338.338 -938.742 0.
-351.174 -968.428 0.
44.239 -1012.25 0.
-97.0005 -1342.87 0.
669.224 -564.854 0.
212.722 -747.092 0.
203.339 -770.391 0.
-284.263 -1020.15 0.
-356.729 -1192.79 0.
-429.195 -1365.44 0.
-24.6587 -1163.46 0.
103.115 -864.349 0.
230.889 -565.238 0.
-81.9067 -691.533 0.
-141.527 -832.674 0.
-201.147 -973.816 0.
-418.134 -1149.9 0.
-457.876 -1242.61 0.
-297.354 -1247.7 0.
-310.48 -1280.72 0.
-323.606 -1313.74 0.
-348.287 -1275.71 0.
-244.624 -1033.5 0.
-140.961 -791.293 0.
-201.489 -828.154 0.
-297.296 -1051.65 0.
-393.103 -1275.15 0.
-514.889 -1279.06 0.
-457.13 -1141.62 0.
377.198 -671.979 0.
-937.091 -1369.94 0.
-1000.62 -1519.56 0.
-835.584 -1490.4 0.
-734.74 -1257.4 0.
-633.896 -1024.39 0.
-41.213 -737.107 0.
-129.029 -942.427 0.
-216.846 -1147.75 0.
-721.529 -1341.54 0.
-660.93 -1200.17 0.
-600.332 -1058.81 0.
-699.703 -1070.52 0.
-687.038 -1041.59 0.
-586.852 -978.141 0.
-570.521 -940.805 0.
-554.19 -903.469 0.
-468.142 -908.742 0.
-562.551 -1131.28 0.
-656.96 -1353.81 0.
-556.15 -1350.53 0.
-517.182 -1260.86 0.
-478.214 -1171.19 0.
-668.788 -1134.54 0.
-598.402 -970.803 0.
-1529.9 -1236.44 0.
-580.396 -927.93 0.
-632.063 -1048.82 0.
-153.484 -922.837 0.
-155.854 -930.91 0.
-158.223 -938.982 0.
-756.692 -1222.89 0.
-789.511 -1298.5 0.
-822.33 -1374.11 0.
-499.927 -1202.75 0.
-456.743 -1099.95 0.
-413.559 -997.147 0.
-969.047 -1335.48 0.
-1033.82 -1489.16 0.
-622.412 -1425.81 0.
-634.29 -1452.06 0.
-646.168 -1478.3 0.
-638.969 -1476.45 0.
-626.691 -1446.63 0.
-614.412 -1416.81 0.
-119.3 -1064.9 0.
4.71191 -778.044 0.
128.724 -491.185 0.
-770.404 -919.596 0.
-832.037 -1065.73 0.
-445.965 -1014.27 0.
-331.599 -1022.91 0.
-361.654 -1093.45 0.
-503.128 -1189.53 0.
-479.314 -1138.31 0.
-455.501 -1087.1 0.
-188.263 -910.878 0.
-142.152 -805.728 0.
-96.0411 -700.578 0.
-265.944 -813.482 0.
-315.493 -931.102 0.
-365.041 -1048.72 0.
-457.153 -1142.98 0.
-486.647 -1211.33 0.
-348.369 -1215.7 0.
-406.676 -1350.27 0.
-464.982 -1484.84 0.
-237.671 -1382.52 0.
-118.755 -1102.52 0.
0.160943 -822.528 0.
-509.154 -957.435 0.
-522.128 -987.168 0.
-535.102 -1016.9 0.
37.3163 -982.524 0.
-103.85 -1313.33 0.
353.948 -1150.11 0.
88.7134 -1110.47 0.
203.293 -841.049 0.
-204.91 -830.397 0.
-175.445 -758.329 0.
-145.982 -686.26 0.
268.611 -558.877 0.
168.119 -793.154 0.
67.6264 -1027.43 0.
-285.384 -1180.66 0.
-237.842 -1067.8 0.
-190.299 -954.953 0.
-314.683 -930.892 0.
-273.511 -834.224 0.
-106.325 -688.191 0.
-90.0254 -647.882 0.
-73.7256 -607.572 0.
-125.671 -626.917 0.
-156.736 -697.609 0.
-187.801 -768.301 0.
-137.876 -840.536 0.
-202.947 -993.202 0.
-268.017 -1145.87 0.
-431.033 -1150.05 0.
-363.133 -992.926 0.
612.269 -446.389 0.
-851.907 -1047.57 0.
-844.098 -1025.85 0.
-517.814 -905.328 0.
-589.85 -1070.55 0.
-661.885 -1235.78 0.
-285.52 -1110.36 0.
-241.778 -1005.76 0.
-198.036 -901.171 0.
-729.521 -1236.99 0.
-833.768 -1481.15 0.
-938.015 -1725.31 0.
-673.498 -1413.76 0.
-545.043 -1114.57 0.
-610.849 -931.429 0.
-633.226 -983.858 0.
-655.604 -1036.29 0.
-527.088 -1027.72 0.
-559.949 -1101.83 0.
-592.809 -1175.94 0.
-425.393 -1046.16 0.
-341.499 -849.777 0.
-257.606 -653.393 0.
-580.317 -812.751 0.
-620.03 -904.851 0.
-1510.89 -1363.85 0.
-751.099 -1199.48 0.
-835.487 -1396.83 0.
-363.207 -1285.62 0.
-286.695 -1106.05 0.
-210.184 -926.477 0.
-632.675 -1028.87 0.
-630.157 -1026.5 0.
-627.638 -1024.13 0.
-329.841 -839.856 0.
-285.288 -735.945 0.
-240.734 -632.033 0.
-875.697 -961.455 0.
-914.509 -1051.84 0.
-414.656 -898.613 0.
-388.37 -836.233 0.
-362.083 -773.853 0.
-301.731 -749.668 0.
-359.812 -886.298 0.
-417.892 -1022.93 0.
-0.145328 -931.74 0.
-38.3689 -1017.29 0.
-76.5925 -1102.84 0.
-1017.71 -1387.67 0.
-926.222 -1175.84 0.
-228.728 -704.991 0.
-272.244 -876.65 0.
-353.047 -1065.03 0.
-489.569 -1241.71 0.
-499.209 -1258.65 0.
-508.849 -1275.58 0.
-347.152 -1210.77 0.
-343.88 -1200.05 0.
-340.608 -1189.33 0.
-307.26 -1198.94 0.
-325.855 -1242.04 0.
-344.45 -1285.13 0.
-532.986 -1194.38 0.
-429.207 -952.231 0.
-169.944 -671.133 0.
-186.964 -712.588 0.
-203.984 -754.044 0.
20.9796 -743.299 0.
-84.1237 -989.226 0.
-189.227 -1235.15 0.
-592.253 -1371.64 0.
-476.56 -1103.45 0.
-360.867 -835.266 0.
120.946 -730.824 0.
25.6717 -953.525 0.
-87.6131 -1307.14 0.
-44.2554 -1138 0.
70.2749 -868.257 0.
-102.021 -753.185 0.
-72.0483 -681.362 0.
-42.0767 -609.539 0.
219.485 -549.033 0.
119.096 -783.4 0.
18.707 -1017.77 0.
-198.465 -1111.1 0.
-150.567 -998.467 0.
-102.669 -885.837 0.
-258.94 -875.882 0.
-217.6 -779.495 0.
-198.998 -695.009 0.
-182.605 -654.778 0.
-166.213 -614.547 0.
-136.335 -600.723 0.
-167.586 -671.203 0.
-198.836 -741.683 0.
-142.171 -810.832 0.
-206.994 -963.762 0.
-271.818 -1116.69 0.
-444.173 -1122.91 0.
-376.235 -965.889 0.
309.75 -543.626 0.
-693.001 -949.702 0.
-685.195 -928.004 0.
-255.188 -760.439 0.
-327.076 -925.928 0.
-398.964 -1091.42 0.
-648.025 -1234.09 0.
-603.956 -1129.68 0.
-559.888 -1025.27 0.
-698.635 -1191.29 0.
-802.736 -1435.68 0.
-906.837 -1680.06 0.
-482.334 -1301.31 0.
-353.598 -1002.1 0.
-620.65 -902.841 0.
-642.725 -955.656 0.
-664.799 -1008.47 0.
-593.377 -1025.77 0.
-625.892 -1100.32 0.
-658.406 -1174.86 0.
-392.902 -999.344 0.
-308.795 -803.558 0.
-224.689 -607.771 0.
-644.415 -808.723 0.
-684.024 -901.101 0.
-1251.59 -1221.01 0.
-620.241 -1111.21 0.
-705.275 -1308.3 0.
-638.789 -1372.26 0.
-562.473 -1192.68 0.
-486.156 -1013.1 0.
-506.82 -943.604 0.
-504.228 -941.277 0.
-501.636 -938.95 0.
-398.163 -837.287 0.
-353.418 -733.532 0.
-308.673 -629.778 0.
-843.495 -915.85 0.
-882.046 -1006.09 0.
-273.369 -807.236 0.
-246.98 -744.679 0.
-220.591 -682.121 0.
-245.744 -695.789 0.
-303.701 -832.384 0.
-361.658 -968.98 0.
-139.758 -959 0.
-177.793 -1044.87 0.
-215.828 -1130.74 0.
-854.725 -1286.47 0.
-763.59 -1074.52 0.
130.21 -518.451 0.
-372.092 -887.15 0.
-452.653 -1075.55 0.
-342.453 -1148.49 0.
-351.389 -1166.25 0.
-360.325 -1184.02 0.
-483.994 -1237.73 0.
-480.614 -1227.08 0.
-477.235 -1216.43 0.
-140.569 -1095.09 0.
-158.691 -1138.66 0.
-176.814 -1182.24 0.
-519.138 -1156.66 0.
-415.407 -914.328 0.
-244.723 -671.974 0.
-261.923 -712.738 0.
-279.123 -753.5 0.
-110.568 -769.256 0.
-215.994 -1014.81 0.
-321.419 -1260.36 0.
-141.177 -1146.95 0.
-25.4611 -878.849 0.
90.2548 -610.748 0.
115.779 -702.27 0.
20.529 -925.218 0.
-205.279 -698.509 0.
438.356 276.358 0.
49.3635 -633.295 0.
-106.357 -930.466 0.
99.9772 -446.37 0.
278.95 -26.4415 0.
-86.1194 -1133.67 0.
455.557 127.619 0.
284.31 -274.485 0.
545.531 495.995 0.
308.003 -58.8769 0.
154.055 -418.825 0.
141.283 -21.0396 0.
-19.5202 -397.962 0.
159.109 356.072 0.
119.943 264.763 0.
-71.3216 -181.442 0.
54.9322 -96.5837 0.
-79.0731 -408.763 0.
-123.66 -512.419 0.
65.3676 -280.186 0.
186.304 0.802869 0.
145.959 -94.4655 0.
-114.157 -295.581 0.
-76.3042 -208.973 0.
534.186 212.542 0.
-505.868 -785.116 0.
-49.9694 278.016 0.
595.189 762.774 0.
140.367 -297.432 0.
222.169 -105.33 0.
-496.528 -160.04 0.
-299.368 298.638 0.
47.8909 1107.47 0.
-49.7015 293.693 0.
-586.492 -958.631 0.
-36.8406 323.553 0.
173.97 -103.157 0.
2.23288 -503.048 0.
-212.382 99.0627 0.
-258.031 -9.04403 0.
-279.856 -61.4792 0.
-225.23 -16.3435 0.
-23.8544 453.04 0.
73.4997 679.992 0.
298.908 589.359 0.
-0.996888 -112.004 0.
-260.227 -718.132 0.
-458.128 -215.797 0.
-138.674 528.625 0.
-1360.82 -521.849 0.
86.2119 314.31 0.
205.423 591.465 0.
144.148 1010.95 0.
-218.16 167.797 0.
-197.897 217.524 0.
-280.748 -626.148 0.
-61.2119 -111.479 0.
226.949 563.443 0.
-229.399 -281.421 0.
-205.479 -223.061 0.
49.941 375.25 0.
-473.788 -91.4517 0.
-685.654 -584.463 0.
365.645 449.434 0.
36.67 -314.974 0.
24.5621 -340.296 0.
110.144 56.2326 0.
182.34 224.86 0.
-238.548 -757.285 0.
-40.6051 -429.229 0.
-33.2102 -409.58 0.
-67.1007 -486.964 0.
-175.686 16.3631 0.
-222.528 -90.8059 0.
-90.3716 -575.171 0.
-92.6143 -24.1365 0.
-405.184 -748.5 0.
568.551 725.778 0.
104.18 -355.951 0.
238.055 -41.7375 0.
-353.654 -638.088 0.
106.344 432.349 0.
-175.955 -229.45 0.
216.136 -545.702 0.
61.938 -904.871 0.
433.444 -37.283 0.
-370.092 -806.722 0.
-306.935 -658.253 0.
135.059 389.272 0.
246.873 650.643 0.
40.8747 169.996 0.
-80.1805 -418.753 0.
126.659 67.1819 0.
114.197 41.315 0.
627.561 -182.125 0.
357.333 -813.417 0.
940.383 547.987 0.
150.818 -577.454 0.
142.221 -598.818 0.
157.751 -492.984 0.
-51.261 -684.398 0.
-145.947 -906.229 0.
-162.832 -1083.08 0.
-221.453 -1217.67 0.
-280.075 -1352.26 0.
-326.775 -1382.28 0.
-269.836 -1251.6 0.
-212.897 -1120.92 0.
29.9927 -999.483 0.
21.6767 -1018.67 0.
13.3607 -1037.85 0.
-405.547 -1048.33 0.
-311.151 -826.883 0.
-211.407 -640.897 0.
-262.689 -762.532 0.
-313.969 -884.167 0.
-438.536 -1040.29 0.
-503.266 -1191.42 0.
-567.996 -1342.54 0.
-221.199 -1153 0.
-131.573 -943.722 0.
-41.9475 -734.446 0.
-366.208 -779.955 0.
-328.184 -693.121 0.
321.824 -343.926 0.
-552.099 -795.533 0.
-591.089 -886.717 0.
-172.452 -771.716 0.
-186.768 -806.462 0.
-201.085 -841.209 0.
-617.637 -981.107 0.
-551.553 -828.883 0.
-485.47 -676.658 0.
-466.327 -615.536 0.
-461.735 -601.655 0.
-457.143 -587.774 0.
-115.537 -467.191 0.
-132.403 -506.466 0.
-647.928 -769.214 0.
-696.814 -884.974 0.
-745.7 -1000.74 0.
-593.396 -964.888 0.
-539.294 -839.851 0.
-485.191 -714.813 0.
-226.626 -563.24 0.
-229.694 -573.214 0.
-232.763 -583.189 0.
-562.771 -727.061 0.
-563.113 -727.163 0.
65.3856 -459.128 0.
-262.269 -544.327 0.
-233.483 -477.354 0.
-428.293 -560.533 0.
-529.923 -796.734 0.
-631.552 -1032.94 0.
-569.209 -1075.09 0.
-525.054 -970.97 0.
-480.899 -866.852 0.
-511.743 -897.06 0.
-547.133 -977.633 0.
-582.523 -1058.21 0.
-813.646 -1030.67 0.
-736.113 -849.583 0.
-188.514 -497.856 0.
-248.451 -637.399 0.
-308.389 -776.941 0.
-284.751 -865.737 0.
-322.513 -951.645 0.
-360.276 -1037.55 0.
-276.949 -959.708 0.
-207.282 -795.298 0.
-137.615 -630.888 0.
-602.02 -904.338 0.
-672.657 -1067.92 0.
290.077 -789.964 0.
-588.834 -1193.49 0.
-604.862 -1227.61 0.
-260.367 -1090.09 0.
-235.072 -1030.13 0.
-209.777 -970.159 0.
-294.669 -961.552 0.
-270.854 -907.071 0.
-247.039 -852.589 0.
-136.069 -833.165 0.
-171.306 -915.647 0.
-206.545 -998.129 0.
-443.078 -1132.91 0.
-456.267 -1163.94 0.
-391.211 -1156.5 0.
-395.022 -1165.45 0.
-398.833 -1174.4 0.
-371.66 -1138.82 0.
-327.374 -1036.04 0.
-283.089 -933.261 0.
81.9978 -836.006 0.
-5.54736 -1039.09 0.
-93.093 -1242.16 0.
107.674 -1056.08 0.
194.093 -852.719 0.
510.348 -313.908 0.
-130.726 -686.647 0.
-225.488 -908.51 0.
-134.076 -1039.17 0.
-192.612 -1173.77 0.
-251.148 -1308.36 0.
-475.877 -1413.89 0.
-418.913 -1283.5 0.
-361.949 -1153.1 0.
199.248 -896.45 0.
190.511 -915.027 0.
181.773 -933.604 0.
-523.451 -1068.14 0.
-429.25 -846.518 0.
-124.542 -572.914 0.
-176.293 -694.327 0.
-228.044 -815.742 0.
-529.654 -1048.51 0.
-594.514 -1199.69 0.
-659.373 -1350.87 0.
-97.7988 -1068.6 0.
-8.09086 -859.495 0.
81.6171 -650.387 0.
-403.732 -764.09 0.
-365.167 -677.772 0.
-206.803 -539.854 0.
-588.251 -778.859 0.
-626.776 -870.325 0.
-289.174 -790.679 0.
-303.761 -825.154 0.
-318.348 -859.628 0.
-318.893 -820.383 0.
-252.497 -668.505 0.
-186.101 -516.626 0.
-483.483 -591.379 0.
-478.535 -578.057 0.
-473.587 -564.735 0.
-262.962 -498.916 0.
-279.86 -537.945 0.
-709.636 -765.067 0.
-758.551 -880.754 0.
-807.467 -996.441 0.
-527.933 -906.701 0.
-473.614 -781.792 0.
-419.294 -656.883 0.
-252.094 -542.543 0.
-254.938 -553.04 0.
-257.782 -563.537 0.
-403.847 -626.309 0.
-404.11 -626.68 0.
-758.42 -779.864 0.
-221.528 -495.044 0.
-192.979 -427.975 0.
-287.005 -469.545 0.
-388.899 -705.697 0.
-490.793 -941.849 0.
-668.201 -1085.96 0.
-624.042 -981.951 0.
-579.883 -877.939 0.
-519.057 -869.127 0.
-554.525 -949.449 0.
-589.994 -1029.77 0.
-720.122 -959.381 0.
-642.735 -778.02 0.
-351.47 -536.552 0.
-411.147 -676.107 0.
-470.825 -815.663 0.
-268.882 -827.943 0.
-306.428 -914.114 0.
-343.973 -1000.28 0.
-269.758 -924.564 0.
-200.253 -760.05 0.
-130.748 -595.536 0.
-623.227 -881.917 0.
-693.481 -1045.62 0.
742.57 -564.064 0.
-565.981 -1152.43 0.
-581.341 -1187.13 0.
-305.106 -1076.24 0.
-279.617 -1016.49 0.
-254.128 -956.745 0.
-36.2224 -820.409 0.
-12.8439 -765.409 0.
10.5341 -710.409 0.
-397.683 -913.432 0.
-432.791 -995.89 0.
-467.9 -1078.35 0.
-342.025 -1057.7 0.
-354.887 -1088.78 0.
-211.631 -1047.47 0.
-215.272 -1056.54 0.
-218.913 -1065.6 0.
-330.415 -1090.05 0.
-286.324 -987.187 0.
-242.234 -884.322 0.
-227.527 -937.459 0.
-315.27 -1140.4 0.
-403.013 -1343.34 0.
321.637 -932.446 0.
407.198 -728.197 0.
74.6777 -989.15 0.
-335.325 -1017.93 0.
-232.085 -774.752 0.
33.7975 -505.052 0.
25.4318 -526.25 0.
17.0664 -547.448 0.
-177.654 -706.564 0.
-245.352 -864.083 0.
-313.051 -1021.6 0.
128.42 -866.284 0.
128.934 -866.501 0.
129.447 -866.719 0.
-551.647 -1094.42 0.
-508.014 -993.148 0.
-174.338 -769.674 0.
-163.165 -742.043 0.
-151.991 -714.413 0.
-382.204 -812.858 0.
-404.639 -867.791 0.
-427.074 -922.723 0.
-86.7688 -804.596 0.
-90.0471 -813.388 0.
-93.3253 -822.179 0.
-489.138 -1078.5 0.
-550.603 -1218.25 0.
-893.233 -1477.74 0.
-855.768 -1370.29 0.
-806.564 -1257.62 0.
-400.969 -998.636 0.
-355.668 -892.849 0.
-310.366 -787.062 0.
-208.198 -728.547 0.
-256.813 -838.98 0.
-305.429 -949.413 0.
-675.496 -1083.95 0.
-627.688 -973.049 0.
-579.88 -862.146 0.
-518.535 -751.766 0.
-476.412 -653.897 0.
-604.701 -641.069 0.
-619.584 -674.04 0.
-634.466 -707.012 0.
-408.792 -628.897 0.
-403.814 -616.983 0.
-398.835 -605.069 0.
-333.925 -591.956 0.
-350.72 -629.097 0.
-367.515 -666.239 0.
-355.408 -636.891 0.
-333.79 -584.908 0.
-547.779 -633.393 0.
-257.498 -600.797 0.
-304.686 -713.365 0.
-446.264 -824.028 0.
-385.135 -684.114 0.
-324.006 -544.199 0.
-455.523 -574.818 0.
-501.244 -682.708 0.
-546.966 -790.598 0.
-485.007 -757.321 0.
-456.965 -694.68 0.
-428.923 -632.038 0.
-531.44 -819.541 0.
-617.495 -1020.91 0.
-718.605 -1198.38 0.
-673.023 -1090.09 0.
-627.441 -981.797 0.
-274.764 -768.983 0.
-276.801 -774.044 0.
-278.839 -779.105 0.
-396.395 -936.131 0.
-492.245 -1161.46 0.
-588.095 -1386.79 0.
-676.96 -1331.22 0.
-585.997 -1118.07 0.
-742.627 -1004.88 0.
-512.374 -906.824 0.
-513.036 -907.283 0.
-171.452 -773.012 0.
-187.034 -809.693 0.
-202.616 -846.374 0.
14.2795 -721.392 0.
64.5754 -607.399 0.
114.871 -493.406 0.
-387.336 -695.725 0.
-398.192 -718.983 0.
-409.047 -742.241 0.
-166.454 -676.948 0.
-192.934 -738.917 0.
-0.263745 -712.659 0.
-31.1729 -784.288 0.
-62.0817 -855.918 0.
-231.658 -927.857 0.
-171.594 -787.142 0.
-111.53 -646.427 0.
-195.916 -627.598 0.
-196.94 -631.049 0.
-197.964 -634.499 0.
508.767 -474.645 0.
419.054 -686.987 0.
-756.759 -1316.41 0.
-384.533 -1007.39 0.
-280.812 -764.7 0.
-104.666 -532.668 0.
-112.937 -554.061 0.
-121.209 -575.454 0.
-6.13658 -599.043 0.
-73.4022 -757.332 0.
-140.668 -915.621 0.
-221.498 -985.895 0.
-221.144 -986.123 0.
-220.791 -986.35 0.
-431.116 -1011.1 0.
-387.115 -909.944 0.
-149.637 -728.189 0.
-139.036 -700.303 0.
-128.434 -672.417 0.
-148.558 -682.104 0.
-171.519 -736.614 0.
-194.479 -791.125 0.
-425.654 -919.481 0.
-429.024 -928.404 0.
-432.394 -937.327 0.
-303.599 -967.395 0.
-365.149 -1107.22 0.
-1299.79 -1620.2 0.
-813.618 -1320.22 0.
-764.541 -1207.29 0.
-313.495 -929.625 0.
-267.848 -824.036 0.
-222.201 -718.446 0.
-297.051 -735.989 0.
-345.579 -846.698 0.
-394.108 -957.406 0.
-581.437 -1011.17 0.
-533.79 -900.169 0.
-486.142 -789.166 0.
-698.402 -799.251 0.
-656.516 -700.788 0.
-393.409 -518.943 0.
-407.545 -552.462 0.
-421.681 -585.982 0.
-447.484 -614.106 0.
-442.406 -602.454 0.
-437.328 -590.803 0.
-424.275 -598.707 0.
-440.567 -636.565 0.
-456.859 -674.422 0.
-358.318 -606.433 0.
-336.726 -554.331 0.
-529.785 -593.749 0.
-237.866 -561.13 0.
-284.886 -673.638 0.
-569.371 -845.436 0.
-508.795 -705.07 0.
-448.218 -564.703 0.
-343.088 -495.803 0.
-388.993 -603.778 0.
-434.898 -711.753 0.
-480.938 -725.471 0.
-453.138 -662.561 0.
-425.339 -599.65 0.
-272.291 -676.646 0.
-358.393 -878.248 0.
-736.393 -1175.4 0.
-691.02 -1066.84 0.
-645.648 -958.27 0.
-341.602 -767.117 0.
-343.868 -771.752 0.
-346.134 -776.388 0.
-666.941 -1021.55 0.
-762.728 -1246.64 0.
-858.516 -1471.72 0.
-282.11 -1130.36 0.
-191.243 -917.149 0.
-671.81 -943.346 0.
-622.776 -923.054 0.
-623.232 -923.678 0.
-86.4789 -705.355 0.
-102.463 -741.461 0.
-118.447 -777.566 0.
-183.621 -774.781 0.
-133.506 -660.587 0.
-83.3916 -546.392 0.
-293.289 -623.583 0.
-304.391 -646.686 0.
-315.492 -669.788 0.
-203.745 -662.744 0.
-230.597 -724.475 0.
26.8455 -668.839 0.
-3.67261 -740.918 0.
-34.1903 -812.997 0.
-172.578 -871.397 0.
-113.044 -730.069 0.
-53.5106 -588.742 0.
-101.372 -557.141 0.
-102.256 -560.536 0.
-103.141 -563.93 0.
305.546 -529.877 0.
215.798 -741.828 0.
-320.132 -99.7337 0.
-161.032 -348.186 0.
-702.142 -1610.75 0.
-401.029 -935.047 0.
171.695 401.653 0.
37.4865 88.8058 0.
202.183 -409.253 0.
69.4258 -718.504 0.
491.505 266.821 0.
96.6485 458.146 0.
62.1428 377.917 0.
-109.983 -23.5418 0.
-5.59323 -231.212 0.
-155.638 -582.492 0.
350.306 429.495 0.
301.443 316.393 0.
-84.283 -582.068 0.
81.0417 -557.415 0.
512.189 448.953 0.
334.691 35.334 0.
-508.49 -442.242 0.
-143.667 407.506 0.
60.4358 882.088 0.
113.686 -315.501 0.
197.572 -118.407 0.
-278.873 -595.362 0.
-200.176 65.3383 0.
-449.535 -514.606 0.
231.088 201.005 0.
350.91 479.641 0.
166.801 49.3348 0.
-135.402 -156.362 0.
-114.63 -108.911 0.
42.0125 255.694 0.
-0.0355737 195.041 0.
-189.894 -247.08 0.
-286.327 -471.036 0.
-532.904 -48.1147 0.
-512.331 -0.950432 0.
120.431 304.374 0.
-230.128 -513.954 0.
-355.004 -805.763 0.
-473.731 -574.839 0.
-157.88 163.148 0.
-248.044 -46.1509 0.
-122.856 309.639 0.
-135.598 282.033 0.
-26.2851 539.169 0.
187.202 697.982 0.
150.454 613.085 0.
-2056.1 -982.375 0.
-34.53 -86.9958 0.
39.3832 82.8011 0.
-343.89 -43.6107 0.
-239.32 199.416 0.
-149.325 408.145 0.
-147.196 -225.453 0.
-282.423 -539.886 0.
-4.20978 110.478 0.
74.4259 590.922 0.
-79.9382 230.996 0.
-351.038 -401.202 0.
82.0943 -316.058 0.
378.491 374.308 0.
-443.353 -421.479 0.
-393.308 -304.677 0.
-373.49 -258.446 0.
-287.741 -482.318 0.
-51.693 69.1341 0.
155.76 554.061 0.
-423.987 90.3181 0.
-279.718 426.301 0.
-433.483 66.2446 0.
551.441 92.1844 0.
441.6 -163.439 0.
43.3224 -698.779 0.
-245.869 196.234 0.
-241.82 206.346 0.
383.746 262.088 0.
479.937 486.713 0.
249.357 -51.1766 0.
-107.772 -190.746 0.
-145.995 -277.057 0.
101.539 304.273 0.
163.686 292.735 0.
184.001 340.806 0.
15.3629 -52.0242 0.
143.055 249.015 0.
374.023 792.184 0.
174.972 -349.997 0.
726.855 938.747 0.
219.932 -243.767 0.
44.6655 -441.48 0.
128.371 -247.115 0.
351.117 271.077 0.
134.575 -158.013 0.
243.973 98.6143 0.
203.657 5.07107 0.
787.906 1009.61 0.
-88.7353 -1038.64 0.
-432.719 -690.464 0.
-78.6369 -618.304 0.
-138.369 -757.734 0.
-599 -1039.65 0.
-565.503 -962.715 0.
-532.007 -885.777 0.
122.255 -541.166 0.
150.333 -473.249 0.
178.411 -405.333 0.
-339.681 -678.521 0.
-387.82 -791.208 0.
-435.958 -903.896 0.
-219.656 -775.48 0.
-192.131 -713.645 0.
-173.612 -680.231 0.
-246.291 -853.651 0.
-318.971 -1027.07 0.
-155.417 -975.009 0.
-34.3362 -692.061 0.
86.7447 -409.113 0.
-355.748 -543.988 0.
-406.796 -663.528 0.
-457.844 -783.068 0.
-400.611 -672.545 0.
-321.268 -488.443 0.
-549.459 -435.919 0.
-248.429 -426.327 0.
-311.864 -572.973 0.
-107.885 -584.089 0.
-134.144 -643.189 0.
-160.403 -702.288 0.
-400.573 -807.262 0.
-362.73 -720.952 0.
-324.888 -634.643 0.
-299.421 -544.975 0.
-259.488 -453.29 0.
-219.555 -361.605 0.
-803.037 -720.21 0.
-869.63 -877.46 0.
-336.404 -759.074 0.
-307.362 -689.77 0.
-278.321 -620.466 0.
-557.087 -689.366 0.
-538.671 -646.441 0.
-520.255 -603.517 0.
-490.84 -593.704 0.
-509.538 -636.643 0.
-528.236 -679.581 0.
-288.633 -547.106 0.
-260.594 -484.88 0.
1045.23 123.51 0.
-265.973 -471.928 0.
-284.086 -512.986 0.
-536.337 -654.338 0.
-556.486 -699.454 0.
-576.635 -744.571 0.
-444.799 -744.559 0.
-485.42 -838.499 0.
-526.04 -932.44 0.
-577.446 -984.404 0.
-578.53 -987.946 0.
-579.614 -991.487 0.
-168.429 -624.542 0.
-56.9389 -364.743 0.
-232.257 -264.4 0.
-305.477 -436.387 0.
-378.697 -608.374 0.
-436.022 -743.316 0.
-459.274 -797.424 0.
-482.527 -851.532 0.
-753.345 -985.143 0.
-756.066 -987.692 0.
-758.787 -990.242 0.
-168.724 -746.032 0.
-178.65 -767.246 0.
180.026 -633.639 0.
-532.636 -962.861 0.
-545.197 -990.89 0.
-112.598 -807.165 0.
-78.5679 -728.936 0.
-44.5374 -650.708 0.
-376.288 -800.461 0.
-422.826 -907.923 0.
-469.363 -1015.38 0.
-285.53 -809.656 0.
-164.996 -531.65 0.
-44.4624 -253.644 0.
-164.314 -480.997 0.
-281.315 -752.043 0.
-36.3863 -835.409 0.
-12.1506 -776.943 0.
12.0853 -718.478 0.
56.7675 -662.53 0.
69.8345 -634.205 0.
82.9014 -605.879 0.
-101.1 -697.676 0.
-120.594 -743.885 0.
-140.089 -790.093 0.
55.1707 -635.57 0.
107.94 -515.028 0.
-191.504 -558.522 0.
180.482 -477.424 0.
120.628 -616.854 0.
-768.233 -1079.93 0.
-734.239 -1003.51 0.
-700.245 -927.084 0.
107.749 -515.318 0.
136.184 -447.547 0.
164.62 -379.777 0.
-259.007 -612.085 0.
-307.123 -724.739 0.
-355.239 -837.393 0.
-176.268 -725.223 0.
-148.423 -663.824 0.
-213.17 -664.43 0.
-285.76 -838.03 0.
-358.35 -1011.63 0.
-206.5 -964.857 0.
-85.4287 -682.098 0.
35.6426 -399.338 0.
-101.784 -403.698 0.
-152.622 -523.464 0.
-203.46 -643.23 0.
-825.433 -823.947 0.
-746.078 -639.596 0.
-984.251 -591.365 0.
-35.9869 -303.293 0.
-99.0673 -450.252 0.
-94.1595 -547.644 0.
-120.396 -606.836 0.
-146.631 -666.028 0.
-370.786 -762.971 0.
-332.873 -676.412 0.
-294.96 -589.852 0.
-258.915 -496.062 0.
-218.815 -404.649 0.
-178.714 -313.235 0.
-762.555 -671.494 0.
-829.1 -828.771 0.
-322.997 -720.849 0.
-293.381 -652.185 0.
-263.765 -583.521 0.
-581.728 -668.274 0.
-562.983 -625.803 0.
-544.237 -583.332 0.
-454.62 -546.42 0.
-472.976 -589.846 0.
-491.331 -633.273 0.
-200.944 -478.501 0.
-172.714 -416.283 0.
-1542.65 -952.845 0.
-330.525 -467.115 0.
-348.168 -508.497 0.
-439.32 -582.23 0.
-459.516 -627.397 0.
-479.712 -672.565 0.
-518.119 -744.721 0.
-558.445 -838.894 0.
-598.771 -933.067 0.
-532.074 -933.232 0.
-532.976 -936.806 0.
-533.878 -940.381 0.
-298.333 -648.177 0.
-186.606 -388.606 0.
-39.5516 -150.564 0.
-113.151 -322.518 0.
-186.751 -494.473 0.
-462.494 -723.714 0.
-485.849 -777.723 0.
-509.203 -831.731 0.
-577.369 -878.819 0.
-580.531 -881.296 0.
-583.692 -883.773 0.
-597.091 -899.39 0.
-607.258 -920.375 0.
498.486 -465.965 0.
-259.101 -813.141 0.
-271.82 -840.809 0.
-144.049 -791.303 0.
-110.017 -712.704 0.
-75.9843 -634.106 0.
-368.797 -765.644 0.
-414.589 -873.534 0.
-460.381 -981.424 0.
-240.515 -759.908 0.
-119.936 -481.956 0.
0.642804 -204.005 0.
-137.824 -437.357 0.
-254.336 -708.846 0.
-28.87 -799.289 0.
-4.24338 -741.132 0.
20.3834 -682.974 0.
204.969 -568.595 0.
217.962 -540.157 0.
230.955 -511.719 0.
-88.7603 -660.126 0.
-108.069 -706.758 0.
-127.378 -753.39 0.
36.5834 -614.083 0.
89.7677 -493.601 0.
-382.174 -1129.6 0.
86.0991 -816.705 0.
152.126 -663.578 0.
-671.566 -913.656 0.
-655.261 -873.935 0.
-638.956 -834.214 0.
43.6948 -492.251 0.
81.4509 -406.173 0.
119.207 -320.095 0.
-124.311 -387.554 0.
-113.524 -363.151 0.
-102.738 -338.748 0.
-86.0267 -504.601 0.
-189.168 -745.241 0.
-339.721 -964.113 0.
-243.184 -739.189 0.
-146.647 -514.265 0.
65.0711 -353.806 0.
-13.3551 -538.134 0.
-91.7812 -722.462 0.
-221.458 -717.795 0.
-92.9928 -419.739 0.
35.4723 -121.682 0.
-719.674 -480.729 0.
-782.312 -629.223 0.
-431.163 -598.926 0.
-53.9744 -458.766 0.
-66.0145 -483.429 0.
-165.609 -530.851 0.
-140.171 -473.472 0.
-114.733 -416.092 0.
-174.666 -407.198 0.
-163.117 -379.824 0.
-151.567 -352.451 0.
-225.746 -328.493 0.
-186.979 -237.301 0.
-148.211 -146.109 0.
-594.525 -450.938 0.
-665.731 -617.229 0.
-325.88 -581.712 0.
-285.078 -487.192 0.
-244.277 -392.673 0.
-434.627 -444.592 0.
-465.773 -516.546 0.
-496.917 -588.499 0.
-397.267 -480.123 0.
-310.826 -278.017 0.
-224.386 -75.912 0.
-108.655 -175.238 0.
-230.358 -460.161 0.
-2141.42 -1512.19 0.
-401.546 -583.423 0.
-305.647 -359.209 0.
-210.029 -200.499 0.
-275.864 -357.817 0.
-341.7 -515.136 0.
-487.175 -576.876 0.
-402.293 -380.088 0.
-317.411 -183.3 0.
-202.552 -138.711 0.
-248.43 -244.788 0.
-294.308 -350.865 0.
-344.342 -531.551 0.
-432.073 -734.52 0.
-283.785 -815.324 0.
-256.917 -751.525 0.
-230.05 -687.726 0.
-479.519 -706.362 0.
-394.628 -507.975 0.
-309.737 -309.588 0.
-255.703 -243.618 0.
-290.337 -329.457 0.
-324.972 -415.297 0.
-592.609 -650.859 0.
-658.799 -807.402 0.
179.744 -574.736 0.
-185.691 -773.146 0.
-205.987 -822.909 0.
-171.173 -822.168 0.
-130.004 -726.024 0.
-88.835 -629.88 0.
-348.826 -678.074 0.
-328.945 -631.175 0.
-309.063 -584.277 0.
-110.135 -632.579 0.
-226.057 -899.675 0.
-341.98 -1166.77 0.
-388.837 -1010.32 0.
-270.467 -735.5 0.
106.173 -373.261 0.
112.134 -361.611 0.
118.095 -349.961 0.
357.221 -291.402 0.
276.025 -480.872 0.
194.829 -670.341 0.
-151.92 -840.998 0.
-106.926 -735.462 0.
-61.9312 -629.927 0.
-65.3242 -660.458 0.
-96.2174 -731.065 0.
-792.466 -1274.29 0.
-23.8448 -832.22 0.
42.2734 -679.338 0.
-416.228 -772.574 0.
-399.659 -733.03 0.
-383.09 -693.487 0.
-88.3179 -517.063 0.
-50.6172 -430.833 0.
-12.9168 -344.603 0.
-75.4962 -335.457 0.
-64.5022 -311.294 0.
-53.5083 -287.131 0.
-103.395 -480.6 0.
-206.478 -721.407 0.
-271.884 -903.177 0.
-175.377 -678.222 0.
-78.8701 -453.267 0.
178.814 -273.383 0.
100.594 -458.001 0.
22.3745 -642.618 0.
-401.078 -761.324 0.
-272.383 -463.582 0.
-143.689 -165.839 0.
-364.078 -296.828 0.
-426.516 -445.491 0.
70.9515 -352.001 0.
-109.975 -451.539 0.
-121.646 -476.492 0.
-335.133 -570.847 0.
-309.574 -513.576 0.
-284.016 -456.305 0.
-63.4043 -328.77 0.
-51.9812 -301.425 0.
-40.5576 -274.08 0.
-333.801 -343.891 0.
-294.983 -252.93 0.
-256.166 -161.97 0.
-421.543 -344.35 0.
-492.565 -510.891 0.
-455.439 -606.095 0.
-414.687 -511.505 0.
-373.937 -416.915 0.
-261.769 -339.235 0.
-292.674 -411.473 0.
-323.579 -483.711 0.
-333.959 -420.991 0.
-247.673 -218.77 0.
-161.388 -16.5489 0.
-243.301 -202.249 0.
-365.209 -486.835 0.
-1477.08 -1195.78 0.
-380.328 -542.3 0.
-284.721 -318.107 0.
-102.49 -124.885 0.
-168.971 -281.96 0.
-235.452 -439.036 0.
-485.34 -544.185 0.
-400.291 -347.494 0.
-315.241 -150.803 0.
-243.434 -124.097 0.
-288.657 -230.516 0.
-333.88 -336.935 0.
-406.52 -526.618 0.
-493.65 -730.017 0.
-351.228 -811.495 0.
-324.42 -747.688 0.
-297.612 -683.881 0.
-479.741 -675.516 0.
-395.581 -476.578 0.
-311.42 -277.64 0.
-269.446 -218.695 0.
-304.58 -304.224 0.
-339.713 -389.753 0.
-375.142 -527.036 0.
-441.461 -683.469 0.
-629.858 -890.543 0.
-288.737 -785.668 0.
-309.109 -835.421 0.
-143.962 -780.17 0.
-102.735 -683.996 0.
-61.5075 -587.822 0.
-370.169 -654.675 0.
-349.811 -607.916 0.
-329.453 -561.157 0.
54.0878 -531.272 0.
-61.5941 -798.328 0.
-177.276 -1065.38 0.
-398.272 -982.13 0.
-280.27 -706.774 0.
23.4805 -377.427 0.
29.6181 -365.687 0.
35.7558 -353.947 0.
322.792 -276.117 0.
241.718 -465.637 0.
160.644 -655.156 0.
-108.658 -791.044 0.
-63.2065 -685.966 0.
-17.7544 -580.889 0.
-209.507 -691.451 0.
-238.824 -763.435 0.
-471.548 -446.931 0.
-34.6962 -617.571 0.
248.861 43.5502 0.
76.0564 -79.8847 0.
-0.504718 -255.283 0.
-7.63628 -268.95 0.
83.0961 161.764 0.
183.016 396.689 0.
-240.015 -588.633 0.
100.984 14.9871 0.
84.7442 -24.7953 0.
116.238 47.2686 0.
-45.2935 -275.863 0.
-240.291 -729.713 0.
49.6458 -252.777 0.
333.859 409.769 0.
-54.6799 -497.095 0.
533.368 371.199 0.
271.766 -239.119 0.
441.946 157.144 0.
-207.826 64.6998 0.
-50.3917 430.104 0.
-34.7557 464.738 0.
17.5592 -49.1792 0.
-40.4563 -184.189 0.
-158.463 834.352 0.
229.886 476.292 0.
-106.797 -308.543 0.
-815.633 -1341.61 0.
-557.714 -741.15 0.
-263.564 -55.809 0.
134.963 -46.5354 0.
359.282 476.829 0.
262.565 251.698 0.
-162.07 288.46 0.
-157.546 299.72 0.
-591.399 -711.395 0.
18.5195 380.825 0.
-143.921 3.88769 0.
-543.531 -533.998 0.
-385.078 -163.247 0.
-180.969 314.141 0.
95.4065 196.205 0.
37.3288 60.8264 0.
251.422 560.726 0.
279.862 925.712 0.
233.855 818.616 0.
-429.01 -727.821 0.
-367.747 -210.375 0.
-273.765 9.85657 0.
-318.188 -163.777 0.
35.9025 429.516 0.
-27.8129 281.092 0.
-7.16775 -81.4298 0.
-0.415133 -65.3512 0.
55.4251 65.7749 0.
-272.316 -21.4818 0.
-158.222 242.688 0.
-34.1399 530.197 0.
-233.796 7.95608 0.
-316.668 -187.149 0.
-121.848 265.33 0.
-498.153 -598.612 0.
-260.155 -43.3894 0.
140.476 503.545 0.
-32.4694 98.7263 0.
-46.3395 65.2108 0.
-184.491 48.8804 0.
-191.704 33.4256 0.
-248.478 -97.4784 0.
-242.728 -96.9123 0.
-224.91 -56.9166 0.
-49.43 351.51 0.
90.9331 173.532 0.
-55.9301 -165.513 0.
-295.288 -663.32 0.
-0.425149 111.306 0.
-245.79 -462.021 0.
124.64 -168.881 0.
31.4261 -387.233 0.
58.3315 -325.134 0.
-138.868 -43.1388 0.
351.121 1099.61 0.
43.3102 380.649 0.
162.748 -557.144 0.
316.213 -199.769 0.
154.062 -578.756 0.
-38.5546 -90.6928 0.
-89.0315 -206.804 0.
48.1776 -130.028 0.
-110.149 -499.127 0.
-342.545 -1041.21 0.
-224.355 -1468.65 0.
312.476 -215.481 0.
508.491 242.629 0.
278.682 65.068 0.
181.049 -163.208 0.
801.656 1283.9 0.
0.283287 96.8704 0.
-186.839 -337.314 0.
-721.774 -569.945 0.
-67.3545 -253.366 0.
-58.4724 -230.106 0.
-39.734 -226.63 0.
-94.0135 -351.669 0.
-148.293 -476.709 0.
-75.4067 -496.952 0.
-70.856 -485.769 0.
-66.3051 -474.586 0.
-164.988 -463.479 0.
-127.733 -375.453 0.
-90.4775 -287.426 0.
-212.684 -444.949 0.
-280.188 -600.809 0.
19.3209 -593.533 0.
-4.27551 -650.148 0.
-27.8719 -706.763 0.
-125.127 -714.53 0.
-23.4225 -476.666 0.
78.2822 -238.801 0.
-110.794 -292.2 0.
-168.817 -426.819 0.
-226.84 -561.438 0.
-309.307 -653.944 0.
-324.975 -690.661 0.
64.0826 -553.165 0.
-241.783 -529.678 0.
-164.632 -349.377 0.
-334.268 -312.297 0.
-340.091 -324.659 0.
-345.913 -337.02 0.
-73.2905 -204.102 0.
-50.6206 -152.183 0.
-27.9503 -100.264 0.
-389.739 -288.025 0.
-426.268 -372.244 0.
-462.796 -456.464 0.
-346.41 -372.858 0.
-322.564 -314.732 0.
-379.535 -301.293 0.
-402.353 -350.88 0.
-425.17 -400.466 0.
-75.9047 -273.207 0.
-71.0205 -261.495 0.
-66.1363 -249.784 0.
-247.317 -344.577 0.
-264.136 -386.194 0.
-280.956 -427.811 0.
-514.729 -470.461 0.
-471.551 -370.879 0.
-1796.32 -857.615 0.
-217.339 -345.225 0.
-302.553 -546.013 0.
-229.229 -609.152 0.
-148.402 -420.396 0.
-67.5746 -231.639 0.
-363.174 -282.689 0.
-373.867 -307.075 0.
-384.56 -331.46 0.
-365.207 -342.76 0.
-377.029 -366.947 0.
-388.85 -391.135 0.
-371.498 -373.972 0.
-363.651 -356.144 0.
-294.347 -302.918 0.
-245.704 -193.584 0.
-197.061 -84.2509 0.
-259.521 -33.0391 0.
-229.494 36.813 0.
-199.467 106.665 0.
-261.809 -11.7848 0.
-364.883 -253.586 0.
-467.958 -495.387 0.
87.0769 -310.638 0.
77.0809 -333.259 0.
0.145566 -387.249 0.
-421.654 -667.658 0.
-473.81 -790.518 0.
-321.02 -806.952 0.
-327.545 -821.795 0.
-334.072 -836.639 0.
-328.394 -869.73 0.
-359.82 -940.151 0.
-391.246 -1010.57 0.
-145.317 -892.349 0.
-123.976 -842.709 0.
-102.636 -793.068 0.
-320.604 -889.256 0.
-325.734 -901.175 0.
-48.3206 -785.579 0.
-22.8719 -725.176 0.
2.57702 -664.772 0.
41.4631 -607.144 0.
50.2396 -585.871 0.
59.0157 -564.598 0.
-65.0066 -542.908 0.
-1.94079 -395.526 0.
61.1247 -248.144 0.
-136.751 -181.919 0.
-54.6716 14.4751 0.
-588.242 -483.023 0.
-284.639 -314.561 0.
-275.774 -291.295 0.
-87.8109 -215.942 0.
-142.08 -341.066 0.
-196.349 -466.19 0.
95.3404 -392.324 0.
99.9182 -381.292 0.
104.496 -370.261 0.
-223.262 -456.495 0.
-185.983 -368.757 0.
-148.704 -281.018 0.
-314.835 -457.045 0.
-382.518 -612.778 0.
180.316 -493.021 0.
157.075 -550.106 0.
133.835 -607.191 0.
-344.044 -775.694 0.
-242.192 -537.959 0.
-140.339 -300.225 0.
210.573 -122.566 0.
153.121 -257.707 0.
95.6683 -392.849 0.
-374.217 -650.046 0.
-389.126 -686.937 0.
-122.435 -602.392 0.
-277.449 -513.638 0.
-200.007 -333.141 0.
-268.021 -251.875 0.
-273.901 -264.108 0.
-279.781 -276.342 0.
-230.697 -239.988 0.
-207.923 -188.114 0.
-185.15 -136.24 0.
-349.218 -240.419 0.
-386.023 -324.4 0.
-422.828 -408.381 0.
-378.577 -354.238 0.
-354.787 -296.055 0.
-288.148 -231.024 0.
-311.135 -280.549 0.
-334.121 -330.074 0.
-22.5999 -218.708 0.
-17.7823 -206.894 0.
-12.9647 -195.08 0.
-207.118 -296.035 0.
-224.182 -337.342 0.
-241.246 -378.65 0.
-540.993 -450.688 0.
-497.956 -351.032 0.
-1518.04 -706.756 0.
-100.45 -263.896 0.
-185.674 -465.105 0.
-210.647 -568.648 0.
-129.302 -380.637 0.
-47.9569 -192.626 0.
-317.261 -231.675 0.
-327.705 -256.364 0.
-338.148 -281.053 0.
-329.794 -295.416 0.
-340.979 -319.913 0.
-352.164 -344.409 0.
-319.711 -320.302 0.
-311.308 -303.027 0.
-382.004 -306.789 0.
-333.475 -197.674 0.
-284.946 -88.5583 0.
-287.351 -13.4716 0.
-257.444 56.275 0.
-227.537 126.021 0.
-314.214 -2.14615 0.
-417.399 -243.847 0.
-520.584 -485.548 0.
350.709 -167.269 0.
340.645 -189.616 0.
-234.746 -457.317 0.
-510.731 -674.908 0.
-562.602 -797.923 0.
-518.288 -858.992 0.
-524.27 -874.197 0.
-530.253 -889.402 0.
-111.053 -743.176 0.
-142.565 -813.46 0.
-174.078 -883.743 0.
-330.588 -941.74 0.
-309.638 -891.379 0.
-288.689 -841.017 0.
-227.305 -817.753 0.
-231.923 -829.946 0.
190.071 -652.35 0.
215.74 -592.244 0.
241.409 -532.137 0.
-67.7971 -621.598 0.
-59.1842 -600.245 0.
-50.5716 -578.892 0.
-151.093 -548.568 0.
-88.1297 -401.008 0.
-25.1672 -253.448 0.
-142.766 -154.402 0.
-61.2078 42.2529 0.
-348.77 -581.447 0.
-404.267 -519.874 0.
-337.712 -367.831 0.
-118.126 -215.269 0.
-200.55 -406.128 0.
-282.973 -596.986 0.
18.8096 -494.267 0.
84.538 -337.381 0.
150.266 -180.495 0.
-171.567 -316.537 0.
-202.825 -390.249 0.
-234.082 -463.961 0.
-379.073 -574.72 0.
-404.89 -635.757 0.
211.506 -411.63 0.
232.649 -361.514 0.
253.792 -311.397 0.
-326.646 -553.415 0.
-354.198 -618.007 0.
-381.749 -682.599 0.
111.244 -513.338 0.
94.1013 -555.084 0.
76.9587 -596.831 0.
-414.238 -744.762 0.
-370.178 -638.726 0.
500.518 -178.781 0.
-257.948 -459.803 0.
-234.087 -400.695 0.
-214.281 -324.908 0.
-162.102 -203.415 0.
-109.923 -81.921 0.
-318.695 -165.679 0.
-372.947 -290.822 0.
-427.199 -415.965 0.
-423.909 -461.405 0.
-432.965 -482.963 0.
-442.02 -504.52 0.
-445.007 -448.409 0.
-408.411 -367.991 0.
-250.89 -253.776 0.
-288.809 -346.635 0.
-326.728 -439.495 0.
-84.7446 -365.122 0.
-55.3205 -296.496 0.
-25.8965 -227.87 0.
-224.278 -324.377 0.
-259.193 -405.842 0.
-294.107 -487.308 0.
-508.015 -562.766 0.
-487.202 -512.997 0.
115.482 -216.338 0.
-163.15 -355.887 0.
-173.972 -380.722 0.
-118.885 -340.375 0.
-37.8927 -151.122 0.
43.0994 38.1303 0.
-241.572 -68.714 0.
-322.87 -258.976 0.
-404.168 -449.238 0.
-439.058 -503.09 0.
-429.846 -483.166 0.
-420.634 -463.242 0.
-249.097 -285.469 0.
-189.746 -143.599 0.
-292.905 -97.3807 0.
-348.453 -224.541 0.
-404.001 -351.702 0.
-454.544 -460.645 0.
-476.593 -514.775 0.
-498.641 -568.906 0.
-538.506 -610.45 0.
-546.474 -629.583 0.
-554.441 -648.716 0.
235.06 -374.487 0.
197.838 -458.771 0.
583.041 -355.212 0.
-538.872 -685.344 0.
-459.268 -498.859 0.
-318.473 -324.815 0.
-332.312 -354.803 0.
-346.15 -384.791 0.
130.05 -222.972 0.
96.5406 -300.419 0.
63.0314 -377.865 0.
-172.195 -480.609 0.
-162.053 -455.376 0.
-151.911 -430.142 0.
-12.9774 -327.408 0.
12.3909 -266.902 0.
465.592 -40.542 0.
407.668 -172.856 0.
349.744 -305.17 0.
-163.787 -578.205 0.
-128.384 -496.289 0.
-92.9805 -414.371 0.
-207.352 -444.821 0.
-219.384 -471.837 0.
-231.416 -498.853 0.
-246.066 -556.159 0.
-276.812 -631.754 0.
-1455.33 -1024.76 0.
-227.998 -413.209 0.
-161.404 -260.791 0.
-107.424 -178.585 0.
-189.827 -369.651 0.
-272.23 -560.716 0.
-204.968 -558.057 0.
-139.24 -401.36 0.
-73.5118 -244.662 0.
-101.483 -255.988 0.
-132.882 -329.505 0.
-164.28 -403.022 0.
-278.902 -500.128 0.
-304.682 -561.205 0.
72.3757 -441.552 0.
93.3478 -391.224 0.
114.32 -340.896 0.
-276.563 -499.981 0.
-304.057 -564.414 0.
-331.551 -628.846 0.
-10.1904 -534.987 0.
-27.1935 -576.778 0.
-44.1968 -618.569 0.
-323.153 -675.264 0.
-278.871 -569.039 0.
429.422 -178.044 0.
-195.093 -400.082 0.
-170.868 -341.121 0.
-34.9087 -218.056 0.
16.9434 -96.1142 0.
68.7956 25.8271 0.
-423.332 -179.249 0.
-477.37 -304.471 0.
-531.407 -429.694 0.
-381.402 -412.129 0.
-390.486 -433.677 0.
-399.569 -455.224 0.
-438.37 -413.976 0.
-401.826 -333.886 0.
-172.619 -188.178 0.
-210.841 -280.83 0.
-249.063 -373.484 0.
-101.009 -340.732 0.
-71.9606 -271.799 0.
-42.9118 -202.867 0.
-248.564 -304.215 0.
-283.235 -385.853 0.
-317.906 -467.492 0.
-261.091 -425.235 0.
-240.027 -375.858 0.
-2555.83 -1328.77 0.
-301.741 -383.229 0.
-312.204 -408.389 0.
-123.159 -309.087 0.
-41.8563 -120.18 0.
39.4462 68.7267 0.
-239.784 -36.4397 0.
-321.318 -226.49 0.
-402.851 -416.539 0.
-481.553 -489.444 0.
-472.552 -469.248 0.
-463.55 -449.053 0.
-122.206 -200.26 0.
-62.8519 -58.6839 0.
-184.908 -18.3459 0.
-240.32 -146.172 0.
-295.731 -273.997 0.
-321.711 -371.973 0.
-343.641 -426.25 0.
-365.571 -480.527 0.
-364.781 -505.152 0.
-372.308 -524.571 0.
-379.835 -543.991 0.
-57.7996 -467.717 0.
-94.6024 -552.083 0.
688.904 -279.306 0.
-483.014 -630.394 0.
-403.63 -443.364 0.
-160.68 -226.169 0.
-174.455 -256.029 0.
-188.231 -285.889 0.
-10.0339 -252.089 0.
-43.497 -329.558 0.
-76.9603 -407.027 0.
-50.4318 -397.782 0.
-40.5222 -372.535 0.
-30.6126 -347.289 0.
-72.1591 -321.168 0.
-46.5849 -260.974 0.
286.481 -85.1063 0.
228.754 -217.605 0.
171.027 -350.104 0.
-299.436 -605.32 0.
-264.035 -523.212 0.
-228.635 -441.104 0.
-336.472 -468.511 0.
-348.773 -495.185 0.
-361.074 -521.858 0.
-40.2741 -437.891 0.
-71.8875 -512.578 0.
-385.961 -309.276 0.
-204.125 -654.43 0.
151.377 176.707 0.
69.1284 249.574 0.
-33.356 11.3043 0.
311.56 815.604 0.
-250.921 -212.804 0.
-424.12 -616.885 0.
-479.099 -744.439 0.
198.972 340.94 0.
401.269 811.063 0.
298.138 568.649 0.
-16.6068 -50.2416 0.
-169.247 -404.379 0.
-333.382 -1101.2 0.
161.494 56.4897 0.
205.594 162.559 0.
-149.902 -261.472 0.
165.061 469.859 0.
222.281 600.792 0.
505.614 926.366 0.
-68.3692 -413.988 0.
188.95 184.299 0.
250.646 524.443 0.
85.1148 139.39 0.
-688.25 -1253.94 0.
-167.476 -429.491 0.
-89.2234 -248.514 0.
250.382 138.085 0.
410.884 513.26 0.
310.891 280.831 0.
-504.531 -139.968 0.
-510.143 -154.691 0.
-584.64 -330.133 0.
-222.877 -95.576 0.
-333.653 -352.327 0.
-371.487 -438.882 0.
-196.253 170.134 0.
25.0975 686.069 0.
-240.48 -472.694 0.
-187.227 -348.305 0.
37.3539 175.828 0.
281.054 619.432 0.
-18.997 -78.2873 0.
-107.056 -281.359 0.
-145.508 13.249 0.
-245.024 -219.862 0.
-341.483 -445.73 0.
-151.282 -612.339 0.
171.398 139.172 0.
-1209.35 -370.934 0.
-532.003 -613.147 0.
-382.507 -264.777 0.
6.53148 35.3196 0.
-328.471 -746.369 0.
175.983 430.501 0.
248.129 1130.69 0.
-86.4994 350.956 0.
-279.487 -98.2704 0.
-447.201 -301.288 0.
-531.299 -498.065 0.
-619.671 -704.736 0.
351.635 698.121 0.
288.603 549.622 0.
-88.3151 36.4808 0.
-196.846 -216.557 0.
-189.74 -199.454 0.
-19.4203 107.558 0.
-310.772 -575.263 0.
-203.639 -328.042 0.
-180.286 -384.966 0.
-83.6272 -159.039 0.
-114.885 -231.693 0.
-61.1269 120.25 0.
-178.406 -155.077 0.
-109.54 -483.419 0.
-203.107 -59.1082 0.
-289.003 -257.293 0.
208.768 377.296 0.
271.303 522.004 0.
-53.5945 -237.199 0.
124.854 353.413 0.
-188.471 -374.755 0.
-160.663 -307.271 0.
420.259 507.404 0.
360.129 365.759 0.
-1.23776 -479.229 0.
-107.001 -259.717 0.
23.6158 45.0735 0.
213.955 119.65 0.
185.708 52.955 0.
335.822 402.706 0.
-456.091 -680.072 0.
-458.623 -687.33 0.
-270.072 -248.824 0.
-161.473 218.046 0.
-298.377 -100.019 0.
-7.10891 578.937 0.
518.005 499.614 0.
514.87 487.777 0.
-26.7013 -242.162 0.
8.12999 -285.434 0.
-28.9223 -369.908 0.
-253.429 -479.141 0.
-161.294 -264.53 0.
-69.1583 -49.9188 0.
-177.361 -100.093 0.
-296.239 -379.31 0.
-415.117 -658.526 0.
-249.821 -577.147 0.
-183.339 -422.799 0.
-116.857 -268.451 0.
1.82821 -216.487 0.
-3.2402 -227.195 0.
101.735 -195.411 0.
46.7386 -322.997 0.
-8.25767 -450.582 0.
-370.124 -667.353 0.
-353.865 -631.391 0.
-337.606 -595.429 0.
-51.6216 -394.085 0.
9.57231 -248.636 0.
70.766 -103.188 0.
-257.454 -276.44 0.
-294.714 -364.599 0.
-442.102 -499.516 0.
-21.9581 -224.459 0.
27.9787 -110.666 0.
69.7964 -43.1172 0.
27.6921 -144.033 0.
-14.4123 -244.95 0.
-446.903 -443.013 0.
-405.236 -349.774 0.
-363.568 -256.534 0.
-302.811 -177.23 0.
-280.012 -126.55 0.
-257.213 -75.8705 0.
-457.458 -307.275 0.
-544.406 -508.936 0.
-45.4112 -420.054 0.
57.3738 -178.678 0.
160.159 62.6977 0.
23.8121 88.6267 0.
-49.539 -82.3399 0.
-122.89 -253.307 0.
-266.996 -361.871 0.
-253.383 -329.273 0.
-239.771 -296.676 0.
-89.0481 -126.82 0.
-20.1741 33.5555 0.
-406.929 -1.25279 0.
-58.5404 196.768 0.
-33.4515 256.755 0.
11.4976 261.999 0.
-116.591 -34.5563 0.
-244.68 -331.112 0.
-405.579 -472.329 0.
-334.439 -305.34 0.
-263.298 -138.35 0.
-318.644 -151.16 0.
-345.457 -212.898 0.
-372.27 -274.636 0.
57.623 -152.76 0.
24.6307 -232.168 0.
-293.195 -422.537 0.
-266.976 -360.639 0.
-240.758 -298.74 0.
-106.672 -247.176 0.
-174.426 -405.69 0.
-242.179 -564.205 0.
-286.241 -547.249 0.
-194.812 -331.561 0.
-103.384 -115.874 0.
-182.783 -136.269 0.
-202.936 -185.6 0.
194.895 -57.1916 0.
-288.803 -261.468 0.
-284.827 -255.519 0.
-141.237 -217.166 0.
-211.499 -383.447 0.
-281.761 -549.729 0.
-322.968 -615.745 0.
-292.69 -543.868 0.
-262.413 -471.99 0.
-10.4462 -364.705 0.
-24.7928 -397.862 0.
-39.1393 -431.019 0.
-189.584 -508.796 0.
-198.247 -528.605 0.
-32.812 -466.659 0.
3.71279 -384.333 0.
40.237 -302.007 0.
-384.768 -428 0.
-369.781 -393.164 0.
-354.793 -358.327 0.
-214.076 -360.229 0.
-282.476 -522.059 0.
-350.877 -683.889 0.
15.8283 -334.762 0.
164.237 8.1554 0.
212.732 -107.679 0.
88.8749 -218.596 0.
52.2464 -303.216 0.
-250.364 -446.986 0.
-158.622 -231.989 0.
-66.8798 -16.9925 0.
-125.837 -47.0589 0.
-244.74 -326.381 0.
-363.642 -605.703 0.
-301.86 -568.839 0.
-235.625 -414.532 0.
-169.39 -260.224 0.
126.951 -130.432 0.
122.119 -141.606 0.
179.492 -129.996 0.
124.587 -257.721 0.
69.6817 -385.446 0.
-410.259 -655.072 0.
-394.489 -618.587 0.
-378.719 -582.102 0.
-28.2078 -352.156 0.
33.2351 -206.82 0.
94.6778 -61.485 0.
-443.115 -325.4 0.
-480.398 -413.374 0.
-489.639 -488.582 0.
68.1997 -154.263 0.
117.877 -40.0181 0.
-39.4602 -59.9799 0.
-81.7338 -160.697 0.
-124.008 -261.415 0.
-202.865 -306.509 0.
-160.697 -213.728 0.
-118.528 -120.947 0.
-338.092 -161.2 0.
-314.67 -111.186 0.
-291.248 -61.1727 0.
-510.857 -298.235 0.
-597.124 -500.447 0.
179.593 -291.039 0.
282.776 -49.639 0.
385.96 191.761 0.
5.62727 111.693 0.
-67.8862 -59.1854 0.
-141.4 -230.064 0.
-201.959 -302.023 0.
-188.423 -269.546 0.
-174.888 -237.069 0.
-245.111 -162.182 0.
-176.193 -1.95608 0.
170.799 278.93 0.
106.576 300.174 0.
131.76 360.021 0.
-86.0127 251.626 0.
-214.079 -44.8911 0.
-342.145 -341.408 0.
-346.797 -415.766 0.
-275.611 -248.482 0.
-204.426 -81.1979 0.
-224.093 -78.9698 0.
-251.347 -140.316 0.
-278.601 -201.662 0.
160.191 -77.4088 0.
126.615 -156.091 0.
-287.105 -388.514 0.
-261.061 -326.567 0.
-235.018 -264.62 0.
-14.564 -177.627 0.
-82.5048 -336.112 0.
-150.445 -494.597 0.
-316.493 -529.232 0.
-224.903 -313.425 0.
-133.312 -97.6182 0.
-185.418 -106.417 0.
-205.475 -155.577 0.
90.8646 -70.8678 0.
-265.659 -219.178 0.
-261.601 -213.104 0.
-242.483 -230.601 0.
-312.849 -396.451 0.
-383.215 -562.302 0.
-343.445 -593.34 0.
-313.015 -521.449 0.
-282.586 -449.559 0.
-67.8323 -359.142 0.
-82.3721 -392.27 0.
-96.9118 -425.397 0.
-143.765 -456.673 0.
-152.512 -476.739 0.
-6.92089 -424.473 0.
28.9631 -341.69 0.
64.8466 -258.906 0.
-412.4 -409.901 0.
-397.817 -374.683 0.
-383.235 -339.464 0.
43.1122 -218.034 0.
-25.62 -379.788 0.
-94.3528 -541.543 0.
-141.665 -371.264 0.
6.07979 -27.9608 0.
505.002 62.2151 0.
72.5464 -63.624 0.
101.098 3.37544 0.
-104.947 -61.5767 0.
-147.07 -158.714 0.
-189.193 -255.851 0.
-214.312 -275.922 0.
-172.763 -177.81 0.
-131.214 -79.6989 0.
-79.7831 -81.317 0.
-119.727 -174.305 0.
-159.671 -267.293 0.
127.277 -112.792 0.
153.561 -51.2612 0.
183.706 -1.33953 0.
150.837 -77.9456 0.
117.967 -154.552 0.
-138.024 -234.114 0.
-27.2108 25.7516 0.
83.6029 285.617 0.
196.042 321.031 0.
97.7487 90.9953 0.
-0.544986 -139.041 0.
-432.126 -218.922 0.
-336.074 6.58366 0.
428.11 516.216 0.
324.595 335.057 0.
252.951 167.958 0.
-114.22 -64.3841 0.
-46.4084 93.5814 0.
21.4036 251.547 0.
134.515 360.229 0.
124.543 338.476 0.
114.571 316.722 0.
-164.886 91.5061 0.
-241.466 -89.0273 0.
-318.047 -269.561 0.
-472.405 -299.668 0.
-439.703 -223.574 0.
409.577 181.322 0.
343.239 27.5069 0.
276.9 -126.308 0.
-306.664 -420.539 0.
-248.028 -284.225 0.
-189.391 -147.911 0.
-118.53 -35.1738 0.
-84.9353 42.7095 0.
-51.3406 120.593 0.
-206.711 -121.099 0.
-333.885 -417.343 0.
-187.895 -595.047 0.
-242.511 -476.215 0.
-167.973 -302.355 0.
-214.06 -187.966 0.
-157.19 -55.1613 0.
-100.319 77.6431 0.
-156.876 72.306 0.
-206.319 -43.1295 0.
-255.761 -158.565 0.
-212.224 -180.947 0.
-219.548 -199.755 0.
-226.872 -218.564 0.
231.409 63.931 0.
283.592 183.34 0.
-119.136 81.0872 0.
-201.718 -112.159 0.
-284.299 -305.406 0.
-29.5708 -302.215 0.
-24.2051 -289.768 0.
-18.8393 -277.32 0.
-201.673 -258.588 0.
-115.229 -55.9438 0.
-28.7844 146.701 0.
-45.3276 147.336 0.
-66.5941 102.013 0.
-207.474 6.67998 0.
-172.418 3.80671 0.
-183.016 -17.5061 0.
-196.728 -50.8267 0.
-227.846 -120.005 0.
-258.965 -189.183 0.
-164.873 -160.345 0.
-145.858 -116.019 0.
-126.842 -71.6922 0.
2.545 -52.6808 0.
-36.4063 -143.543 0.
-75.3574 -234.406 0.
-136.772 -359.094 0.
-188.341 -479.143 0.
-61.704 -498.426 0.
-2.02571 -359.73 0.
57.653 -221.035 0.
-375.204 -311.043 0.
-342.101 -234.591 0.
-308.997 -158.139 0.
233.532 89.416 0.
222.022 62.6402 0.
210.513 35.8642 0.
10.3981 6.58577 0.
57.7658 115.816 0.
-506.304 -343.082 0.
-179.526 -141.019 0.
-150.832 -73.9915 0.
-122.429 -37.6817 0.
-164.513 -134.654 0.
-206.598 -231.626 0.
-211.878 -243.57 0.
-170.331 -145.629 0.
-128.783 -47.6872 0.
37.9326 0.520388 0.
-1.73364 -92.7694 0.
-41.4 -186.059 0.
20.213 -125.869 0.
47.1458 -64.8191 0.
12.5575 -43.6773 0.
-20.1138 -120.447 0.
-52.7848 -197.216 0.
158.113 -74.9071 0.
269.069 184.956 0.
380.025 444.818 0.
51.5755 290.252 0.
-47.0172 60.5319 0.
-145.61 -169.188 0.
-312.11 -137.405 0.
-215.964 88.0371 0.
69.337 393.265 0.
379.534 390.605 0.
307.759 223.58 0.
-153.114 -51.0452 0.
-85.3719 107.122 0.
-17.6294 265.288 0.
47.8555 355.667 0.
38.4241 333.38 0.
28.993 311.094 0.
58.0726 218.321 0.
-18.2142 37.4625 0.
-94.5014 -143.396 0.
-297.372 -193.09 0.
-264.195 -117.342 0.
289.555 162.211 0.
223.391 8.44882 0.
157.227 -145.313 0.
-460.506 -455.698 0.
-401.884 -319.301 0.
-343.263 -182.904 0.
-226.299 -50.4683 0.
-192.593 27.3174 0.
-158.887 105.103 0.
35.1344 14.5311 0.
-91.9063 -281.78 0.
-142.435 -544.091 0.
-412.365 -517.413 0.
-337.982 -343.337 0.
66.1315 -36.9246 0.
122.994 96.0152 0.
179.857 228.955 0.
-230.3 72.7461 0.
-279.505 -42.7802 0.
-328.711 -158.307 0.
-129.953 -113.966 0.
-137.504 -132.46 0.
-145.054 -150.955 0.
192.995 79.2522 0.
244.935 198.788 0.
-170.647 90.0242 0.
-252.97 -103.618 0.
-335.294 -297.26 0.
7.49275 -253.305 0.
13.3703 -241.523 0.
19.248 -229.741 0.
-140.45 -200.232 0.
-54.0207 2.03834 0.
32.4089 204.309 0.
65.7797 227.334 0.
44.8255 181.54 0.
564.278 368.126 0.
-165.207 38.0283 0.
-176.018 16.8413 0.
-153.459 -0.361969 0.
-184.507 -69.6985 0.
-215.555 -139.035 0.
-134.826 -117.009 0.
-115.773 -72.6877 0.
-96.7205 -28.3664 0.
-53.6741 -45.5501 0.
-92.4832 -136.501 0.
-131.292 -227.451 0.
-236.695 -370.248 0.
-288.331 -490.421 0.
-108.302 -486.309 0.
-48.2284 -347.99 0.
11.8462 -209.672 0.
-323.003 -257.251 0.
-289.48 -181.031 0.
-255.955 -104.811 0.
153.552 87.5065 0.
142.11 60.6727 0.
130.667 33.8387 0.
170.679 107.383 0.
217.66 216.986 0.
85.3872 1053.4 0.
-387.865 -116.933 0.
-673.358 -784.53 0.
-196.578 -143.766 0.
-135.225 -0.895857 0.
137.99 636.372 0.
93.9438 489.757 0.
92.9902 489.82 0.
130.329 578.488 0.
197.318 179.594 0.
-78.8048 -463.774 0.
-135.352 -594.659 0.
-132.02 -252.953 0.
54.363 185.459 0.
-28.0476 213.301 0.
369.781 1141.26 0.
99.6996 510.939 0.
32.7064 -900.709 0.
260.909 -369.959 0.
588.528 392.088 0.
-361.906 -365.473 0.
-166.748 88.9744 0.
-218.246 -31.92 0.
-3.61653 388.293 0.
-48.7832 281.691 0.
-108.268 -88.1006 0.
299.506 129.19 0.
180.193 -147.788 0.
121.215 688.209 0.
236.659 956.885 0.
-63.3369 256.53 0.
-264.236 -182.644 0.
-154.427 75.5188 0.
-298.378 -258.618 0.
290.557 364.704 0.
237.958 239.759 0.
74.6916 -143.39 0.
-482.926 -923.955 0.
-474.399 -908.332 0.
-105.271 -492.593 0.
169.989 148.263 0.
154.787 111.121 0.
-549.126 -338.833 0.
-326.648 177.148 0.
-582.16 -421.961 0.
-422.251 -279.749 0.
-169.798 311.249 0.
-203.695 234.436 0.
218.515 13.7009 0.
82.4682 -306.551 0.
-413.448 64.8408 0.
-388.294 -107.722 0.
-480.777 -325.249 0.
495.16 473.531 0.
222.75 -162.157 0.
231.868 -141.053 0.
-420.958 -210.602 0.
-191.963 323.346 0.
-356.373 -60.4983 0.
-478.237 -1044.06 0.
-793.912 -1780.21 0.
-32.0863 -2.44989 0.
92.8237 -48.9832 0.
193.327 189.441 0.
-36.0058 530.875 0.
-330.76 -155.918 0.
-462.073 -461.106 0.
-35.7029 -395.629 0.
-20.611 -362.326 0.
-53.9314 -441.614 0.
-118.757 -239.284 0.
-237.759 -519.019 0.
-213.936 -465.124 0.
24.6875 -40.9504 0.
54.2476 29.8739 0.
163.357 -99.1931 0.
-32.3932 361.158 0.
-357.805 -392.407 0.
-485.412 -831.333 0.
-118.605 28.1559 0.
-521.136 -907.482 0.
-132.177 -139.332 0.
329.825 936.917 0.
79.5061 351.4 0.
-269.032 -408.143 0.
-76.5738 39.1669 0.
328.438 982.464 0.
7.18756 420.592 0.
79.4798 587.468 0.
185.228 317.631 0.
-85.1106 -311.391 0.
-128.466 -411.148 0.
-258.168 -180.763 0.
-129.801 119.37 0.
-204.756 -54.5477 0.
-12.4436 -114.411 0.
-2.34342 -89.9623 0.
-197.083 -543.098 0.
207.938 -77.0984 0.
173.382 -155.751 0.
490.967 515.266 0.
-61.1845 247.922 0.
-79.5097 205.528 0.
153.507 275.612 0.
142.48 249.448 0.
131.453 223.284 0.
-399.565 -115.294 0.
-518.517 -392.367 0.
-637.469 -669.44 0.
-407.573 -542.651 0.
-324.841 -346.002 0.
-242.11 -149.353 0.
-108.273 -109.669 0.
-134.322 -166.644 0.
-173.916 -209.664 0.
-98.5326 -33.9851 0.
-23.1496 141.694 0.
441.223 376.286 0.
346.945 156.653 0.
252.668 -62.9802 0.
-199.108 -220.363 0.
-90.6736 30.6375 0.
17.7605 281.638 0.
129.567 136.295 0.
-31.2793 -238.526 0.
500.092 -316.2 0.
-212.492 -385.932 0.
-91.3615 -101.268 0.
84.3453 121.223 0.
8.11232 -55.4336 0.
-68.1211 -232.09 0.
-286.188 -324.232 0.
-193.032 -104.005 0.
-99.8752 116.221 0.
129.263 126.011 0.
11.2266 -146.568 0.
-106.81 -419.146 0.
-186.388 -305.358 0.
-85.5141 -68.4361 0.
58.0584 164.539 0.
49.2343 142.893 0.
40.4102 121.248 0.
-216.871 12.5052 0.
-190.292 72.9458 0.
-163.713 133.386 0.
-117.182 110.743 0.
-177.647 -30.0653 0.
-238.112 -170.874 0.
145.397 5.39558 0.
171.44 65.3047 0.
-1657.11 -668.735 0.
-422.606 -209.977 0.
-459.694 -296.677 0.
144.66 -85.1796 0.
159.773 -52.2193 0.
174.885 -19.2588 0.
-237.852 -184.535 0.
-240.165 -189.896 0.
-242.479 -195.258 0.
-190.676 -154.127 0.
-175.478 -117.913 0.
-160.28 -81.6995 0.
114.976 31.2982 0.
109.253 21.518 0.
-204.836 -107.345 0.
-156.892 7.62857 0.
-108.948 122.602 0.
372.298 386.491 0.
366.008 375.349 0.
359.718 364.207 0.
153.642 166.175 0.
53.527 -68.2557 0.
-46.5882 -302.686 0.
-112.954 -293.814 0.
-57.7819 -163.372 0.
435.451 159.894 0.
-292.33 -136.135 0.
-282.215 -114.091 0.
-37.9891 -0.762326 0.
-51.2324 -34.0804 0.
-64.4762 -67.3985 0.
-211.661 -145.047 0.
-207.075 -134.298 0.
-202.489 -123.55 0.
-207.934 -162.781 0.
-240.785 -238.787 0.
-273.636 -314.794 0.
-503.065 -415.167 0.
-501.3 -411.644 0.
-176.151 -272.651 0.
-180.507 -280.927 0.
-184.863 -289.204 0.
-439.089 -369.803 0.
-382.714 -237.001 0.
-326.34 -104.198 0.
93.6754 128.021 0.
96.9776 135.364 0.
100.28 142.707 0.
-39.9249 -55.2745 0.
-137.956 -281.523 0.
14.2572 340.812 0.
167.652 377.582 0.
149.277 335.325 0.
377.09 402.205 0.
365.874 376.703 0.
354.658 351.2 0.
-664.773 -198.109 0.
-784.113 -474.792 0.
-903.452 -751.474 0.
-753.646 -660.414 0.
-671.35 -463.731 0.
-589.055 -267.049 0.
-138.176 -91.5122 0.
-164.142 -148.491 0.
-112.843 -150.846 0.
-37.1466 24.5282 0.
38.5496 199.902 0.
285.192 339.786 0.
190.732 120.716 0.
96.2721 -98.3531 0.
-60.2394 -129.981 0.
48.1327 121.415 0.
156.505 372.812 0.
441.325 301.423 0.
280.091 -73.0929 0.
-456.482 -694.326 0.
-550.707 -499.423 0.
-430.449 -214.19 0.
352.599 265.624 0.
275.518 89.6481 0.
198.436 -86.3276 0.
-224.144 -268.011 0.
-130.675 -48.1101 0.
-37.2055 171.791 0.
72.4909 134.472 0.
-44.5992 -139.465 0.
-161.69 -413.403 0.
-135.001 -250.028 0.
-33.3405 -13.6515 0.
-73.1116 140.27 0.
-81.6566 118.785 0.
-90.2016 97.2997 0.
22.2256 146.261 0.
48.5516 207.105 0.
74.8768 267.948 0.
71.057 222.063 0.
10.166 82.3046 0.
-50.7247 -57.4538 0.
77.5669 7.53127 0.
103.627 67.6992 0.
-192.302 -9.00935 0.
-392.233 -164.717 0.
-429.465 -251.101 0.
22.7867 -106.09 0.
38.3563 -73.4054 0.
53.9262 -40.7204 0.
-7.604 -54.1377 0.
-9.64395 -59.4196 0.
-11.6841 -64.7018 0.
-290.102 -165.76 0.
-275.157 -129.328 0.
-260.213 -92.896 0.
116.816 63.7048 0.
110.835 53.9935 0.
-58.593 -12.167 0.
-10.9786 103.003 0.
36.6361 218.173 0.
476.414 462.018 0.
469.741 450.879 0.
463.068 439.739 0.
295.651 258.381 0.
194.728 24.2247 0.
93.805 -209.931 0.
-133.076 -269.889 0.
-78.7933 -138.916 0.
-588.827 -246.967 0.
-330.585 -123.139 0.
-320.735 -101.514 0.
96.3109 89.516 0.
83.8132 55.4896 0.
71.315 21.463 0.
-288.987 -146.222 0.
-284.938 -134.989 0.
-280.89 -123.756 0.
-249.066 -150.006 0.
-282.141 -225.864 0.
-315.217 -301.721 0.
-671.811 -455.399 0.
-670.349 -451.747 0.
-295.217 -292.425 0.
-299.327 -300.612 0.
-303.438 -308.799 0.
-547.863 -386.231 0.
-491.309 -253.426 0.
-434.755 -120.621 0.
111.856 168.139 0.
115.193 175.898 0.
118.531 183.657 0.
-332.773 -151.814 0.
-431.268 -377.098 0.
