# vtk DataFile Version 2.0
test grain
ASCII
DATASET UNSTRUCTURED_GRID
POINTS 5000 float
0.499944 0.0010001 0.
0.501945 0.00100011 0.
0.503947 0.00100005 0.
0.505948 0.00100001 0.
0.50795 0.00100003 0.
0.509951 0.00100004 0.
0.511952 0.00100004 0.
0.513953 0.00100002 0.
0.515954 0.00100001 0.
0.517955 0.001 0.
0.519957 0.001 0.
0.521958 0.00100001 0.
0.523959 0.00100001 0.
0.52596 0.001 0.
0.52796 0.001 0.
0.529961 0.00100001 0.
0.531963 0.00100002 0.
0.533964 0.00100002 0.
0.535965 0.00100001 0.
0.537967 0.000999998 0.
0.539968 0.000999995 0.
0.541969 0.001 0.
0.54397 0.001 0.
0.545972 0.00100001 0.
0.547974 0.00100001 0.
0.549975 0.00100001 0.
0.551977 0.001 0.
0.553978 0.001 0.
0.555979 0.00100001 0.
0.557979 0.00100001 0.
0.559979 0.00100001 0.
0.56198 0.001 0.
0.563981 0.001 0.
0.565982 0.00100001 0.
0.567983 0.00100001 0.
0.569984 0.00100001 0.
0.571985 0.00100001 0.
0.573986 0.00100001 0.
0.575987 0.00100001 0.
0.577988 0.00100001 0.
0.579988 0.00100001 0.
0.581989 0.001 0.
0.58399 0.00100001 0.
0.58599 0.00100003 0.
0.587991 0.00100006 0.
0.589991 0.00100005 0.
0.591992 0.00100003 0.
0.593992 0.001 0.
0.595994 0.001 0.
0.597997 0.00100001 0.
0.6 0.00100001 0.
0.602004 0.00100001 0.
0.604008 0.00100001 0.
0.606011 0.001 0.
0.608011 0.00100001 0.
0.610012 0.00100001 0.
0.612012 0.00100001 0.
0.614013 0.00100001 0.
0.616013 0.001 0.
0.618014 0.001 0.
0.620016 0.001 0.
0.622017 0.001 0.
0.624017 0.001 0.
0.626018 0.001 0.
0.628019 0.00100001 0.
0.630019 0.00100001 0.
0.63202 0.00100001 0.
0.634021 0.00100001 0.
0.636022 0.00100001 0.
0.638024 0.001 0.
0.640025 0.001 0.
0.642026 0.00100001 0.
0.644028 0.00100001 0.
0.646029 0.00100001 0.
0.64803 0.001 0.
0.650031 0.001 0.
0.652032 0.000999999 0.
0.654033 0.000999997 0.
0.656034 0.000999999 0.
0.658036 0.001 0.
0.660037 0.00100001 0.
0.662039 0.00100001 0.
0.66404 0.00100001 0.
0.666042 0.001 0.
0.668044 0.00100001 0.
0.670046 0.00100001 0.
0.672047 0.00100001 0.
0.674048 0.00100001 0.
0.676049 0.001 0.
0.67805 0.001 0.
0.680051 0.00100004 0.
0.682052 0.00100008 0.
0.684053 0.00100009 0.
0.686055 0.00100006 0.
0.688056 0.00100002 0.
0.690057 0.00100004 0.
0.692058 0.00100009 0.
0.694058 0.00100014 0.
0.696059 0.00100025 0.
0.698061 0.00100037 0.
0.499944 0.00300031 0.
0.501945 0.00300032 0.
0.503947 0.00300016 0.
0.505948 0.00300005 0.
0.507949 0.00300008 0.
0.50995 0.00300012 0.
0.511951 0.00300012 0.
0.513953 0.00300007 0.
0.515954 0.00300002 0.
0.517956 0.003 0.
0.519957 0.00300001 0.
0.521958 0.00300002 0.
0.523959 0.00300002 0.
0.52596 0.00300001 0.
0.52796 0.00300001 0.
0.529961 0.00300003 0.
0.531962 0.00300005 0.
0.533963 0.00300006 0.
0.535965 0.00300003 0.
0.537966 0.00299999 0.
0.539968 0.00299999 0.
0.54197 0.003 0.
0.543971 0.00300002 0.
0.545972 0.00300002 0.
0.547973 0.00300002 0.
0.549975 0.00300002 0.
0.551976 0.00300001 0.
0.553976 0.00300001 0.
0.555977 0.00300002 0.
0.557978 0.00300002 0.
0.559979 0.00300002 0.
0.561979 0.00300001 0.
0.56398 0.00300001 0.
0.565981 0.00300002 0.
0.567983 0.00300002 0.
0.569984 0.00300002 0.
0.571985 0.00300002 0.
0.573986 0.00300002 0.
0.575986 0.00300002 0.
0.577987 0.00300002 0.
0.579988 0.00300002 0.
0.58199 0.00300001 0.
0.583991 0.00300003 0.
0.585991 0.0030001 0.
0.587991 0.00300017 0.
0.589991 0.00300015 0.
0.591992 0.00300008 0.
0.593993 0.00300001 0.
0.595995 0.00300001 0.
0.597998 0.00300003 0.
0.6 0.00300004 0.
0.602004 0.00300003 0.
0.604007 0.00300002 0.
0.60601 0.00300001 0.
0.608011 0.00300002 0.
0.610012 0.00300003 0.
0.612012 0.00300003 0.
0.614013 0.00300002 0.
0.616014 0.00300001 0.
0.618015 0.00300001 0.
0.620016 0.003 0.
0.622017 0.003 0.
0.624017 0.00300001 0.
0.626018 0.00300001 0.
0.628018 0.00300002 0.
0.630019 0.00300002 0.
0.63202 0.00300002 0.
0.634021 0.00300002 0.
0.636022 0.00300002 0.
0.638024 0.00300001 0.
0.640025 0.00300001 0.
0.642026 0.00300002 0.
0.644028 0.00300002 0.
0.646029 0.00300002 0.
0.648029 0.00300001 0.
0.65003 0.003 0.
0.652032 0.003 0.
0.654033 0.00299999 0.
0.656034 0.003 0.
0.658035 0.00300001 0.
0.660037 0.00300002 0.
0.662038 0.00300003 0.
0.66404 0.00300002 0.
0.666042 0.00300001 0.
0.668044 0.00300002 0.
0.670045 0.00300003 0.
0.672047 0.00300004 0.
0.674048 0.00300002 0.
0.676049 0.003 0.
0.67805 0.00300001 0.
0.680051 0.00300012 0.
0.682052 0.00300024 0.
0.684053 0.00300028 0.
0.686055 0.00300018 0.
0.688056 0.00300007 0.
0.690057 0.00300012 0.
0.692058 0.00300027 0.
0.694058 0.00300043 0.
0.696059 0.00300076 0.
0.698061 0.00300112 0.
0.499944 0.0050005 0.
0.501945 0.00500053 0.
0.503947 0.00500027 0.
0.505948 0.00500008 0.
0.507948 0.00500014 0.
0.509949 0.0050002 0.
0.51195 0.0050002 0.
0.513952 0.00500011 0.
0.515954 0.00500002 0.
0.517956 0.005 0.
0.519957 0.00500002 0.
0.521958 0.00500003 0.
0.523959 0.00500002 0.
0.52596 0.00500002 0.
0.527961 0.00500001 0.
0.529961 0.00500005 0.
0.531962 0.00500009 0.
0.533963 0.0050001 0.
0.535964 0.00500004 0.
0.537966 0.00499999 0.
0.539968 0.00499998 0.
0.54197 0.005 0.
0.543972 0.00500002 0.
0.545973 0.00500002 0.
0.547973 0.00500003 0.
0.549974 0.00500003 0.
0.551975 0.00500002 0.
0.553975 0.00500002 0.
0.555976 0.00500003 0.
0.557977 0.00500002 0.
0.559978 0.00500002 0.
0.561979 0.00500002 0.
0.56398 0.00500002 0.
0.565981 0.00500003 0.
0.567982 0.00500003 0.
0.569984 0.00500003 0.
0.571985 0.00500003 0.
0.573986 0.00500003 0.
0.575986 0.00500003 0.
0.577986 0.00500003 0.
0.579988 0.00500003 0.
0.58199 0.00500002 0.
0.583991 0.00500006 0.
0.585991 0.00500017 0.
0.587991 0.00500028 0.
0.589992 0.00500025 0.
0.591993 0.00500013 0.
0.593994 0.00500001 0.
0.595996 0.00500001 0.
0.597998 0.00500004 0.
0.6 0.00500007 0.
0.602003 0.00500005 0.
0.604006 0.00500002 0.
0.606009 0.00500001 0.
0.60801 0.00500003 0.
0.610012 0.00500004 0.
0.612013 0.00500005 0.
0.614014 0.00500003 0.
0.616014 0.00500002 0.
0.618015 0.005 0.
0.620016 0.005 0.
0.622017 0.005 0.
0.624017 0.00500001 0.
0.626017 0.00500002 0.
0.628018 0.00500003 0.
0.630019 0.00500003 0.
0.63202 0.00500003 0.
0.634021 0.00500003 0.
0.636022 0.00500003 0.
0.638024 0.00500002 0.
0.640025 0.00500002 0.
0.642027 0.00500003 0.
0.644028 0.00500003 0.
0.646028 0.00500003 0.
0.648029 0.00500002 0.
0.650029 0.005 0.
0.652031 0.005 0.
0.654032 0.00499999 0.
0.656034 0.00499999 0.
0.658035 0.00500001 0.
0.660036 0.00500004 0.
0.662038 0.00500004 0.
0.66404 0.00500003 0.
0.666043 0.00500002 0.
0.668044 0.00500003 0.
0.670045 0.00500004 0.
0.672046 0.00500006 0.
0.674047 0.00500002 0.
0.676048 0.005 0.
0.678049 0.00500001 0.
0.680051 0.00500021 0.
0.682052 0.00500041 0.
0.684054 0.00500047 0.
0.686055 0.00500029 0.
0.688056 0.00500011 0.
0.690057 0.00500019 0.
0.692058 0.00500046 0.
0.694058 0.00500072 0.
0.69606 0.00500126 0.
0.698061 0.00500186 0.
0.499945 0.0070016 0.
0.501946 0.00700169 0.
0.503947 0.00700155 0.
0.505948 0.00700146 0.
0.507949 0.00700152 0.
0.509949 0.00700157 0.
0.511951 0.00700176 0.
0.513952 0.00700213 0.
0.515954 0.0070025 0.
0.517956 0.00700245 0.
0.519957 0.00700218 0.
0.521958 0.00700191 0.
0.523959 0.00700225 0.
0.52596 0.00700268 0.
0.527961 0.00700307 0.
0.529962 0.00700311 0.
0.531963 0.00700316 0.
0.533964 0.00700322 0.
0.535965 0.00700332 0.
0.537967 0.00700343 0.
0.539968 0.00700337 0.
0.54197 0.00700317 0.
0.543972 0.00700297 0.
0.545972 0.0070027 0.
0.547973 0.0070024 0.
0.549973 0.0070021 0.
0.551974 0.00700231 0.
0.553975 0.00700253 0.
0.555976 0.00700274 0.
0.557977 0.00700284 0.
0.559978 0.00700295 0.
0.561979 0.00700306 0.
0.56398 0.00700316 0.
0.565981 0.00700327 0.
0.567983 0.00700338 0.
0.569984 0.00700349 0.
0.571985 0.0070036 0.
0.573986 0.00700382 0.
0.575987 0.00700404 0.
0.577987 0.00700421 0.
0.579989 0.00700389 0.
0.58199 0.00700357 0.
0.583991 0.00700332 0.
0.585991 0.00700323 0.
0.587992 0.00700313 0.
0.589993 0.00700303 0.
0.591994 0.00700293 0.
0.593995 0.00700283 0.
0.595997 0.007003 0.
0.597999 0.00700324 0.
0.600001 0.00700348 0.
0.602003 0.00700336 0.
0.604005 0.00700324 0.
0.606008 0.00700314 0.
0.608009 0.00700313 0.
0.61001 0.00700311 0.
0.612012 0.00700308 0.
0.614013 0.007003 0.
0.616014 0.00700293 0.
0.618015 0.00700286 0.
0.620016 0.00700281 0.
0.622016 0.00700276 0.
0.624017 0.0070026 0.
0.626018 0.00700243 0.
0.628018 0.00700234 0.
0.630019 0.00700281 0.
0.63202 0.00700327 0.
0.634021 0.00700352 0.
0.636022 0.00700336 0.
0.638024 0.00700321 0.
0.640025 0.00700314 0.
0.642026 0.00700314 0.
0.644027 0.00700315 0.
0.646028 0.00700293 0.
0.648029 0.00700265 0.
0.65003 0.00700238 0.
0.652031 0.00700254 0.
0.654032 0.00700272 0.
0.656033 0.00700293 0.
0.658035 0.00700329 0.
0.660036 0.00700365 0.
0.662038 0.0070037 0.
0.66404 0.00700338 0.
0.666042 0.00700307 0.
0.668043 0.00700281 0.
0.670044 0.00700257 0.
0.672045 0.00700233 0.
0.674046 0.00700226 0.
0.676048 0.00700221 0.
0.678049 0.00700218 0.
0.68005 0.00700226 0.
0.682052 0.00700235 0.
0.684053 0.00700234 0.
0.686054 0.00700216 0.
0.688056 0.00700199 0.
0.690057 0.007002 0.
0.692057 0.00700215 0.
0.694058 0.00700231 0.
0.696059 0.00700298 0.
0.69806 0.00700379 0.
0.499945 0.00900271 0.
0.501946 0.00900283 0.
0.503947 0.00900284 0.
0.505948 0.00900285 0.
0.507949 0.0090029 0.
0.50995 0.00900294 0.
0.511951 0.00900332 0.
0.513953 0.00900415 0.
0.515954 0.00900497 0.
0.517955 0.0090049 0.
0.519957 0.00900435 0.
0.521958 0.00900379 0.
0.523959 0.00900447 0.
0.52596 0.00900533 0.
0.527961 0.00900612 0.
0.529962 0.00900617 0.
0.531963 0.00900623 0.
0.533964 0.00900635 0.
0.535966 0.00900661 0.
0.537967 0.00900687 0.
0.539969 0.00900677 0.
0.54197 0.00900635 0.
0.543971 0.00900592 0.
0.545972 0.00900537 0.
0.547972 0.00900477 0.
0.549973 0.00900417 0.
0.551974 0.0090046 0.
0.553975 0.00900505 0.
0.555976 0.00900545 0.
0.557977 0.00900566 0.
0.559978 0.00900588 0.
0.561979 0.00900609 0.
0.56398 0.0090063 0.
0.565981 0.00900651 0.
0.567983 0.00900673 0.
0.569984 0.00900695 0.
0.571985 0.00900717 0.
0.573986 0.00900761 0.
0.575987 0.00900805 0.
0.577988 0.00900839 0.
0.579989 0.00900775 0.
0.58199 0.00900711 0.
0.583991 0.00900658 0.
0.585992 0.00900629 0.
0.587993 0.00900599 0.
0.589994 0.0090058 0.
0.591995 0.00900572 0.
0.593996 0.00900564 0.
0.595998 0.00900599 0.
0.597999 0.00900644 0.
0.600001 0.00900688 0.
0.602003 0.00900666 0.
0.604004 0.00900645 0.
0.606006 0.00900628 0.
0.608008 0.00900623 0.
0.610009 0.00900619 0.
0.612011 0.00900611 0.
0.614012 0.00900597 0.
0.616014 0.00900584 0.
0.618015 0.00900572 0.
0.620015 0.00900561 0.
0.622016 0.00900551 0.
0.624017 0.00900519 0.
0.626018 0.00900485 0.
0.628019 0.00900466 0.
0.63002 0.00900558 0.
0.632021 0.0090065 0.
0.634021 0.00900701 0.
0.636023 0.0090067 0.
0.638024 0.00900639 0.
0.640025 0.00900626 0.
0.642026 0.00900626 0.
0.644027 0.00900626 0.
0.646028 0.00900583 0.
0.648029 0.00900528 0.
0.65003 0.00900475 0.
0.652031 0.00900509 0.
0.654032 0.00900544 0.
0.656033 0.00900587 0.
0.658035 0.00900657 0.
0.660036 0.00900726 0.
0.662038 0.00900735 0.
0.66404 0.00900673 0.
0.666041 0.00900611 0.
0.668042 0.00900559 0.
0.670043 0.00900509 0.
0.672043 0.0090046 0.
0.674045 0.0090045 0.
0.676047 0.00900443 0.
0.678049 0.00900435 0.
0.68005 0.00900432 0.
0.682051 0.00900428 0.
0.684052 0.00900421 0.
0.686053 0.00900404 0.
0.688055 0.00900387 0.
0.690056 0.00900381 0.
0.692057 0.00900385 0.
0.694058 0.0090039 0.
0.696059 0.00900471 0.
0.698059 0.00900572 0.
0.499945 0.0110037 0.
0.501946 0.0110037 0.
0.503947 0.0110035 0.
0.505948 0.0110034 0.
0.507949 0.0110035 0.
0.50995 0.0110036 0.
0.511952 0.011004 0.
0.513953 0.0110048 0.
0.515954 0.0110056 0.
0.517955 0.0110056 0.
0.519957 0.0110051 0.
0.521958 0.0110047 0.
0.523959 0.0110055 0.
0.52596 0.0110064 0.
0.527961 0.0110072 0.
0.529962 0.0110073 0.
0.531963 0.0110073 0.
0.533965 0.0110073 0.
0.535966 0.0110076 0.
0.537968 0.0110078 0.
0.539969 0.0110077 0.
0.54197 0.0110073 0.
0.543971 0.0110069 0.
0.545971 0.0110063 0.
0.547972 0.0110056 0.
0.549973 0.011005 0.
0.551974 0.0110054 0.
0.553975 0.0110058 0.
0.555976 0.0110062 0.
0.557977 0.0110065 0.
0.559978 0.0110068 0.
0.561979 0.011007 0.
0.56398 0.0110072 0.
0.565982 0.0110075 0.
0.567983 0.0110077 0.
0.569984 0.0110079 0.
0.571985 0.0110081 0.
0.573986 0.0110086 0.
0.575988 0.0110091 0.
0.577989 0.0110096 0.
0.57999 0.0110089 0.
0.58199 0.0110083 0.
0.583991 0.0110077 0.
0.585992 0.0110073 0.
0.587993 0.0110068 0.
0.589994 0.0110066 0.
0.591995 0.0110066 0.
0.593997 0.0110066 0.
0.595998 0.011007 0.
0.597999 0.0110076 0.
0.600001 0.0110081 0.
0.602002 0.0110078 0.
0.604004 0.0110074 0.
0.606006 0.0110071 0.
0.608007 0.011007 0.
0.610008 0.0110069 0.
0.61201 0.0110069 0.
0.614011 0.011007 0.
0.616013 0.011007 0.
0.618014 0.0110069 0.
0.620015 0.0110067 0.
0.622015 0.0110065 0.
0.624016 0.0110061 0.
0.626018 0.0110057 0.
0.628019 0.0110055 0.
0.63002 0.0110066 0.
0.632021 0.0110077 0.
0.634022 0.0110083 0.
0.636022 0.0110079 0.
0.638023 0.0110074 0.
0.640024 0.0110073 0.
0.642025 0.0110073 0.
0.644026 0.0110073 0.
0.646028 0.0110069 0.
0.648029 0.0110063 0.
0.650031 0.0110057 0.
0.652032 0.0110061 0.
0.654033 0.0110065 0.
0.656034 0.011007 0.
0.658035 0.0110076 0.
0.660036 0.0110083 0.
0.662037 0.0110084 0.
0.664039 0.0110079 0.
0.666041 0.0110073 0.
0.668041 0.0110068 0.
0.670042 0.0110063 0.
0.672043 0.0110058 0.
0.674045 0.0110057 0.
0.676047 0.0110056 0.
0.678048 0.0110055 0.
0.680049 0.0110053 0.
0.68205 0.011005 0.
0.684051 0.0110049 0.
0.686053 0.0110049 0.
0.688054 0.0110049 0.
0.690055 0.0110049 0.
0.692056 0.0110049 0.
0.694057 0.011005 0.
0.696058 0.0110058 0.
0.698058 0.0110069 0.
0.499946 0.0130047 0.
0.501946 0.0130042 0.
0.503947 0.0130036 0.
0.505948 0.0130032 0.
0.507949 0.0130033 0.
0.509951 0.0130035 0.
0.511952 0.0130037 0.
0.513953 0.013004 0.
0.515954 0.0130043 0.
0.517955 0.0130045 0.
0.519957 0.0130046 0.
0.521958 0.0130046 0.
0.523959 0.0130052 0.
0.52596 0.0130059 0.
0.527961 0.0130064 0.
0.529962 0.0130064 0.
0.531964 0.0130063 0.
0.533965 0.0130062 0.
0.535966 0.0130063 0.
0.537967 0.0130063 0.
0.539968 0.0130062 0.
0.541969 0.013006 0.
0.54397 0.0130058 0.
0.545971 0.0130054 0.
0.547973 0.013005 0.
0.549974 0.0130046 0.
0.551975 0.0130047 0.
0.553976 0.0130049 0.
0.555977 0.013005 0.
0.557978 0.0130053 0.
0.559979 0.0130056 0.
0.56198 0.0130058 0.
0.563981 0.013006 0.
0.565982 0.0130061 0.
0.567983 0.0130062 0.
0.569984 0.0130062 0.
0.571986 0.0130063 0.
0.573987 0.0130068 0.
0.575988 0.0130073 0.
0.577989 0.0130077 0.
0.57999 0.0130074 0.
0.581991 0.013007 0.
0.583991 0.0130067 0.
0.585992 0.0130062 0.
0.587993 0.0130057 0.
0.589994 0.0130055 0.
0.591995 0.0130056 0.
0.593997 0.0130057 0.
0.595998 0.0130061 0.
0.597999 0.0130066 0.
0.6 0.0130071 0.
0.602002 0.0130066 0.
0.604004 0.0130061 0.
0.606006 0.0130057 0.
0.608007 0.0130055 0.
0.610008 0.0130054 0.
0.612009 0.0130055 0.
0.61401 0.013006 0.
0.616012 0.0130065 0.
0.618013 0.0130064 0.
0.620014 0.013006 0.
0.622015 0.0130056 0.
0.624016 0.0130053 0.
0.626017 0.0130051 0.
0.628019 0.013005 0.
0.63002 0.0130059 0.
0.63202 0.0130069 0.
0.634021 0.0130074 0.
0.636022 0.0130069 0.
0.638023 0.0130064 0.
0.640024 0.0130062 0.
0.642025 0.0130063 0.
0.644026 0.0130063 0.
0.646028 0.0130061 0.
0.648029 0.0130057 0.
0.65003 0.0130054 0.
0.652032 0.0130057 0.
0.654033 0.013006 0.
0.656034 0.0130063 0.
0.658035 0.0130065 0.
0.660036 0.0130068 0.
0.662037 0.0130069 0.
0.664038 0.0130067 0.
0.666039 0.0130066 0.
0.668041 0.0130064 0.
0.670042 0.0130061 0.
0.672043 0.0130058 0.
0.674045 0.0130058 0.
0.676046 0.0130057 0.
0.678048 0.0130056 0.
0.680049 0.0130051 0.
0.68205 0.0130046 0.
0.684051 0.0130044 0.
0.686052 0.0130047 0.
0.688054 0.013005 0.
0.690055 0.0130052 0.
0.692055 0.0130054 0.
0.694056 0.0130056 0.
0.696057 0.0130063 0.
0.698058 0.0130072 0.
0.499946 0.0150056 0.
0.501947 0.0150046 0.
0.503948 0.0150037 0.
0.505949 0.0150029 0.
0.50795 0.0150031 0.
0.509951 0.0150034 0.
0.511952 0.0150035 0.
0.513953 0.0150033 0.
0.515954 0.0150031 0.
0.517955 0.0150034 0.
0.519957 0.015004 0.
0.521959 0.0150046 0.
0.523959 0.015005 0.
0.52596 0.0150053 0.
0.52796 0.0150056 0.
0.529962 0.0150055 0.
0.531964 0.0150053 0.
0.533965 0.0150051 0.
0.535966 0.015005 0.
0.537967 0.0150048 0.
0.539968 0.0150048 0.
0.541969 0.0150048 0.
0.54397 0.0150048 0.
0.545971 0.0150046 0.
0.547973 0.0150044 0.
0.549975 0.0150042 0.
0.551976 0.015004 0.
0.553977 0.0150039 0.
0.555978 0.0150038 0.
0.557979 0.0150042 0.
0.55998 0.0150045 0.
0.56198 0.0150047 0.
0.563981 0.0150047 0.
0.565982 0.0150047 0.
0.567983 0.0150047 0.
0.569985 0.0150046 0.
0.571986 0.0150045 0.
0.573987 0.0150049 0.
0.575988 0.0150054 0.
0.577989 0.0150059 0.
0.57999 0.0150058 0.
0.581991 0.0150058 0.
0.583992 0.0150056 0.
0.585992 0.0150051 0.
0.587993 0.0150045 0.
0.589994 0.0150044 0.
0.591995 0.0150045 0.
0.593996 0.0150047 0.
0.595998 0.0150052 0.
0.597998 0.0150056 0.
0.599999 0.0150061 0.
0.602002 0.0150055 0.
0.604004 0.0150048 0.
0.606006 0.0150043 0.
0.608007 0.0150041 0.
0.610008 0.0150038 0.
0.612009 0.0150041 0.
0.614009 0.015005 0.
0.61601 0.015006 0.
0.618011 0.0150059 0.
0.620013 0.0150053 0.
0.622014 0.0150048 0.
0.624015 0.0150046 0.
0.626017 0.0150044 0.
0.628018 0.0150044 0.
0.630019 0.0150053 0.
0.63202 0.0150061 0.
0.634021 0.0150065 0.
0.636022 0.0150059 0.
0.638023 0.0150053 0.
0.640024 0.0150051 0.
0.642025 0.0150052 0.
0.644026 0.0150053 0.
0.646027 0.0150052 0.
0.648029 0.0150051 0.
0.65003 0.015005 0.
0.652032 0.0150052 0.
0.654034 0.0150054 0.
0.656035 0.0150055 0.
0.658036 0.0150054 0.
0.660036 0.0150053 0.
0.662037 0.0150054 0.
0.664037 0.0150056 0.
0.666038 0.0150059 0.
0.66804 0.0150059 0.
0.670042 0.0150059 0.
0.672044 0.0150059 0.
0.674045 0.0150059 0.
0.676046 0.0150058 0.
0.678047 0.0150057 0.
0.680048 0.015005 0.
0.682049 0.0150042 0.
0.68405 0.0150039 0.
0.686052 0.0150045 0.
0.688053 0.0150051 0.
0.690054 0.0150056 0.
0.692054 0.0150059 0.
0.694055 0.0150063 0.
0.696056 0.0150069 0.
0.698057 0.0150075 0.
0.499947 0.0170055 0.
0.501948 0.0170048 0.
0.503949 0.0170042 0.
0.50595 0.0170037 0.
0.507951 0.0170037 0.
0.509952 0.0170037 0.
0.511953 0.0170036 0.
0.513954 0.0170034 0.
0.515955 0.0170032 0.
0.517956 0.0170035 0.
0.519957 0.017004 0.
0.521958 0.0170045 0.
0.523959 0.017005 0.
0.52596 0.0170056 0.
0.527961 0.017006 0.
0.529962 0.0170057 0.
0.531964 0.0170054 0.
0.533965 0.0170052 0.
0.535966 0.017005 0.
0.537967 0.0170048 0.
0.539968 0.0170046 0.
0.541969 0.0170046 0.
0.54397 0.0170045 0.
0.545972 0.0170043 0.
0.547973 0.0170041 0.
0.549975 0.0170038 0.
0.551976 0.0170037 0.
0.553977 0.0170036 0.
0.555978 0.0170035 0.
0.557979 0.0170037 0.
0.55998 0.0170039 0.
0.561981 0.017004 0.
0.563982 0.017004 0.
0.565983 0.0170039 0.
0.567984 0.0170042 0.
0.569985 0.0170046 0.
0.571986 0.017005 0.
0.573987 0.0170053 0.
0.575988 0.0170056 0.
0.577989 0.0170058 0.
0.57999 0.0170056 0.
0.581991 0.0170055 0.
0.583992 0.0170053 0.
0.585992 0.0170049 0.
0.587993 0.0170046 0.
0.589994 0.0170044 0.
0.591995 0.0170045 0.
0.593997 0.0170045 0.
0.595998 0.0170047 0.
0.597999 0.0170048 0.
0.6 0.0170049 0.
0.602002 0.0170045 0.
0.604004 0.017004 0.
0.606006 0.0170038 0.
0.608007 0.0170043 0.
0.610007 0.0170047 0.
0.612008 0.017005 0.
0.614009 0.0170049 0.
0.61601 0.0170049 0.
0.618011 0.0170047 0.
0.620013 0.0170044 0.
0.622014 0.0170041 0.
0.624015 0.0170041 0.
0.626016 0.0170042 0.
0.628017 0.0170043 0.
0.630018 0.0170048 0.
0.63202 0.0170053 0.
0.634021 0.0170055 0.
0.636022 0.0170052 0.
0.638023 0.0170049 0.
0.640024 0.0170049 0.
0.642025 0.0170051 0.
0.644026 0.0170052 0.
0.646027 0.0170051 0.
0.648029 0.0170049 0.
0.65003 0.0170048 0.
0.652031 0.0170048 0.
0.654033 0.0170049 0.
0.656034 0.0170049 0.
0.658035 0.0170051 0.
0.660035 0.0170052 0.
0.662036 0.0170054 0.
0.664037 0.0170057 0.
0.666038 0.0170059 0.
0.66804 0.0170061 0.
0.670041 0.0170063 0.
0.672043 0.0170065 0.
0.674044 0.0170062 0.
0.676045 0.0170058 0.
0.678046 0.0170055 0.
0.680047 0.0170048 0.
0.682048 0.0170041 0.
0.684049 0.0170039 0.
0.686051 0.0170044 0.
0.688052 0.0170049 0.
0.690053 0.0170055 0.
0.692054 0.0170062 0.
0.694055 0.0170069 0.
0.696056 0.0170074 0.
0.698057 0.0170078 0.
0.499947 0.0190054 0.
0.501948 0.019005 0.
0.503949 0.0190048 0.
0.505951 0.0190045 0.
0.507952 0.0190042 0.
0.509953 0.0190039 0.
0.511954 0.0190037 0.
0.513955 0.0190035 0.
0.515956 0.0190033 0.
0.517957 0.0190036 0.
0.519957 0.019004 0.
0.521958 0.0190044 0.
0.523959 0.0190051 0.
0.52596 0.0190058 0.
0.527961 0.0190064 0.
0.529963 0.019006 0.
0.531964 0.0190056 0.
0.533965 0.0190052 0.
0.535966 0.019005 0.
0.537967 0.0190047 0.
0.539968 0.0190045 0.
0.54197 0.0190044 0.
0.543971 0.0190043 0.
0.545972 0.019004 0.
0.547973 0.0190037 0.
0.549974 0.0190035 0.
0.551976 0.0190034 0.
0.553977 0.0190033 0.
0.555978 0.0190032 0.
0.557979 0.0190033 0.
0.55998 0.0190034 0.
0.561981 0.0190034 0.
0.563982 0.0190033 0.
0.565983 0.0190031 0.
0.567984 0.0190037 0.
0.569985 0.0190046 0.
0.571986 0.0190056 0.
0.573986 0.0190057 0.
0.575987 0.0190057 0.
0.577988 0.0190056 0.
0.579989 0.0190054 0.
0.58199 0.0190052 0.
0.583991 0.019005 0.
0.585992 0.0190048 0.
0.587993 0.0190046 0.
0.589994 0.0190045 0.
0.591996 0.0190044 0.
0.593997 0.0190043 0.
0.595998 0.0190042 0.
0.597999 0.019004 0.
0.600001 0.0190038 0.
0.602002 0.0190035 0.
0.604004 0.0190032 0.
0.606006 0.0190033 0.
0.608006 0.0190045 0.
0.610007 0.0190056 0.
0.612008 0.0190059 0.
0.614008 0.0190048 0.
0.616009 0.0190038 0.
0.618011 0.0190035 0.
0.620012 0.0190035 0.
0.622014 0.0190034 0.
0.624015 0.0190037 0.
0.626016 0.019004 0.
0.628016 0.0190043 0.
0.630018 0.0190044 0.
0.632019 0.0190045 0.
0.63402 0.0190045 0.
0.636021 0.0190045 0.
0.638023 0.0190045 0.
0.640024 0.0190047 0.
0.642025 0.0190049 0.
0.644026 0.0190051 0.
0.646027 0.019005 0.
0.648028 0.0190048 0.
0.65003 0.0190046 0.
0.652031 0.0190044 0.
0.654032 0.0190043 0.
0.656032 0.0190043 0.
0.658033 0.0190047 0.
0.660035 0.0190051 0.
0.662036 0.0190054 0.
0.664037 0.0190057 0.
0.666038 0.0190059 0.
0.66804 0.0190063 0.
0.670041 0.0190066 0.
0.672042 0.019007 0.
0.674043 0.0190065 0.
0.676044 0.0190059 0.
0.678045 0.0190052 0.
0.680046 0.0190046 0.
0.682047 0.019004 0.
0.684048 0.0190038 0.
0.68605 0.0190043 0.
0.688051 0.0190048 0.
0.690052 0.0190055 0.
0.692053 0.0190065 0.
0.694055 0.0190074 0.
0.696056 0.0190079 0.
0.698057 0.0190082 0.
0.499948 0.0210054 0.
0.501949 0.0210052 0.
0.50395 0.021005 0.
0.505952 0.0210048 0.
0.507953 0.0210043 0.
0.509954 0.0210039 0.
0.511955 0.0210036 0.
0.513956 0.0210035 0.
0.515957 0.0210034 0.
0.517958 0.0210036 0.
0.519958 0.021004 0.
0.521959 0.0210043 0.
0.52396 0.0210049 0.
0.525961 0.0210055 0.
0.527962 0.021006 0.
0.529963 0.0210057 0.
0.531965 0.0210053 0.
0.533966 0.021005 0.
0.535967 0.0210046 0.
0.537967 0.0210043 0.
0.539969 0.021004 0.
0.54197 0.0210038 0.
0.543971 0.0210036 0.
0.545972 0.0210034 0.
0.547973 0.0210032 0.
0.549974 0.021003 0.
0.551975 0.0210029 0.
0.553977 0.0210027 0.
0.555978 0.0210025 0.
0.557979 0.0210025 0.
0.559979 0.0210025 0.
0.56198 0.0210026 0.
0.563982 0.0210026 0.
0.565983 0.0210026 0.
0.567984 0.0210033 0.
0.569984 0.0210043 0.
0.571985 0.0210053 0.
0.573986 0.0210053 0.
0.575987 0.0210051 0.
0.577988 0.0210049 0.
0.579989 0.0210047 0.
0.58199 0.0210046 0.
0.583991 0.0210044 0.
0.585992 0.0210041 0.
0.587993 0.0210039 0.
0.589995 0.0210038 0.
0.591996 0.0210039 0.
0.593997 0.021004 0.
0.595998 0.0210036 0.
0.598 0.0210031 0.
0.600001 0.0210026 0.
0.602002 0.0210026 0.
0.604004 0.0210027 0.
0.606005 0.0210029 0.
0.608006 0.021004 0.
0.610006 0.0210051 0.
0.612007 0.0210052 0.
0.614008 0.021004 0.
0.616009 0.0210029 0.
0.618011 0.0210025 0.
0.620012 0.0210024 0.
0.622014 0.0210024 0.
0.624015 0.0210027 0.
0.626015 0.0210031 0.
0.628016 0.0210035 0.
0.630017 0.0210035 0.
0.632019 0.0210036 0.
0.63402 0.0210037 0.
0.636021 0.0210038 0.
0.638022 0.0210038 0.
0.640023 0.021004 0.
0.642024 0.0210044 0.
0.644025 0.0210047 0.
0.646027 0.0210045 0.
0.648028 0.0210043 0.
0.650029 0.0210039 0.
0.65203 0.0210037 0.
0.654031 0.0210034 0.
0.656031 0.0210034 0.
0.658033 0.0210039 0.
0.660034 0.0210045 0.
0.662035 0.0210049 0.
0.664037 0.0210052 0.
0.666038 0.0210055 0.
0.668039 0.0210059 0.
0.67004 0.0210063 0.
0.672041 0.0210068 0.
0.674042 0.0210062 0.
0.676043 0.0210054 0.
0.678045 0.0210047 0.
0.680045 0.0210042 0.
0.682046 0.0210038 0.
0.684047 0.0210036 0.
0.686049 0.0210041 0.
0.68805 0.0210045 0.
0.690051 0.0210053 0.
0.692052 0.0210063 0.
0.694054 0.0210074 0.
0.696055 0.0210079 0.
0.698056 0.0210083 0.
0.499948 0.0230056 0.
0.50195 0.0230055 0.
0.503951 0.023005 0.
0.505952 0.0230046 0.
0.507954 0.0230041 0.
0.509955 0.0230036 0.
0.511956 0.0230033 0.
0.513957 0.0230034 0.
0.515958 0.0230035 0.
0.517958 0.0230037 0.
0.519959 0.023004 0.
0.52196 0.0230043 0.
0.52396 0.0230044 0.
0.525961 0.0230046 0.
0.527962 0.0230047 0.
0.529964 0.0230047 0.
0.531966 0.0230047 0.
0.533967 0.0230045 0.
0.535968 0.023004 0.
0.537968 0.0230035 0.
0.539969 0.0230031 0.
0.54197 0.0230029 0.
0.543971 0.0230026 0.
0.545972 0.0230025 0.
0.547973 0.0230025 0.
0.549974 0.0230026 0.
0.551975 0.0230021 0.
0.553976 0.0230017 0.
0.555977 0.0230013 0.
0.557978 0.0230013 0.
0.559979 0.0230013 0.
0.56198 0.0230015 0.
0.563981 0.0230019 0.
0.565983 0.0230023 0.
0.567983 0.0230029 0.
0.569984 0.0230036 0.
0.571984 0.0230043 0.
0.573985 0.0230041 0.
0.575987 0.0230037 0.
0.577988 0.0230034 0.
0.57999 0.0230035 0.
0.581991 0.0230036 0.
0.583992 0.0230034 0.
0.585993 0.0230029 0.
0.587994 0.0230023 0.
0.589995 0.0230023 0.
0.591996 0.0230029 0.
0.593997 0.0230034 0.
0.595998 0.023003 0.
0.598 0.0230022 0.
0.600001 0.0230014 0.
0.602002 0.0230019 0.
0.604004 0.0230023 0.
0.606005 0.0230027 0.
0.608006 0.0230028 0.
0.610006 0.023003 0.
0.612007 0.0230029 0.
0.614008 0.0230025 0.
0.616009 0.0230021 0.
0.618011 0.0230017 0.
0.620012 0.0230013 0.
0.622013 0.0230009 0.
0.624014 0.0230012 0.
0.626015 0.0230016 0.
0.628016 0.0230019 0.
0.630017 0.0230023 0.
0.632018 0.0230028 0.
0.63402 0.023003 0.
0.63602 0.0230029 0.
0.638021 0.0230028 0.
0.640022 0.023003 0.
0.642023 0.0230035 0.
0.644025 0.0230039 0.
0.646026 0.0230037 0.
0.648027 0.0230033 0.
0.650028 0.0230029 0.
0.652029 0.0230026 0.
0.65403 0.0230023 0.
0.656031 0.0230022 0.
0.658032 0.0230028 0.
0.660033 0.0230034 0.
0.662034 0.0230039 0.
0.664036 0.0230042 0.
0.666037 0.0230045 0.
0.668038 0.0230049 0.
0.670039 0.0230054 0.
0.67204 0.0230059 0.
0.674042 0.0230053 0.
0.676043 0.0230045 0.
0.678044 0.0230038 0.
0.680045 0.0230036 0.
0.682045 0.0230034 0.
0.684046 0.0230034 0.
0.686047 0.0230038 0.
0.688048 0.0230042 0.
0.690049 0.0230049 0.
0.692051 0.0230058 0.
0.694052 0.0230067 0.
0.696053 0.0230075 0.
0.698055 0.0230083 0.
0.499949 0.0250057 0.
0.50195 0.0250057 0.
0.503952 0.0250051 0.
0.505953 0.0250044 0.
0.507954 0.0250038 0.
0.509956 0.0250032 0.
0.511957 0.025003 0.
0.513958 0.0250033 0.
0.515959 0.0250035 0.
0.517959 0.0250038 0.
0.51996 0.025004 0.
0.521961 0.0250042 0.
0.523961 0.025004 0.
0.525962 0.0250037 0.
0.527963 0.0250034 0.
0.529965 0.0250037 0.
0.531966 0.025004 0.
0.533968 0.025004 0.
0.535969 0.0250034 0.
0.537969 0.0250028 0.
0.53997 0.0250023 0.
0.541971 0.0250019 0.
0.543971 0.0250015 0.
0.545972 0.0250016 0.
0.547973 0.0250018 0.
0.549974 0.0250021 0.
0.551975 0.0250014 0.
0.553976 0.0250007 0.
0.555977 0.0250002 0.
0.557978 0.0250001 0.
0.559978 0.0250001 0.
0.561979 0.0250004 0.
0.563981 0.0250012 0.
0.565982 0.025002 0.
0.567983 0.0250025 0.
0.569983 0.0250029 0.
0.571983 0.0250033 0.
0.573985 0.0250029 0.
0.575987 0.0250024 0.
0.577988 0.025002 0.
0.57999 0.0250023 0.
0.581991 0.0250026 0.
0.583993 0.0250025 0.
0.585994 0.0250016 0.
0.587995 0.0250007 0.
0.589996 0.0250009 0.
0.591996 0.0250019 0.
0.593997 0.0250029 0.
0.595998 0.0250023 0.
0.597999 0.0250013 0.
0.6 0.0250002 0.
0.602002 0.0250011 0.
0.604003 0.025002 0.
0.606005 0.0250025 0.
0.608005 0.0250017 0.
0.610006 0.0250009 0.
0.612007 0.0250006 0.
0.614008 0.025001 0.
0.616009 0.0250014 0.
0.61801 0.025001 0.
0.620011 0.0250002 0.
0.622012 0.0249995 0.
0.624013 0.0249997 0.
0.626015 0.025 0.
0.628016 0.0250004 0.
0.630017 0.0250011 0.
0.632018 0.0250019 0.
0.634019 0.0250023 0.
0.63602 0.025002 0.
0.63802 0.0250017 0.
0.640021 0.0250019 0.
0.642022 0.0250025 0.
0.644024 0.0250031 0.
0.646025 0.0250029 0.
0.648026 0.0250024 0.
0.650027 0.0250018 0.
0.652028 0.0250015 0.
0.654029 0.0250011 0.
0.65603 0.025001 0.
0.658031 0.0250017 0.
0.660032 0.0250024 0.
0.662034 0.0250029 0.
0.664035 0.0250032 0.
0.666036 0.0250035 0.
0.668037 0.025004 0.
0.670039 0.0250045 0.
0.67204 0.025005 0.
0.674041 0.0250044 0.
0.676042 0.0250036 0.
0.678043 0.0250029 0.
0.680044 0.0250029 0.
0.682045 0.025003 0.
0.684045 0.0250031 0.
0.686046 0.0250035 0.
0.688047 0.0250039 0.
0.690048 0.0250045 0.
0.692049 0.0250053 0.
0.69405 0.025006 0.
0.696051 0.0250071 0.
0.698053 0.0250082 0.
0.499949 0.0270061 0.
0.501951 0.0270059 0.
0.503953 0.0270051 0.
0.505954 0.0270043 0.
0.507955 0.0270038 0.
0.509956 0.0270033 0.
0.511957 0.0270031 0.
0.513958 0.0270033 0.
0.515959 0.0270034 0.
0.517959 0.0270036 0.
0.51996 0.0270037 0.
0.521961 0.0270039 0.
0.523962 0.0270036 0.
0.525963 0.0270032 0.
0.527964 0.0270029 0.
0.529965 0.0270031 0.
0.531967 0.0270032 0.
0.533968 0.0270032 0.
0.535969 0.0270026 0.
0.53797 0.027002 0.
0.539971 0.0270017 0.
0.541971 0.0270016 0.
0.543972 0.0270015 0.
0.545973 0.0270014 0.
0.547974 0.0270012 0.
0.549975 0.027001 0.
0.551976 0.0270004 0.
0.553976 0.0269998 0.
0.555977 0.0269992 0.
0.557978 0.0269991 0.
0.559979 0.026999 0.
0.56198 0.0269993 0.
0.563981 0.0270001 0.
0.565982 0.027001 0.
0.567983 0.0270013 0.
0.569984 0.0270015 0.
0.571984 0.0270016 0.
0.573986 0.0270016 0.
0.575987 0.0270015 0.
0.577988 0.0270014 0.
0.57999 0.0270014 0.
0.581991 0.0270013 0.
0.583992 0.0270011 0.
0.585993 0.0270006 0.
0.587994 0.0270001 0.
0.589995 0.0270003 0.
0.591996 0.0270009 0.
0.593997 0.0270016 0.
0.595998 0.027001 0.
0.597999 0.0270002 0.
0.6 0.0269994 0.
0.602002 0.0269999 0.
0.604004 0.0270005 0.
0.606005 0.0270009 0.
0.608006 0.0270003 0.
0.610006 0.0269997 0.
0.612007 0.0269996 0.
0.614008 0.0270001 0.
0.61601 0.0270006 0.
0.618011 0.0270001 0.
0.620012 0.0269991 0.
0.622013 0.0269981 0.
0.624014 0.0269985 0.
0.626015 0.026999 0.
0.628016 0.0269995 0.
0.630017 0.027 0.
0.632018 0.0270005 0.
0.634019 0.0270008 0.
0.63602 0.0270008 0.
0.63802 0.0270008 0.
0.640021 0.027001 0.
0.642023 0.0270014 0.
0.644024 0.0270018 0.
0.646025 0.0270016 0.
0.648026 0.0270013 0.
0.650027 0.0270009 0.
0.652028 0.0270007 0.
0.654029 0.0270005 0.
0.65603 0.0270005 0.
0.658031 0.027001 0.
0.660032 0.0270015 0.
0.662033 0.0270019 0.
0.664034 0.0270022 0.
0.666035 0.0270025 0.
0.668036 0.0270031 0.
0.670038 0.0270037 0.
0.672039 0.0270043 0.
0.67404 0.0270039 0.
0.676041 0.0270034 0.
0.678042 0.0270029 0.
0.680042 0.027003 0.
0.682043 0.027003 0.
0.684044 0.0270032 0.
0.686045 0.0270035 0.
0.688046 0.0270039 0.
0.690047 0.0270045 0.
0.692048 0.0270054 0.
0.694049 0.0270062 0.
0.69605 0.0270074 0.
0.698051 0.0270088 0.
0.49995 0.0290065 0.
0.501951 0.0290061 0.
0.503953 0.0290051 0.
0.505955 0.0290042 0.
0.507956 0.0290038 0.
0.509957 0.0290035 0.
0.511957 0.0290033 0.
0.513958 0.0290033 0.
0.515959 0.0290033 0.
0.51796 0.0290034 0.
0.519961 0.0290035 0.
0.521962 0.0290036 0.
0.523963 0.0290032 0.
0.525964 0.0290028 0.
0.527965 0.0290024 0.
0.529966 0.0290025 0.
0.531967 0.0290025 0.
0.533968 0.0290024 0.
0.535969 0.0290018 0.
0.537971 0.0290012 0.
0.539971 0.029001 0.
0.541972 0.0290013 0.
0.543973 0.0290015 0.
0.545974 0.0290012 0.
0.547975 0.0290006 0.
0.549976 0.029 0.
0.551976 0.0289994 0.
0.553977 0.0289988 0.
0.555977 0.0289983 0.
0.557978 0.0289981 0.
0.559979 0.0289979 0.
0.56198 0.0289982 0.
0.563981 0.028999 0.
0.565982 0.0289999 0.
0.567983 0.0290002 0.
0.569984 0.0290001 0.
0.571985 0.029 0.
0.573986 0.0290003 0.
0.575987 0.0290006 0.
0.577988 0.0290009 0.
0.579989 0.0290004 0.
0.58199 0.029 0.
0.583992 0.0289997 0.
0.585993 0.0289996 0.
0.587994 0.0289995 0.
0.589995 0.0289997 0.
0.591996 0.0289999 0.
0.593998 0.0290002 0.
0.595999 0.0289998 0.
0.598 0.0289991 0.
0.6 0.0289985 0.
0.602002 0.0289988 0.
0.604004 0.0289991 0.
0.606005 0.0289992 0.
0.608006 0.0289988 0.
0.610006 0.0289985 0.
0.612007 0.0289985 0.
0.614008 0.0289991 0.
0.61601 0.0289997 0.
0.618011 0.0289992 0.
0.620012 0.028998 0.
0.622013 0.0289968 0.
0.624014 0.0289973 0.
0.626015 0.028998 0.
0.628016 0.0289986 0.
0.630017 0.0289988 0.
0.632018 0.028999 0.
0.634019 0.0289992 0.
0.63602 0.0289995 0.
0.638021 0.0289998 0.
0.640022 0.0290001 0.
0.642023 0.0290003 0.
0.644025 0.0290004 0.
0.646026 0.0290003 0.
0.648027 0.0290002 0.
0.650028 0.029 0.
0.652028 0.029 0.
0.654029 0.0289999 0.
0.656029 0.029 0.
0.65803 0.0290003 0.
0.660031 0.0290006 0.
0.662032 0.0290009 0.
0.664033 0.0290012 0.
0.666034 0.0290016 0.
0.668035 0.0290022 0.
0.670037 0.0290029 0.
0.672038 0.0290036 0.
0.674039 0.0290034 0.
0.676039 0.0290032 0.
0.67804 0.029003 0.
0.680041 0.029003 0.
0.682042 0.0290031 0.
0.684043 0.0290033 0.
0.686044 0.0290036 0.
0.688045 0.0290039 0.
0.690046 0.0290045 0.
0.692047 0.0290055 0.
0.694048 0.0290064 0.
0.696049 0.0290078 0.
0.69805 0.0290094 0.
0.499951 0.0310067 0.
0.501953 0.0310061 0.
0.503955 0.031005 0.
0.505956 0.0310041 0.
0.507957 0.0310038 0.
0.509957 0.0310035 0.
0.511958 0.0310033 0.
0.513959 0.0310033 0.
0.515959 0.0310033 0.
0.51796 0.0310032 0.
0.519961 0.0310031 0.
0.521962 0.031003 0.
0.523963 0.0310027 0.
0.525964 0.0310023 0.
0.527966 0.031002 0.
0.529967 0.0310019 0.
0.531968 0.0310017 0.
0.533969 0.0310015 0.
0.53597 0.031001 0.
0.537971 0.0310006 0.
0.539972 0.0310005 0.
0.541973 0.0310007 0.
0.543974 0.0310009 0.
0.545974 0.0310005 0.
0.547975 0.031 0.
0.549976 0.0309995 0.
0.551977 0.0309989 0.
0.553977 0.0309982 0.
0.555978 0.0309977 0.
0.557978 0.0309973 0.
0.559979 0.030997 0.
0.56198 0.0309972 0.
0.563981 0.0309981 0.
0.565982 0.030999 0.
0.567983 0.0309992 0.
0.569984 0.0309989 0.
0.571986 0.0309987 0.
0.573986 0.0309991 0.
0.575987 0.0309996 0.
0.577988 0.031 0.
0.579989 0.0309994 0.
0.58199 0.0309988 0.
0.583991 0.0309985 0.
0.585993 0.0309986 0.
0.587994 0.0309987 0.
0.589995 0.0309987 0.
0.591996 0.0309987 0.
0.593998 0.0309988 0.
0.595999 0.0309985 0.
0.598 0.0309981 0.
0.6 0.0309977 0.
0.602002 0.0309978 0.
0.604004 0.0309979 0.
0.606006 0.0309979 0.
0.608006 0.0309976 0.
0.610007 0.0309973 0.
0.612007 0.0309975 0.
0.614009 0.030998 0.
0.61601 0.0309986 0.
0.618011 0.030998 0.
0.620012 0.0309968 0.
0.622014 0.0309956 0.
0.624015 0.0309962 0.
0.626015 0.0309971 0.
0.628016 0.0309978 0.
0.630017 0.0309978 0.
0.632018 0.0309979 0.
0.634019 0.030998 0.
0.63602 0.0309983 0.
0.638021 0.0309987 0.
0.640022 0.0309989 0.
0.642024 0.0309991 0.
0.644025 0.0309993 0.
0.646026 0.0309993 0.
0.648027 0.0309993 0.
0.650028 0.0309993 0.
0.652028 0.0309994 0.
0.654029 0.0309995 0.
0.656029 0.0309996 0.
0.65803 0.0309998 0.
0.660031 0.031 0.
0.662032 0.0310002 0.
0.664033 0.0310005 0.
0.666034 0.0310007 0.
0.668035 0.0310014 0.
0.670036 0.0310023 0.
0.672037 0.0310032 0.
0.674038 0.0310031 0.
0.676039 0.0310029 0.
0.678039 0.0310027 0.
0.68004 0.0310029 0.
0.682041 0.0310031 0.
0.684042 0.0310034 0.
0.686043 0.0310037 0.
0.688044 0.031004 0.
0.690045 0.0310047 0.
0.692046 0.0310057 0.
0.694046 0.0310066 0.
0.696047 0.031008 0.
0.698048 0.0310094 0.
0.499954 0.0330067 0.
0.501955 0.033006 0.
0.503956 0.0330049 0.
0.505957 0.033004 0.
0.507958 0.0330037 0.
0.509958 0.0330034 0.
0.511959 0.0330032 0.
0.513959 0.0330033 0.
0.51596 0.0330033 0.
0.517961 0.033003 0.
0.519962 0.0330025 0.
0.521962 0.0330021 0.
0.523964 0.033002 0.
0.525965 0.0330019 0.
0.527966 0.0330017 0.
0.529967 0.0330013 0.
0.531968 0.0330009 0.
0.533969 0.0330005 0.
0.53597 0.0330003 0.
0.537971 0.0330002 0.
0.539972 0.033 0.
0.541973 0.0329998 0.
0.543974 0.0329996 0.
0.545975 0.0329995 0.
0.547976 0.0329995 0.
0.549976 0.0329995 0.
0.551977 0.0329988 0.
0.553977 0.0329981 0.
0.555978 0.0329974 0.
0.557979 0.0329968 0.
0.559979 0.0329963 0.
0.56198 0.0329965 0.
0.563981 0.0329974 0.
0.565981 0.0329983 0.
0.567983 0.0329984 0.
0.569984 0.032998 0.
0.571985 0.0329977 0.
0.573986 0.0329981 0.
0.575987 0.0329985 0.
0.577989 0.0329989 0.
0.57999 0.0329983 0.
0.58199 0.0329978 0.
0.583992 0.0329974 0.
0.585993 0.0329975 0.
0.587994 0.0329975 0.
0.589995 0.0329974 0.
0.591996 0.0329973 0.
0.593998 0.0329972 0.
0.595999 0.0329972 0.
0.598 0.0329972 0.
0.600001 0.0329972 0.
0.602003 0.032997 0.
0.604005 0.0329969 0.
0.606006 0.0329967 0.
0.608007 0.0329965 0.
0.610007 0.0329963 0.
0.612008 0.0329964 0.
0.614009 0.0329968 0.
0.61601 0.0329972 0.
0.618011 0.0329967 0.
0.620013 0.0329957 0.
0.622014 0.0329947 0.
0.624015 0.0329954 0.
0.626015 0.0329963 0.
0.628016 0.0329971 0.
0.630017 0.0329971 0.
0.632018 0.032997 0.
0.634019 0.032997 0.
0.63602 0.0329971 0.
0.638021 0.0329973 0.
0.640022 0.0329976 0.
0.642024 0.032998 0.
0.644025 0.0329985 0.
0.646026 0.0329987 0.
0.648027 0.0329987 0.
0.650028 0.0329988 0.
0.652028 0.0329989 0.
0.654029 0.0329991 0.
0.656029 0.0329992 0.
0.65803 0.0329994 0.
0.660031 0.0329996 0.
0.662032 0.0329997 0.
0.664033 0.0329999 0.
0.666033 0.033 0.
0.668034 0.0330009 0.
0.670035 0.033002 0.
0.672036 0.0330032 0.
0.674037 0.0330029 0.
0.676038 0.0330025 0.
0.678039 0.0330022 0.
0.68004 0.0330026 0.
0.682041 0.033003 0.
0.684042 0.0330035 0.
0.686042 0.0330039 0.
0.688043 0.0330043 0.
0.690044 0.0330051 0.
0.692044 0.0330061 0.
0.694045 0.0330071 0.
0.696046 0.033008 0.
0.698047 0.0330088 0.
0.499957 0.0350068 0.
0.501957 0.0350059 0.
0.503958 0.0350048 0.
0.505959 0.0350038 0.
0.507959 0.0350036 0.
0.509959 0.0350033 0.
0.51196 0.0350031 0.
0.51396 0.0350032 0.
0.515961 0.0350033 0.
0.517961 0.0350028 0.
0.519962 0.035002 0.
0.521963 0.0350012 0.
0.523964 0.0350012 0.
0.525966 0.0350014 0.
0.527967 0.0350015 0.
0.529968 0.0350007 0.
0.531968 0.035 0.
0.533969 0.0349995 0.
0.53597 0.0349997 0.
0.537971 0.0349998 0.
0.539973 0.0349995 0.
0.541973 0.0349989 0.
0.543974 0.0349983 0.
0.545975 0.0349985 0.
0.547976 0.034999 0.
0.549976 0.0349995 0.
0.551977 0.0349987 0.
0.553978 0.0349979 0.
0.555978 0.034997 0.
0.557979 0.0349964 0.
0.559979 0.0349957 0.
0.56198 0.0349957 0.
0.56398 0.0349967 0.
0.565981 0.0349976 0.
0.567982 0.0349976 0.
0.569984 0.0349972 0.
0.571985 0.0349967 0.
0.573986 0.034997 0.
0.575987 0.0349974 0.
0.577989 0.0349977 0.
0.57999 0.0349973 0.
0.581991 0.0349968 0.
0.583992 0.0349964 0.
0.585993 0.0349963 0.
0.587994 0.0349963 0.
0.589995 0.0349961 0.
0.591996 0.0349959 0.
0.593998 0.0349957 0.
0.595999 0.0349959 0.
0.598 0.0349962 0.
0.6 0.0349966 0.
0.602003 0.0349962 0.
0.604005 0.0349959 0.
0.606007 0.0349956 0.
0.608007 0.0349954 0.
0.610008 0.0349952 0.
0.612009 0.0349953 0.
0.61401 0.0349955 0.
0.616011 0.0349958 0.
0.618012 0.0349953 0.
0.620013 0.0349945 0.
0.622014 0.0349937 0.
0.624015 0.0349945 0.
0.626015 0.0349955 0.
0.628016 0.0349964 0.
0.630017 0.0349963 0.
0.632018 0.0349962 0.
0.63402 0.0349961 0.
0.63602 0.034996 0.
0.638021 0.0349958 0.
0.640022 0.0349962 0.
0.642023 0.0349969 0.
0.644024 0.0349977 0.
0.646026 0.034998 0.
0.648027 0.0349982 0.
0.650028 0.0349984 0.
0.652028 0.0349985 0.
0.654028 0.0349987 0.
0.656029 0.0349988 0.
0.65803 0.034999 0.
0.660031 0.0349992 0.
0.662032 0.0349993 0.
0.664033 0.0349993 0.
0.666033 0.0349993 0.
0.668034 0.0350003 0.
0.670034 0.0350017 0.
0.672034 0.0350032 0.
0.674036 0.0350027 0.
0.676037 0.0350021 0.
0.678039 0.0350017 0.
0.68004 0.0350023 0.
0.682041 0.035003 0.
0.684041 0.0350036 0.
0.686042 0.0350041 0.
0.688042 0.0350046 0.
0.690042 0.0350055 0.
0.692043 0.0350065 0.
0.694044 0.0350075 0.
0.696044 0.0350079 0.
0.698045 0.0350082 0.
0.499957 0.0370069 0.
0.501958 0.0370059 0.
0.503958 0.0370047 0.
0.505959 0.0370037 0.
0.507959 0.0370035 0.
0.50996 0.0370033 0.
0.511961 0.0370031 0.
0.513962 0.037003 0.
0.515962 0.0370029 0.
0.517963 0.0370024 0.
0.519963 0.0370016 0.
0.521964 0.0370008 0.
0.523965 0.0370007 0.
0.525966 0.0370007 0.
0.527968 0.0370007 0.
0.529968 0.0370001 0.
0.531969 0.0369996 0.
0.53397 0.0369992 0.
0.535971 0.0369993 0.
0.537972 0.0369994 0.
0.539973 0.036999 0.
0.541974 0.0369982 0.
0.543975 0.0369974 0.
0.545976 0.0369977 0.
0.547976 0.0369982 0.
0.549977 0.0369987 0.
0.551977 0.036998 0.
0.553978 0.0369974 0.
0.555978 0.0369967 0.
0.557979 0.0369961 0.
0.559979 0.0369955 0.
0.56198 0.0369954 0.
0.563981 0.036996 0.
0.565981 0.0369966 0.
0.567982 0.0369965 0.
0.569983 0.0369961 0.
0.571984 0.0369957 0.
0.573986 0.036996 0.
0.575987 0.0369963 0.
0.577988 0.0369965 0.
0.579989 0.036996 0.
0.581991 0.0369955 0.
0.583992 0.0369951 0.
0.585993 0.036995 0.
0.587994 0.0369948 0.
0.589995 0.0369947 0.
0.591996 0.0369945 0.
0.593997 0.0369943 0.
0.595998 0.0369945 0.
0.597999 0.0369948 0.
0.6 0.0369951 0.
0.602002 0.0369947 0.
0.604004 0.0369943 0.
0.606006 0.036994 0.
0.608007 0.0369941 0.
0.610007 0.0369942 0.
0.612008 0.0369943 0.
0.614009 0.0369942 0.
0.61601 0.0369942 0.
0.618011 0.0369938 0.
0.620013 0.0369934 0.
0.622014 0.0369929 0.
0.624015 0.0369936 0.
0.626016 0.0369945 0.
0.628017 0.0369952 0.
0.630017 0.0369953 0.
0.632018 0.0369953 0.
0.634019 0.0369952 0.
0.63602 0.0369949 0.
0.638021 0.0369946 0.
0.640022 0.0369949 0.
0.642023 0.0369954 0.
0.644024 0.036996 0.
0.646025 0.0369965 0.
0.648026 0.0369968 0.
0.650028 0.0369971 0.
0.652028 0.0369975 0.
0.654029 0.0369979 0.
0.656029 0.0369982 0.
0.65803 0.0369985 0.
0.660031 0.0369987 0.
0.662032 0.036999 0.
0.664032 0.0369992 0.
0.666033 0.0369994 0.
0.668033 0.0370003 0.
0.670034 0.0370017 0.
0.672034 0.037003 0.
0.674035 0.0370028 0.
0.676036 0.0370024 0.
0.678037 0.0370022 0.
0.680038 0.0370025 0.
0.682039 0.0370028 0.
0.68404 0.0370033 0.
0.686041 0.037004 0.
0.688041 0.0370046 0.
0.690041 0.0370054 0.
0.692042 0.0370062 0.
0.694043 0.0370071 0.
0.696043 0.0370077 0.
0.698044 0.0370083 0.
0.499957 0.0390071 0.
0.501958 0.0390059 0.
0.503959 0.0390046 0.
0.505959 0.0390036 0.
0.50796 0.0390035 0.
0.509961 0.0390033 0.
0.511962 0.0390031 0.
0.513963 0.0390028 0.
0.515964 0.0390025 0.
0.517964 0.0390019 0.
0.519965 0.0390011 0.
0.521965 0.0390003 0.
0.523966 0.0390001 0.
0.525967 0.039 0.
0.527968 0.0389998 0.
0.529969 0.0389995 0.
0.53197 0.0389991 0.
0.533971 0.0389989 0.
0.535972 0.038999 0.
0.537973 0.0389991 0.
0.539974 0.0389986 0.
0.541975 0.0389976 0.
0.543976 0.0389966 0.
0.545977 0.0389968 0.
0.547977 0.0389973 0.
0.549977 0.0389979 0.
0.551977 0.0389974 0.
0.553978 0.0389969 0.
0.555978 0.0389963 0.
0.557979 0.0389958 0.
0.55998 0.0389953 0.
0.56198 0.0389951 0.
0.563981 0.0389954 0.
0.565981 0.0389956 0.
0.567982 0.0389955 0.
0.569983 0.0389951 0.
0.571984 0.0389948 0.
0.573985 0.038995 0.
0.575986 0.0389952 0.
0.577988 0.0389953 0.
0.579989 0.0389947 0.
0.581991 0.0389941 0.
0.583992 0.0389937 0.
0.585993 0.0389936 0.
0.587994 0.0389934 0.
0.589995 0.0389932 0.
0.591996 0.0389931 0.
0.593997 0.0389929 0.
0.595998 0.0389931 0.
0.597999 0.0389934 0.
0.6 0.0389937 0.
0.602002 0.0389931 0.
0.604004 0.0389926 0.
0.606005 0.0389923 0.
0.608006 0.0389928 0.
0.610007 0.0389932 0.
0.612008 0.0389933 0.
0.614009 0.0389929 0.
0.61601 0.0389926 0.
0.618011 0.0389924 0.
0.620012 0.0389923 0.
0.622013 0.0389921 0.
0.624015 0.0389928 0.
0.626016 0.0389935 0.
0.628017 0.0389941 0.
0.630018 0.0389942 0.
0.632018 0.0389943 0.
0.634019 0.0389942 0.
0.63602 0.0389938 0.
0.638022 0.0389934 0.
0.640022 0.0389935 0.
0.642023 0.038994 0.
0.644024 0.0389944 0.
0.646025 0.0389949 0.
0.648026 0.0389954 0.
0.650027 0.0389959 0.
0.652028 0.0389965 0.
0.654029 0.038997 0.
0.65603 0.0389975 0.
0.658031 0.0389979 0.
0.660031 0.0389982 0.
0.662032 0.0389986 0.
0.664032 0.038999 0.
0.666033 0.0389995 0.
0.668033 0.0390004 0.
0.670034 0.0390016 0.
0.672034 0.0390028 0.
0.674035 0.0390028 0.
0.676035 0.0390027 0.
0.678036 0.0390027 0.
0.680037 0.0390027 0.
0.682038 0.0390027 0.
0.684039 0.039003 0.
0.686039 0.0390038 0.
0.68804 0.0390046 0.
0.69004 0.0390053 0.
0.692041 0.039006 0.
0.694042 0.0390067 0.
0.696042 0.0390075 0.
0.698042 0.0390084 0.
0.499958 0.0410071 0.
0.501958 0.0410058 0.
0.503959 0.0410047 0.
0.50596 0.0410038 0.
0.507961 0.0410035 0.
0.509962 0.0410033 0.
0.511963 0.041003 0.
0.513964 0.0410026 0.
0.515965 0.0410023 0.
0.517965 0.0410016 0.
0.519966 0.0410008 0.
0.521966 0.0409999 0.
0.523967 0.0409996 0.
0.525968 0.0409993 0.
0.527969 0.0409991 0.
0.52997 0.0409989 0.
0.531971 0.0409987 0.
0.533972 0.0409986 0.
0.535973 0.0409985 0.
0.537974 0.0409984 0.
0.539975 0.0409979 0.
0.541976 0.040997 0.
0.543977 0.040996 0.
0.545977 0.0409962 0.
0.547977 0.0409967 0.
0.549977 0.0409972 0.
0.551977 0.0409967 0.
0.553978 0.0409963 0.
0.555979 0.0409958 0.
0.55798 0.0409954 0.
0.55998 0.040995 0.
0.561981 0.0409947 0.
0.563981 0.0409946 0.
0.565982 0.0409945 0.
0.567982 0.0409944 0.
0.569983 0.0409942 0.
0.571984 0.040994 0.
0.573985 0.040994 0.
0.575986 0.040994 0.
0.577988 0.040994 0.
0.579989 0.0409936 0.
0.581991 0.0409931 0.
0.583992 0.0409927 0.
0.585993 0.0409925 0.
0.587994 0.0409922 0.
0.589995 0.040992 0.
0.591996 0.0409919 0.
0.593997 0.0409917 0.
0.595998 0.0409919 0.
0.597999 0.0409922 0.
0.6 0.0409924 0.
0.602002 0.0409919 0.
0.604004 0.0409914 0.
0.606005 0.0409911 0.
0.608006 0.0409915 0.
0.610007 0.040992 0.
0.612008 0.0409921 0.
0.614009 0.0409918 0.
0.616009 0.0409915 0.
0.618011 0.0409913 0.
0.620012 0.0409913 0.
0.622013 0.0409912 0.
0.624014 0.0409918 0.
0.626016 0.0409923 0.
0.628017 0.0409929 0.
0.630018 0.0409932 0.
0.632018 0.0409935 0.
0.634019 0.0409935 0.
0.63602 0.040993 0.
0.638022 0.0409925 0.
0.640022 0.0409926 0.
0.642023 0.0409931 0.
0.644024 0.0409935 0.
0.646024 0.040994 0.
0.648025 0.0409943 0.
0.650026 0.0409947 0.
0.652027 0.0409955 0.
0.654028 0.0409963 0.
0.656029 0.0409971 0.
0.65803 0.0409975 0.
0.66003 0.040998 0.
0.662031 0.0409984 0.
0.664031 0.0409989 0.
0.666032 0.0409993 0.
0.668033 0.0410002 0.
0.670033 0.0410013 0.
0.672034 0.0410024 0.
0.674034 0.0410025 0.
0.676035 0.0410026 0.
0.678035 0.0410026 0.
0.680036 0.0410026 0.
0.682037 0.0410026 0.
0.684038 0.0410028 0.
0.686039 0.0410037 0.
0.688039 0.0410045 0.
0.69004 0.0410052 0.
0.69204 0.0410059 0.
0.694041 0.0410066 0.
0.696041 0.0410077 0.
0.698042 0.0410088 0.
0.499959 0.0430069 0.
0.501959 0.0430059 0.
0.50396 0.043005 0.
0.505961 0.0430042 0.
0.507962 0.0430037 0.
0.509963 0.0430033 0.
0.511964 0.0430028 0.
0.513965 0.0430025 0.
0.515965 0.0430021 0.
0.517966 0.0430014 0.
0.519967 0.0430005 0.
0.521967 0.0429996 0.
0.523968 0.0429992 0.
0.525969 0.0429988 0.
0.52797 0.0429984 0.
0.529971 0.0429984 0.
0.531972 0.0429984 0.
0.533973 0.0429982 0.
0.535973 0.0429979 0.
0.537974 0.0429975 0.
0.539975 0.042997 0.
0.541976 0.0429964 0.
0.543977 0.0429958 0.
0.545977 0.0429959 0.
0.547977 0.0429963 0.
0.549977 0.0429966 0.
0.551978 0.0429961 0.
0.553979 0.0429956 0.
0.55598 0.0429952 0.
0.55798 0.0429949 0.
0.559981 0.0429945 0.
0.561981 0.0429942 0.
0.563982 0.0429938 0.
0.565982 0.0429934 0.
0.567983 0.0429933 0.
0.569984 0.0429933 0.
0.571985 0.0429932 0.
0.573986 0.0429931 0.
0.575987 0.0429929 0.
0.577988 0.0429927 0.
0.579989 0.0429925 0.
0.581991 0.0429924 0.
0.583992 0.0429921 0.
0.585993 0.0429917 0.
0.587994 0.0429913 0.
0.589995 0.042991 0.
0.591996 0.0429909 0.
0.593996 0.0429908 0.
0.595998 0.0429909 0.
0.597999 0.0429912 0.
0.6 0.0429914 0.
0.602002 0.042991 0.
0.604004 0.0429906 0.
0.606005 0.0429903 0.
0.608006 0.0429904 0.
0.610007 0.0429905 0.
0.612008 0.0429906 0.
0.614008 0.0429907 0.
0.616009 0.0429908 0.
0.61801 0.0429907 0.
0.620012 0.0429905 0.
0.622013 0.0429902 0.
0.624014 0.0429906 0.
0.626016 0.0429912 0.
0.628017 0.0429917 0.
0.630018 0.0429922 0.
0.632019 0.0429927 0.
0.63402 0.0429929 0.
0.636021 0.0429924 0.
0.638022 0.042992 0.
0.640022 0.0429921 0.
0.642023 0.0429928 0.
0.644023 0.0429934 0.
0.646024 0.0429935 0.
0.648025 0.0429936 0.
0.650026 0.0429936 0.
0.652026 0.0429947 0.
0.654027 0.0429958 0.
0.656027 0.0429967 0.
0.658028 0.0429973 0.
0.660028 0.0429979 0.
0.662029 0.0429983 0.
0.66403 0.0429986 0.
0.666031 0.0429989 0.
0.668032 0.0429997 0.
0.670033 0.0430007 0.
0.672033 0.0430018 0.
0.674034 0.0430019 0.
0.676034 0.043002 0.
0.678035 0.043002 0.
0.680036 0.0430022 0.
0.682036 0.0430024 0.
0.684037 0.0430028 0.
0.686038 0.0430036 0.
0.688039 0.0430043 0.
0.690039 0.0430051 0.
0.69204 0.0430061 0.
0.694041 0.043007 0.
0.696041 0.0430082 0.
0.698041 0.0430096 0.
0.49996 0.0450067 0.
0.50196 0.0450059 0.
0.503961 0.0450052 0.
0.505962 0.0450046 0.
0.507963 0.0450039 0.
0.509964 0.0450032 0.
0.511965 0.0450027 0.
0.513965 0.0450023 0.
0.515966 0.0450019 0.
0.517967 0.0450012 0.
0.519968 0.0450002 0.
0.521969 0.0449992 0.
0.52397 0.0449987 0.
0.52597 0.0449982 0.
0.527971 0.0449977 0.
0.529972 0.0449979 0.
0.531973 0.044998 0.
0.533973 0.0449979 0.
0.535974 0.0449972 0.
0.537975 0.0449966 0.
0.539975 0.0449962 0.
0.541976 0.0449959 0.
0.543977 0.0449956 0.
0.545977 0.0449957 0.
0.547977 0.0449959 0.
0.549977 0.044996 0.
0.551978 0.0449955 0.
0.553979 0.044995 0.
0.555981 0.0449945 0.
0.557981 0.0449943 0.
0.559981 0.0449941 0.
0.561982 0.0449937 0.
0.563982 0.044993 0.
0.565983 0.0449923 0.
0.567984 0.0449922 0.
0.569985 0.0449924 0.
0.571985 0.0449925 0.
0.573986 0.0449921 0.
0.575987 0.0449917 0.
0.577989 0.0449913 0.
0.57999 0.0449915 0.
0.581991 0.0449916 0.
0.583992 0.0449915 0.
0.585993 0.0449909 0.
0.587995 0.0449904 0.
0.589996 0.04499 0.
0.591996 0.0449899 0.
0.593996 0.0449898 0.
0.595998 0.04499 0.
0.597999 0.0449902 0.
0.6 0.0449904 0.
0.602002 0.0449901 0.
0.604004 0.0449898 0.
0.606006 0.0449895 0.
0.608006 0.0449893 0.
0.610007 0.0449891 0.
0.612008 0.0449892 0.
0.614008 0.0449897 0.
0.616009 0.0449902 0.
0.61801 0.0449901 0.
0.620012 0.0449896 0.
0.622013 0.0449892 0.
0.624014 0.0449895 0.
0.626015 0.04499 0.
0.628016 0.0449905 0.
0.630018 0.0449912 0.
0.632019 0.044992 0.
0.63402 0.0449923 0.
0.636021 0.0449919 0.
0.638022 0.0449914 0.
0.640022 0.0449917 0.
0.642022 0.0449925 0.
0.644023 0.0449932 0.
0.646023 0.0449931 0.
0.648024 0.0449928 0.
0.650025 0.0449924 0.
0.652025 0.0449938 0.
0.654025 0.0449952 0.
0.656025 0.0449964 0.
0.658025 0.0449971 0.
0.660026 0.0449979 0.
0.662027 0.0449983 0.
0.664028 0.0449984 0.
0.66603 0.0449984 0.
0.668031 0.0449992 0.
0.670032 0.0450002 0.
0.672033 0.0450012 0.
0.674033 0.0450013 0.
0.676034 0.0450013 0.
0.678035 0.0450014 0.
0.680035 0.0450018 0.
0.682036 0.0450023 0.
0.684036 0.0450028 0.
0.686037 0.0450034 0.
0.688038 0.0450041 0.
0.690039 0.045005 0.
0.692039 0.0450062 0.
0.69404 0.0450074 0.
0.69604 0.0450088 0.
0.698041 0.0450103 0.
0.499961 0.0470063 0.
0.501961 0.0470059 0.
0.503962 0.0470054 0.
0.505963 0.0470049 0.
0.507964 0.0470041 0.
0.509965 0.0470033 0.
0.511965 0.0470027 0.
0.513966 0.0470022 0.
0.515966 0.0470017 0.
0.517967 0.0470009 0.
0.519968 0.0469998 0.
0.52197 0.0469988 0.
0.52397 0.0469984 0.
0.525971 0.046998 0.
0.527971 0.0469977 0.
0.529972 0.0469978 0.
0.531973 0.046998 0.
0.533974 0.0469978 0.
0.535974 0.046997 0.
0.537975 0.0469963 0.
0.539976 0.0469958 0.
0.541976 0.0469955 0.
0.543977 0.0469952 0.
0.545977 0.0469952 0.
0.547977 0.0469953 0.
0.549978 0.0469953 0.
0.551978 0.0469949 0.
0.553979 0.0469944 0.
0.55598 0.0469939 0.
0.557981 0.0469936 0.
0.559982 0.0469932 0.
0.561982 0.0469928 0.
0.563983 0.0469923 0.
0.565984 0.0469918 0.
0.567984 0.0469914 0.
0.569985 0.0469911 0.
0.571986 0.0469907 0.
0.573987 0.0469906 0.
0.575988 0.0469905 0.
0.577989 0.0469904 0.
0.57999 0.0469903 0.
0.581991 0.0469901 0.
0.583992 0.0469899 0.
0.585993 0.0469898 0.
0.587995 0.0469896 0.
0.589996 0.0469893 0.
0.591996 0.046989 0.
0.593997 0.0469888 0.
0.595998 0.0469888 0.
0.598 0.0469888 0.
0.600001 0.0469889 0.
0.602002 0.0469886 0.
0.604004 0.0469882 0.
0.606006 0.046988 0.
0.608006 0.046988 0.
0.610007 0.0469881 0.
0.612008 0.0469882 0.
0.614008 0.0469885 0.
0.616009 0.0469889 0.
0.61801 0.0469889 0.
0.620012 0.0469888 0.
0.622013 0.0469887 0.
0.624014 0.0469888 0.
0.626015 0.0469889 0.
0.628016 0.0469892 0.
0.630017 0.0469899 0.
0.632018 0.0469907 0.
0.634019 0.0469912 0.
0.63602 0.0469911 0.
0.638021 0.0469911 0.
0.640022 0.0469913 0.
0.642022 0.0469918 0.
0.644023 0.0469922 0.
0.646024 0.0469923 0.
0.648024 0.0469923 0.
0.650025 0.0469923 0.
0.652025 0.0469935 0.
0.654025 0.0469947 0.
0.656025 0.0469958 0.
0.658026 0.0469966 0.
0.660026 0.0469973 0.
0.662027 0.0469977 0.
0.664028 0.0469979 0.
0.666029 0.046998 0.
0.66803 0.0469986 0.
0.670031 0.0469995 0.
0.672032 0.0470003 0.
0.674033 0.0470007 0.
0.676033 0.047001 0.
0.678034 0.0470014 0.
0.680034 0.0470018 0.
0.682035 0.0470023 0.
0.684035 0.0470028 0.
0.686036 0.0470035 0.
0.688037 0.0470042 0.
0.690037 0.0470053 0.
0.692038 0.0470066 0.
0.694038 0.0470079 0.
0.696039 0.0470091 0.
0.698039 0.0470104 0.
0.499961 0.049006 0.
0.501962 0.0490059 0.
0.503963 0.0490056 0.
0.505964 0.0490052 0.
0.507964 0.0490043 0.
0.509965 0.0490034 0.
0.511966 0.0490027 0.
0.513966 0.0490021 0.
0.515967 0.0490015 0.
0.517968 0.0490006 0.
0.519969 0.0489994 0.
0.52197 0.0489983 0.
0.523971 0.048998 0.
0.525971 0.0489978 0.
0.527971 0.0489977 0.
0.529972 0.0489978 0.
0.531973 0.0489979 0.
0.533974 0.0489977 0.
0.535975 0.0489968 0.
0.537976 0.0489959 0.
0.539976 0.0489954 0.
0.541976 0.0489951 0.
0.543977 0.0489948 0.
0.545977 0.0489947 0.
0.547978 0.0489947 0.
0.549978 0.0489946 0.
0.551979 0.0489942 0.
0.553979 0.0489937 0.
0.55598 0.0489933 0.
0.557981 0.0489928 0.
0.559982 0.0489924 0.
0.561983 0.048992 0.
0.563984 0.0489916 0.
0.565985 0.0489913 0.
0.567985 0.0489906 0.
0.569986 0.0489898 0.
0.571986 0.048989 0.
0.573988 0.0489891 0.
0.575989 0.0489893 0.
0.57799 0.0489895 0.
0.57999 0.048989 0.
0.581991 0.0489886 0.
0.583992 0.0489883 0.
0.585993 0.0489886 0.
0.587994 0.0489888 0.
0.589996 0.0489886 0.
0.591997 0.0489881 0.
0.593998 0.0489877 0.
0.595999 0.0489875 0.
0.598 0.0489875 0.
0.600001 0.0489874 0.
0.602003 0.0489871 0.
0.604004 0.0489867 0.
0.606005 0.0489864 0.
0.608006 0.0489867 0.
0.610007 0.048987 0.
0.612008 0.0489873 0.
0.614009 0.0489874 0.
0.616009 0.0489876 0.
0.61801 0.0489878 0.
0.620012 0.048988 0.
0.622013 0.0489882 0.
0.624014 0.0489881 0.
0.626015 0.0489879 0.
0.628015 0.0489878 0.
0.630016 0.0489886 0.
0.632017 0.0489894 0.
0.634018 0.0489901 0.
0.636019 0.0489904 0.
0.63802 0.0489907 0.
0.640021 0.048991 0.
0.642022 0.0489911 0.
0.644023 0.0489912 0.
0.646024 0.0489915 0.
0.648024 0.0489919 0.
0.650025 0.0489922 0.
0.652025 0.0489933 0.
0.654025 0.0489943 0.
0.656026 0.0489952 0.
0.658026 0.048996 0.
0.660027 0.0489967 0.
0.662028 0.0489972 0.
0.664028 0.0489974 0.
0.666029 0.0489976 0.
0.66803 0.0489981 0.
0.670031 0.0489987 0.
0.672032 0.0489993 0.
0.674032 0.049 0.
0.676033 0.0490008 0.
0.678033 0.0490014 0.
0.680034 0.0490018 0.
0.682034 0.0490022 0.
0.684034 0.0490028 0.
0.686035 0.0490036 0.
0.688035 0.0490044 0.
0.690036 0.0490056 0.
0.692036 0.049007 0.
0.694036 0.0490084 0.
0.696037 0.0490095 0.
0.698038 0.0490105 0.
0.499963 0.051006 0.
0.501963 0.0510059 0.
0.503964 0.0510057 0.
0.505965 0.0510054 0.
0.507965 0.0510045 0.
0.509966 0.0510035 0.
0.511967 0.0510026 0.
0.513967 0.0510019 0.
0.515968 0.0510012 0.
0.517969 0.0510002 0.
0.51997 0.0509992 0.
0.521971 0.0509982 0.
0.523971 0.0509978 0.
0.525972 0.0509976 0.
0.527972 0.0509974 0.
0.529973 0.0509976 0.
0.531974 0.0509977 0.
0.533975 0.0509975 0.
0.535975 0.0509966 0.
0.537976 0.0509956 0.
0.539977 0.050995 0.
0.541977 0.0509947 0.
0.543977 0.0509944 0.
0.545978 0.0509943 0.
0.547979 0.0509941 0.
0.549979 0.050994 0.
0.551979 0.0509936 0.
0.55398 0.0509932 0.
0.55598 0.0509927 0.
0.557981 0.0509922 0.
0.559983 0.0509916 0.
0.561984 0.0509912 0.
0.563984 0.0509909 0.
0.565985 0.0509906 0.
0.567986 0.0509899 0.
0.569987 0.0509889 0.
0.571987 0.0509879 0.
0.573988 0.0509881 0.
0.575989 0.0509884 0.
0.57799 0.0509886 0.
0.579991 0.050988 0.
0.581992 0.0509875 0.
0.583993 0.0509872 0.
0.585994 0.0509875 0.
0.587995 0.0509878 0.
0.589996 0.0509877 0.
0.591997 0.0509872 0.
0.593998 0.0509867 0.
0.595999 0.0509865 0.
0.598 0.0509864 0.
0.600001 0.0509862 0.
0.602003 0.0509859 0.
0.604004 0.0509855 0.
0.606005 0.0509853 0.
0.608006 0.0509857 0.
0.610007 0.0509862 0.
0.612008 0.0509865 0.
0.614009 0.0509865 0.
0.616009 0.0509865 0.
0.61801 0.0509867 0.
0.620012 0.0509869 0.
0.622013 0.0509872 0.
0.624014 0.0509871 0.
0.626014 0.0509869 0.
0.628015 0.0509869 0.
0.630016 0.0509876 0.
0.632017 0.0509883 0.
0.634017 0.050989 0.
0.636018 0.0509896 0.
0.638019 0.0509902 0.
0.64002 0.0509905 0.
0.642022 0.0509905 0.
0.644023 0.0509905 0.
0.646023 0.050991 0.
0.648024 0.0509916 0.
0.650024 0.0509922 0.
0.652024 0.050993 0.
0.654025 0.0509938 0.
0.656025 0.0509946 0.
0.658026 0.0509954 0.
0.660027 0.0509962 0.
0.662027 0.0509967 0.
0.664028 0.050997 0.
0.666028 0.0509972 0.
0.668029 0.0509977 0.
0.67003 0.0509983 0.
0.672031 0.0509988 0.
0.674032 0.0509996 0.
0.676032 0.0510004 0.
0.678032 0.0510012 0.
0.680033 0.0510017 0.
0.682033 0.0510023 0.
0.684034 0.051003 0.
0.686034 0.0510039 0.
0.688034 0.0510048 0.
0.690035 0.0510059 0.
0.692035 0.0510071 0.
0.694035 0.0510084 0.
0.696036 0.0510094 0.
0.698036 0.0510103 0.
0.499965 0.0530062 0.
0.501965 0.053006 0.
0.503965 0.0530059 0.
0.505966 0.0530056 0.
0.507967 0.0530046 0.
0.509967 0.0530036 0.
0.511968 0.0530026 0.
0.513969 0.0530017 0.
0.51597 0.0530007 0.
0.51797 0.0529999 0.
0.519971 0.0529991 0.
0.521972 0.0529983 0.
0.523972 0.0529978 0.
0.525973 0.0529974 0.
0.527974 0.052997 0.
0.529974 0.0529971 0.
0.531975 0.0529973 0.
0.533975 0.0529971 0.
0.535976 0.0529962 0.
0.537976 0.0529954 0.
0.539977 0.0529948 0.
0.541978 0.0529944 0.
0.543979 0.052994 0.
0.545979 0.0529938 0.
0.547979 0.0529937 0.
0.54998 0.0529935 0.
0.551981 0.0529931 0.
0.553981 0.0529928 0.
0.555982 0.0529923 0.
0.557983 0.0529916 0.
0.559984 0.0529909 0.
0.561984 0.0529904 0.
0.563985 0.0529901 0.
0.565985 0.0529898 0.
0.567986 0.0529892 0.
0.569987 0.0529884 0.
0.571988 0.0529876 0.
0.573989 0.0529876 0.
0.57599 0.0529876 0.
0.577991 0.0529876 0.
0.579991 0.0529872 0.
0.581992 0.0529868 0.
0.583993 0.0529865 0.
0.585994 0.0529866 0.
0.587995 0.0529867 0.
0.589996 0.0529866 0.
0.591997 0.0529862 0.
0.593998 0.0529859 0.
0.595999 0.0529857 0.
0.598 0.0529855 0.
0.600001 0.0529853 0.
0.602003 0.052985 0.
0.604004 0.0529846 0.
0.606005 0.0529844 0.
0.608006 0.052985 0.
0.610007 0.0529855 0.
0.612007 0.0529858 0.
0.614008 0.0529858 0.
0.616009 0.0529857 0.
0.61801 0.0529857 0.
0.620011 0.0529857 0.
0.622012 0.0529856 0.
0.624013 0.0529859 0.
0.626014 0.0529861 0.
0.628015 0.0529864 0.
0.630016 0.0529869 0.
0.632016 0.0529873 0.
0.634017 0.0529879 0.
0.636018 0.0529887 0.
0.638019 0.0529895 0.
0.64002 0.05299 0.
0.642021 0.0529901 0.
0.644021 0.0529902 0.
0.646022 0.0529908 0.
0.648022 0.0529916 0.
0.650023 0.0529923 0.
0.652023 0.0529928 0.
0.654024 0.0529933 0.
0.656024 0.0529939 0.
0.658025 0.0529948 0.
0.660026 0.0529957 0.
0.662027 0.0529963 0.
0.664028 0.0529967 0.
0.666028 0.052997 0.
0.668029 0.0529975 0.
0.670029 0.0529982 0.
0.67203 0.0529989 0.
0.67403 0.0529995 0.
0.676031 0.053 0.
0.678031 0.0530006 0.
0.680032 0.0530016 0.
0.682032 0.0530026 0.
0.684033 0.0530036 0.
0.686033 0.0530045 0.
0.688033 0.0530053 0.
0.690033 0.0530062 0.
0.692034 0.053007 0.
0.694034 0.0530079 0.
0.696035 0.0530088 0.
0.698035 0.0530098 0.
0.499967 0.0550062 0.
0.501967 0.0550061 0.
0.503967 0.055006 0.
0.505967 0.0550057 0.
0.507968 0.0550047 0.
0.509969 0.0550037 0.
0.51197 0.0550026 0.
0.513971 0.0550014 0.
0.515971 0.0550003 0.
0.517972 0.0549995 0.
0.519972 0.054999 0.
0.521972 0.0549985 0.
0.523973 0.0549978 0.
0.525974 0.0549971 0.
0.527975 0.0549965 0.
0.529975 0.0549967 0.
0.531976 0.0549969 0.
0.533976 0.0549967 0.
0.535977 0.0549959 0.
0.537977 0.0549952 0.
0.539978 0.0549945 0.
0.541979 0.054994 0.
0.54398 0.0549935 0.
0.54598 0.0549933 0.
0.54798 0.0549932 0.
0.54998 0.0549931 0.
0.551982 0.0549927 0.
0.553983 0.0549923 0.
0.555984 0.0549918 0.
0.557984 0.054991 0.
0.559985 0.0549902 0.
0.561985 0.0549896 0.
0.563985 0.0549893 0.
0.565986 0.054989 0.
0.567987 0.0549885 0.
0.569988 0.0549879 0.
0.571989 0.0549873 0.
0.57399 0.0549871 0.
0.57599 0.0549869 0.
0.577991 0.0549867 0.
0.579992 0.0549864 0.
0.581993 0.0549861 0.
0.583994 0.0549858 0.
0.585995 0.0549857 0.
0.587996 0.0549856 0.
0.589997 0.0549855 0.
0.591997 0.0549852 0.
0.593998 0.054985 0.
0.595999 0.0549848 0.
0.598 0.0549846 0.
0.600001 0.0549844 0.
0.602003 0.0549841 0.
0.604004 0.0549837 0.
0.606005 0.0549836 0.
0.608006 0.0549842 0.
0.610006 0.0549849 0.
0.612007 0.0549852 0.
0.614008 0.0549851 0.
0.616009 0.054985 0.
0.61801 0.0549847 0.
0.620011 0.0549844 0.
0.622011 0.0549841 0.
0.624012 0.0549846 0.
0.626013 0.0549853 0.
0.628015 0.0549859 0.
0.630015 0.0549861 0.
0.632016 0.0549864 0.
0.634016 0.0549868 0.
0.636017 0.0549878 0.
0.638018 0.0549888 0.
0.640019 0.0549894 0.
0.642019 0.0549896 0.
0.64402 0.0549899 0.
0.64602 0.0549906 0.
0.648021 0.0549915 0.
0.650021 0.0549924 0.
0.652022 0.0549926 0.
0.654022 0.0549928 0.
0.656023 0.0549931 0.
0.658024 0.0549942 0.
0.660025 0.0549952 0.
0.662026 0.0549959 0.
0.664027 0.0549963 0.
0.666028 0.0549967 0.
0.668028 0.0549974 0.
0.670028 0.0549981 0.
0.672028 0.0549989 0.
0.674029 0.0549993 0.
0.676029 0.0549996 0.
0.67803 0.055 0.
0.680031 0.0550015 0.
0.682032 0.0550029 0.
0.684032 0.0550042 0.
0.686032 0.055005 0.
0.688032 0.0550059 0.
0.690032 0.0550065 0.
0.692032 0.0550069 0.
0.694033 0.0550074 0.
0.696033 0.0550083 0.
0.698034 0.0550094 0.
0.499967 0.0570066 0.
0.501967 0.0570064 0.
0.503967 0.057006 0.
0.505967 0.0570055 0.
0.507969 0.0570046 0.
0.50997 0.0570036 0.
0.511971 0.0570026 0.
0.513971 0.0570016 0.
0.515972 0.0570006 0.
0.517972 0.0569999 0.
0.519973 0.0569994 0.
0.521973 0.0569989 0.
0.523974 0.056998 0.
0.525975 0.056997 0.
0.527975 0.0569961 0.
0.529976 0.0569963 0.
0.531976 0.0569964 0.
0.533976 0.0569962 0.
0.535977 0.0569953 0.
0.537977 0.0569944 0.
0.539978 0.0569938 0.
0.541979 0.0569936 0.
0.54398 0.0569933 0.
0.54598 0.0569929 0.
0.547981 0.0569925 0.
0.549981 0.0569921 0.
0.551982 0.0569916 0.
0.553983 0.0569911 0.
0.555984 0.0569906 0.
0.557985 0.0569901 0.
0.559985 0.0569897 0.
0.561985 0.0569892 0.
0.563986 0.0569886 0.
0.565986 0.0569879 0.
0.567986 0.0569874 0.
0.569987 0.0569869 0.
0.571988 0.0569863 0.
0.573989 0.0569861 0.
0.57599 0.056986 0.
0.577991 0.0569858 0.
0.579992 0.0569855 0.
0.581993 0.0569852 0.
0.583994 0.0569849 0.
0.585995 0.0569846 0.
0.587996 0.0569843 0.
0.589996 0.0569841 0.
0.591997 0.0569841 0.
0.593998 0.0569841 0.
0.595999 0.0569839 0.
0.598 0.0569837 0.
0.600001 0.0569834 0.
0.602002 0.0569832 0.
0.604003 0.0569831 0.
0.606004 0.056983 0.
0.608005 0.0569834 0.
0.610006 0.0569839 0.
0.612007 0.0569841 0.
0.614008 0.0569842 0.
0.616009 0.0569843 0.
0.61801 0.0569841 0.
0.62001 0.0569838 0.
0.622011 0.0569835 0.
0.624012 0.0569841 0.
0.626013 0.0569848 0.
0.628014 0.0569855 0.
0.630014 0.0569855 0.
0.632015 0.0569855 0.
0.634016 0.0569859 0.
0.636017 0.0569868 0.
0.638017 0.0569878 0.
0.640018 0.0569884 0.
0.642019 0.0569888 0.
0.64402 0.0569892 0.
0.64602 0.05699 0.
0.648021 0.0569908 0.
0.650022 0.0569917 0.
0.652022 0.0569919 0.
0.654022 0.056992 0.
0.656023 0.0569924 0.
0.658024 0.0569935 0.
0.660024 0.0569946 0.
0.662025 0.0569954 0.
0.664026 0.056996 0.
0.666026 0.0569965 0.
0.668027 0.0569971 0.
0.670027 0.0569977 0.
0.672027 0.0569983 0.
0.674028 0.0569988 0.
0.676028 0.0569992 0.
0.678028 0.0569998 0.
0.680029 0.0570014 0.
0.68203 0.0570029 0.
0.684031 0.0570042 0.
0.686031 0.0570048 0.
0.688031 0.0570053 0.
0.690032 0.0570061 0.
0.692032 0.057007 0.
0.694032 0.0570078 0.
0.696033 0.0570088 0.
0.698034 0.0570098 0.
0.499968 0.0590069 0.
0.501968 0.0590066 0.
0.503968 0.059006 0.
0.505968 0.0590054 0.
0.50797 0.0590044 0.
0.509971 0.0590035 0.
0.511972 0.0590026 0.
0.513972 0.0590017 0.
0.515973 0.0590009 0.
0.517973 0.0590003 0.
0.519974 0.0589997 0.
0.521974 0.0589992 0.
0.523975 0.0589981 0.
0.525975 0.0589968 0.
0.527976 0.0589957 0.
0.529976 0.0589958 0.
0.531976 0.0589959 0.
0.533977 0.0589957 0.
0.535977 0.0589947 0.
0.537977 0.0589936 0.
0.539978 0.0589931 0.
0.541979 0.0589931 0.
0.54398 0.0589931 0.
0.545981 0.0589925 0.
0.547981 0.0589918 0.
0.549982 0.0589911 0.
0.551983 0.0589905 0.
0.553984 0.0589898 0.
0.555984 0.0589893 0.
0.557985 0.0589892 0.
0.559985 0.0589892 0.
0.561986 0.0589887 0.
0.563986 0.0589878 0.
0.565986 0.0589869 0.
0.567986 0.0589863 0.
0.569987 0.0589858 0.
0.571988 0.0589854 0.
0.573989 0.0589852 0.
0.57599 0.058985 0.
0.577991 0.0589849 0.
0.579992 0.0589846 0.
0.581994 0.0589844 0.
0.583995 0.0589841 0.
0.585995 0.0589835 0.
0.587995 0.0589829 0.
0.589996 0.0589828 0.
0.591997 0.058983 0.
0.593998 0.0589832 0.
0.595999 0.058983 0.
0.598 0.0589827 0.
0.600001 0.0589824 0.
0.602002 0.0589824 0.
0.604002 0.0589824 0.
0.606003 0.0589825 0.
0.608005 0.0589827 0.
0.610006 0.0589828 0.
0.612007 0.058983 0.
0.614008 0.0589833 0.
0.616009 0.0589836 0.
0.618009 0.0589835 0.
0.62001 0.0589832 0.
0.622011 0.058983 0.
0.624012 0.0589836 0.
0.626012 0.0589844 0.
0.628013 0.058985 0.
0.630014 0.0589849 0.
0.632014 0.0589847 0.
0.634015 0.0589849 0.
0.636016 0.0589858 0.
0.638016 0.0589868 0.
0.640017 0.0589874 0.
0.642018 0.058988 0.
0.64402 0.0589885 0.
0.64602 0.0589893 0.
0.648021 0.0589902 0.
0.650022 0.0589911 0.
0.652022 0.0589912 0.
0.654022 0.0589913 0.
0.656022 0.0589916 0.
0.658023 0.0589928 0.
0.660024 0.058994 0.
0.662024 0.0589949 0.
0.664025 0.0589956 0.
0.666025 0.0589962 0.
0.668025 0.0589968 0.
0.670026 0.0589972 0.
0.672026 0.0589977 0.
0.674026 0.0589983 0.
0.676026 0.0589989 0.
0.678027 0.0589996 0.
0.680028 0.0590013 0.
0.682028 0.0590029 0.
0.684029 0.0590041 0.
0.68603 0.0590045 0.
0.688031 0.0590048 0.
0.690031 0.0590057 0.
0.692032 0.059007 0.
0.694032 0.0590083 0.
0.696033 0.0590093 0.
0.698034 0.0590102 0.
0.499968 0.0610077 0.
0.501969 0.0610069 0.
0.503969 0.0610061 0.
0.505969 0.0610052 0.
0.50797 0.0610042 0.
0.509972 0.0610032 0.
0.511972 0.0610024 0.
0.513973 0.0610018 0.
0.515973 0.0610012 0.
0.517974 0.0610005 0.
0.519975 0.0609998 0.
0.521975 0.0609991 0.
0.523976 0.0609979 0.
0.525976 0.0609967 0.
0.527977 0.0609956 0.
0.529977 0.0609956 0.
0.531977 0.0609957 0.
0.533978 0.0609954 0.
0.535978 0.0609943 0.
0.537978 0.0609933 0.
0.539979 0.0609929 0.
0.54198 0.0609929 0.
0.54398 0.060993 0.
0.545981 0.0609922 0.
0.547982 0.0609912 0.
0.549982 0.0609902 0.
0.551983 0.0609896 0.
0.553984 0.060989 0.
0.555985 0.0609885 0.
0.557985 0.0609885 0.
0.559986 0.0609886 0.
0.561986 0.0609882 0.
0.563986 0.0609872 0.
0.565986 0.0609862 0.
0.567987 0.0609855 0.
0.569988 0.0609851 0.
0.571988 0.0609847 0.
0.573989 0.0609844 0.
0.57599 0.0609841 0.
0.577991 0.0609838 0.
0.579992 0.0609837 0.
0.581994 0.0609837 0.
0.583995 0.0609834 0.
0.585995 0.0609827 0.
0.587995 0.0609819 0.
0.589996 0.0609818 0.
0.591997 0.060982 0.
0.593998 0.0609823 0.
0.595999 0.0609822 0.
0.598 0.0609819 0.
0.600001 0.0609817 0.
0.602001 0.0609816 0.
0.604002 0.0609816 0.
0.606003 0.0609815 0.
0.608004 0.0609817 0.
0.610006 0.0609818 0.
0.612007 0.0609821 0.
0.614007 0.0609824 0.
0.616008 0.0609828 0.
0.618009 0.0609828 0.
0.620009 0.0609827 0.
0.62201 0.0609825 0.
0.624011 0.060983 0.
0.626012 0.0609836 0.
0.628013 0.060984 0.
0.630013 0.060984 0.
0.632014 0.060984 0.
0.634015 0.0609843 0.
0.636015 0.0609851 0.
0.638016 0.0609858 0.
0.640017 0.0609865 0.
0.642018 0.060987 0.
0.644019 0.0609875 0.
0.64602 0.0609885 0.
0.64802 0.0609897 0.
0.650021 0.0609908 0.
0.652021 0.0609907 0.
0.654021 0.0609907 0.
0.656021 0.0609909 0.
0.658022 0.0609923 0.
0.660022 0.0609936 0.
0.662023 0.0609946 0.
0.664023 0.0609952 0.
0.666024 0.0609958 0.
0.668024 0.0609964 0.
0.670025 0.0609969 0.
0.672025 0.0609974 0.
0.674025 0.0609981 0.
0.676025 0.0609988 0.
0.678026 0.0609996 0.
0.680026 0.0610011 0.
0.682027 0.0610027 0.
0.684028 0.0610038 0.
0.686029 0.0610041 0.
0.68803 0.0610044 0.
0.69003 0.0610054 0.
0.692031 0.0610068 0.
0.694031 0.0610082 0.
0.696032 0.0610093 0.
0.698033 0.0610103 0.
0.499969 0.0630086 0.
0.50197 0.0630073 0.
0.50397 0.0630062 0.
0.505971 0.0630052 0.
0.507972 0.063004 0.
0.509972 0.0630029 0.
0.511973 0.0630021 0.
0.513973 0.0630017 0.
0.515974 0.0630014 0.
0.517975 0.0630006 0.
0.519975 0.0629996 0.
0.521976 0.0629986 0.
0.523977 0.0629976 0.
0.525977 0.0629965 0.
0.527978 0.0629956 0.
0.529978 0.0629956 0.
0.531979 0.0629956 0.
0.533979 0.0629953 0.
0.535979 0.0629943 0.
0.537979 0.0629934 0.
0.53998 0.062993 0.
0.54198 0.0629931 0.
0.543981 0.0629931 0.
0.545982 0.0629921 0.
0.547982 0.0629907 0.
0.549983 0.0629893 0.
0.551983 0.0629889 0.
0.553984 0.0629885 0.
0.555985 0.0629881 0.
0.557986 0.0629881 0.
0.559986 0.062988 0.
0.561987 0.0629876 0.
0.563987 0.0629867 0.
0.565987 0.0629859 0.
0.567988 0.0629852 0.
0.569989 0.0629847 0.
0.57199 0.0629842 0.
0.57399 0.0629836 0.
0.575991 0.062983 0.
0.577992 0.0629825 0.
0.579993 0.0629828 0.
0.581994 0.062983 0.
0.583995 0.0629829 0.
0.585995 0.0629822 0.
0.587996 0.0629814 0.
0.589997 0.0629811 0.
0.591998 0.0629812 0.
0.593998 0.0629814 0.
0.595999 0.0629814 0.
0.598 0.0629813 0.
0.600001 0.0629813 0.
0.602002 0.0629809 0.
0.604002 0.0629805 0.
0.606003 0.0629803 0.
0.608004 0.0629806 0.
0.610005 0.0629809 0.
0.612006 0.0629812 0.
0.614006 0.0629815 0.
0.616007 0.0629819 0.
0.618008 0.062982 0.
0.620009 0.0629822 0.
0.622009 0.0629823 0.
0.62401 0.0629823 0.
0.626012 0.0629823 0.
0.628013 0.0629824 0.
0.630013 0.062983 0.
0.632014 0.0629836 0.
0.634015 0.0629841 0.
0.636015 0.0629846 0.
0.638016 0.0629851 0.
0.640017 0.0629855 0.
0.642017 0.062986 0.
0.644018 0.0629864 0.
0.646019 0.0629878 0.
0.648019 0.0629894 0.
0.650019 0.0629909 0.
0.65202 0.0629905 0.
0.65402 0.0629902 0.
0.65602 0.0629902 0.
0.658021 0.0629918 0.
0.660021 0.0629934 0.
0.662022 0.0629944 0.
0.664022 0.0629949 0.
0.666023 0.0629954 0.
0.668023 0.062996 0.
0.670024 0.0629967 0.
0.672024 0.0629973 0.
0.674025 0.0629981 0.
0.676025 0.062999 0.
0.678025 0.0629998 0.
0.680026 0.063001 0.
0.682026 0.0630021 0.
0.684027 0.063003 0.
0.686027 0.0630036 0.
0.688028 0.0630043 0.
0.690029 0.0630052 0.
0.692029 0.0630065 0.
0.69403 0.0630077 0.
0.696031 0.0630088 0.
0.698031 0.0630099 0.
0.499969 0.0650091 0.
0.501971 0.0650076 0.
0.503972 0.0650063 0.
0.505973 0.0650051 0.
0.507973 0.0650038 0.
0.509973 0.0650025 0.
0.511973 0.0650017 0.
0.513974 0.0650017 0.
0.515975 0.0650016 0.
0.517975 0.0650008 0.
0.519976 0.0649995 0.
0.521977 0.0649981 0.
0.523977 0.0649972 0.
0.525978 0.0649964 0.
0.527979 0.0649956 0.
0.529979 0.0649956 0.
0.53198 0.0649955 0.
0.533981 0.0649952 0.
0.53598 0.0649943 0.
0.53798 0.0649935 0.
0.539981 0.0649932 0.
0.541981 0.0649932 0.
0.543982 0.0649932 0.
0.545982 0.0649919 0.
0.547983 0.0649901 0.
0.549983 0.0649884 0.
0.551984 0.0649882 0.
0.553984 0.064988 0.
0.555985 0.0649878 0.
0.557986 0.0649876 0.
0.559987 0.0649874 0.
0.561988 0.064987 0.
0.563988 0.0649862 0.
0.565988 0.0649855 0.
0.567989 0.0649849 0.
0.56999 0.0649843 0.
0.571991 0.0649836 0.
0.573991 0.0649828 0.
0.575992 0.064982 0.
0.577992 0.0649813 0.
0.579993 0.0649818 0.
0.581994 0.0649824 0.
0.583994 0.0649825 0.
0.585996 0.0649817 0.
0.587997 0.0649809 0.
0.589998 0.0649805 0.
0.591998 0.0649805 0.
0.593999 0.0649804 0.
0.595999 0.0649806 0.
0.598 0.0649808 0.
0.600001 0.0649809 0.
0.602002 0.0649802 0.
0.604003 0.0649795 0.
0.606004 0.064979 0.
0.608004 0.0649795 0.
0.610004 0.0649799 0.
0.612005 0.0649803 0.
0.614005 0.0649807 0.
0.616006 0.064981 0.
0.618007 0.0649813 0.
0.620008 0.0649816 0.
0.622009 0.064982 0.
0.62401 0.0649816 0.
0.626011 0.0649811 0.
0.628013 0.0649808 0.
0.630013 0.064982 0.
0.632014 0.0649831 0.
0.634015 0.0649839 0.
0.636015 0.0649841 0.
0.638016 0.0649843 0.
0.640017 0.0649846 0.
0.642017 0.0649849 0.
0.644017 0.0649853 0.
0.646017 0.064987 0.
0.648018 0.064989 0.
0.650018 0.0649911 0.
0.652018 0.0649904 0.
0.654019 0.0649896 0.
0.656019 0.0649895 0.
0.65802 0.0649913 0.
0.66002 0.0649931 0.
0.662021 0.0649943 0.
0.664021 0.0649946 0.
0.666022 0.064995 0.
0.668022 0.0649956 0.
0.670023 0.0649964 0.
0.672024 0.0649973 0.
0.674024 0.0649982 0.
0.676024 0.0649991 0.
0.678025 0.065 0.
0.680025 0.0650008 0.
0.682025 0.0650015 0.
0.684026 0.0650023 0.
0.686026 0.0650032 0.
0.688026 0.0650041 0.
0.690027 0.0650051 0.
0.692028 0.0650061 0.
0.694028 0.0650072 0.
0.696029 0.0650083 0.
0.69803 0.0650095 0.
0.49997 0.0670095 0.
0.501972 0.0670077 0.
0.503973 0.0670062 0.
0.505974 0.0670048 0.
0.507974 0.0670037 0.
0.509974 0.0670026 0.
0.511975 0.0670017 0.
0.513975 0.0670012 0.
0.515976 0.0670007 0.
0.517976 0.0669998 0.
0.519977 0.0669988 0.
0.521978 0.0669978 0.
0.523978 0.0669972 0.
0.525979 0.0669965 0.
0.52798 0.0669959 0.
0.52998 0.0669959 0.
0.531981 0.0669959 0.
0.533981 0.0669955 0.
0.535981 0.0669945 0.
0.537981 0.0669936 0.
0.539981 0.066993 0.
0.541982 0.0669929 0.
0.543982 0.0669927 0.
0.545983 0.0669915 0.
0.547983 0.06699 0.
0.549984 0.0669885 0.
0.551985 0.066988 0.
0.553985 0.0669876 0.
0.555986 0.0669871 0.
0.557986 0.0669867 0.
0.559987 0.0669864 0.
0.561988 0.0669859 0.
0.563988 0.0669854 0.
0.565989 0.0669848 0.
0.567989 0.0669843 0.
0.56999 0.0669837 0.
0.571991 0.0669832 0.
0.573992 0.0669824 0.
0.575992 0.0669817 0.
0.577992 0.0669811 0.
0.579993 0.0669811 0.
0.581994 0.0669811 0.
0.583995 0.0669809 0.
0.585996 0.0669803 0.
0.587997 0.0669796 0.
0.589997 0.0669794 0.
0.591998 0.0669795 0.
0.593999 0.0669796 0.
0.595999 0.0669796 0.
0.598 0.0669795 0.
0.600001 0.0669795 0.
0.602002 0.0669791 0.
0.604003 0.0669786 0.
0.606004 0.0669784 0.
0.608004 0.066979 0.
0.610005 0.0669797 0.
0.612005 0.06698 0.
0.614006 0.06698 0.
0.616007 0.06698 0.
0.618008 0.0669801 0.
0.620008 0.0669803 0.
0.622009 0.0669805 0.
0.62401 0.0669804 0.
0.626012 0.0669802 0.
0.628013 0.0669802 0.
0.630013 0.0669813 0.
0.632014 0.0669824 0.
0.634015 0.0669832 0.
0.636015 0.0669834 0.
0.638016 0.0669835 0.
0.640016 0.066984 0.
0.642017 0.0669847 0.
0.644017 0.0669855 0.
0.646017 0.0669867 0.
0.648017 0.0669881 0.
0.650017 0.0669895 0.
0.652018 0.0669896 0.
0.654018 0.0669896 0.
0.656018 0.06699 0.
0.658019 0.0669914 0.
0.660019 0.0669927 0.
0.66202 0.0669938 0.
0.66402 0.0669943 0.
0.666021 0.0669949 0.
0.668022 0.0669957 0.
0.670022 0.0669966 0.
0.672022 0.0669975 0.
0.674023 0.0669981 0.
0.676023 0.0669987 0.
0.678023 0.0669993 0.
0.680024 0.0670003 0.
0.682024 0.0670013 0.
0.684024 0.0670022 0.
0.686025 0.0670031 0.
0.688025 0.0670041 0.
0.690026 0.0670051 0.
0.692026 0.0670062 0.
0.694027 0.0670073 0.
0.696027 0.0670085 0.
0.698028 0.0670097 0.
0.499971 0.06901 0.
0.501973 0.0690079 0.
0.503974 0.069006 0.
0.505975 0.0690044 0.
0.507976 0.0690035 0.
0.509976 0.0690027 0.
0.511977 0.0690017 0.
0.513977 0.0690007 0.
0.515977 0.0689997 0.
0.517977 0.0689989 0.
0.519978 0.0689982 0.
0.521978 0.0689975 0.
0.523979 0.0689971 0.
0.52598 0.0689966 0.
0.52798 0.0689962 0.
0.529981 0.0689962 0.
0.531981 0.0689962 0.
0.533981 0.0689959 0.
0.535981 0.0689947 0.
0.537982 0.0689936 0.
0.539982 0.0689929 0.
0.541982 0.0689925 0.
0.543983 0.0689921 0.
0.545983 0.0689911 0.
0.547984 0.0689898 0.
0.549985 0.0689886 0.
0.551985 0.0689878 0.
0.553986 0.0689871 0.
0.555986 0.0689864 0.
0.557986 0.0689859 0.
0.559987 0.0689853 0.
0.561987 0.0689849 0.
0.563988 0.0689845 0.
0.565989 0.0689841 0.
0.56799 0.0689837 0.
0.569991 0.0689832 0.
0.571992 0.0689827 0.
0.573992 0.0689821 0.
0.575992 0.0689815 0.
0.577992 0.0689809 0.
0.579994 0.0689803 0.
0.581995 0.0689798 0.
0.583995 0.0689793 0.
0.585996 0.0689788 0.
0.587997 0.0689784 0.
0.589997 0.0689783 0.
0.591998 0.0689785 0.
0.593998 0.0689787 0.
0.595999 0.0689786 0.
0.598 0.0689783 0.
0.600001 0.0689781 0.
0.602002 0.0689779 0.
0.604003 0.0689778 0.
0.606004 0.0689778 0.
0.608005 0.0689786 0.
0.610005 0.0689794 0.
0.612006 0.0689797 0.
0.614007 0.0689793 0.
0.616008 0.068979 0.
0.618008 0.0689789 0.
0.620009 0.068979 0.
0.62201 0.0689791 0.
0.624011 0.0689792 0.
0.626012 0.0689793 0.
0.628013 0.0689795 0.
0.630014 0.0689806 0.
0.632014 0.0689818 0.
0.634015 0.0689826 0.
0.636015 0.0689826 0.
0.638016 0.0689827 0.
0.640016 0.0689834 0.
0.642016 0.0689846 0.
0.644016 0.0689857 0.
0.646016 0.0689865 0.
0.648016 0.0689872 0.
0.650017 0.0689879 0.
0.652017 0.0689888 0.
0.654017 0.0689896 0.
0.656018 0.0689905 0.
0.658018 0.0689914 0.
0.660019 0.0689924 0.
0.662019 0.0689932 0.
0.66402 0.068994 0.
0.66602 0.0689948 0.
0.668021 0.0689958 0.
0.670021 0.0689968 0.
0.672021 0.0689977 0.
0.674021 0.0689981 0.
0.676021 0.0689983 0.
0.678022 0.0689987 0.
0.680022 0.0689998 0.
0.682023 0.069001 0.
0.684023 0.0690021 0.
0.686024 0.0690031 0.
0.688024 0.0690041 0.
0.690024 0.0690052 0.
0.692025 0.0690063 0.
0.694025 0.0690075 0.
0.696026 0.0690087 0.
0.698027 0.0690099 0.
0.499973 0.0710098 0.
0.501974 0.0710079 0.
0.503975 0.071006 0.
0.505976 0.0710043 0.
0.507977 0.0710036 0.
0.509978 0.0710028 0.
0.511978 0.0710019 0.
0.513978 0.0710007 0.
0.515978 0.0709995 0.
0.517979 0.0709987 0.
0.519979 0.0709981 0.
0.521979 0.0709975 0.
0.52398 0.070997 0.
0.52598 0.0709965 0.
0.527981 0.070996 0.
0.529981 0.0709961 0.
0.531981 0.0709963 0.
0.533982 0.0709959 0.
0.535982 0.0709947 0.
0.537982 0.0709935 0.
0.539983 0.0709926 0.
0.541983 0.0709919 0.
0.543983 0.0709913 0.
0.545984 0.0709904 0.
0.547985 0.0709893 0.
0.549986 0.0709883 0.
0.551986 0.0709875 0.
0.553986 0.0709867 0.
0.555987 0.0709859 0.
0.557987 0.0709852 0.
0.559987 0.0709846 0.
0.561988 0.0709841 0.
0.563989 0.0709839 0.
0.56599 0.0709836 0.
0.56799 0.0709833 0.
0.569991 0.0709828 0.
0.571992 0.0709824 0.
0.573992 0.0709817 0.
0.575993 0.070981 0.
0.577993 0.0709803 0.
0.579994 0.0709796 0.
0.581995 0.0709789 0.
0.583996 0.0709784 0.
0.585996 0.0709781 0.
0.587997 0.0709778 0.
0.589997 0.0709777 0.
0.591998 0.0709778 0.
0.593998 0.0709778 0.
0.595999 0.0709777 0.
0.598 0.0709775 0.
0.600001 0.0709772 0.
0.602002 0.0709772 0.
0.604003 0.0709771 0.
0.606004 0.0709773 0.
0.608005 0.0709781 0.
0.610005 0.0709789 0.
0.612006 0.0709792 0.
0.614007 0.0709788 0.
0.616008 0.0709783 0.
0.618009 0.0709782 0.
0.620009 0.0709781 0.
0.62201 0.0709781 0.
0.624011 0.0709784 0.
0.626012 0.0709787 0.
0.628013 0.0709792 0.
0.630013 0.0709803 0.
0.632014 0.0709814 0.
0.634014 0.0709821 0.
0.636015 0.0709823 0.
0.638015 0.0709824 0.
0.640016 0.0709832 0.
0.642016 0.0709846 0.
0.644016 0.0709859 0.
0.646016 0.0709864 0.
0.648016 0.0709867 0.
0.650016 0.070987 0.
0.652016 0.0709883 0.
0.654017 0.0709895 0.
0.656017 0.0709906 0.
0.658017 0.0709914 0.
0.660018 0.0709921 0.
0.662018 0.0709929 0.
0.664019 0.0709938 0.
0.666019 0.0709947 0.
0.66802 0.0709957 0.
0.67002 0.0709968 0.
0.67202 0.0709979 0.
0.67402 0.0709981 0.
0.67602 0.0709982 0.
0.67802 0.0709984 0.
0.680021 0.0709995 0.
0.682021 0.0710007 0.
0.684022 0.0710019 0.
0.686022 0.071003 0.
0.688023 0.0710042 0.
0.690023 0.0710053 0.
0.692023 0.0710065 0.
0.694023 0.0710077 0.
0.696024 0.0710088 0.
0.698025 0.0710099 0.
0.499976 0.0730095 0.
0.501977 0.0730077 0.
0.503977 0.0730061 0.
0.505978 0.0730046 0.
0.507979 0.0730038 0.
0.509979 0.0730031 0.
0.51198 0.0730022 0.
0.51398 0.0730012 0.
0.51598 0.0730002 0.
0.517981 0.0729993 0.
0.519981 0.0729985 0.
0.521981 0.0729976 0.
0.523981 0.0729968 0.
0.525981 0.072996 0.
0.527981 0.0729953 0.
0.529981 0.0729956 0.
0.531982 0.0729959 0.
0.533982 0.0729957 0.
0.535983 0.0729944 0.
0.537983 0.0729931 0.
0.539983 0.072992 0.
0.541984 0.0729911 0.
0.543984 0.0729902 0.
0.545985 0.0729894 0.
0.547986 0.0729885 0.
0.549986 0.0729877 0.
0.551986 0.072987 0.
0.553987 0.0729863 0.
0.555987 0.0729856 0.
0.557988 0.0729849 0.
0.559988 0.0729841 0.
0.561989 0.0729837 0.
0.56399 0.0729835 0.
0.56599 0.0729834 0.
0.567991 0.0729831 0.
0.569992 0.0729826 0.
0.571992 0.0729822 0.
0.573993 0.0729813 0.
0.575993 0.0729804 0.
0.577994 0.0729795 0.
0.579995 0.072979 0.
0.581996 0.0729785 0.
0.583997 0.0729781 0.
0.585997 0.072978 0.
0.587997 0.0729778 0.
0.589998 0.0729776 0.
0.591998 0.0729773 0.
0.593998 0.072977 0.
0.595999 0.072977 0.
0.598 0.072977 0.
0.600001 0.0729771 0.
0.602002 0.0729769 0.
0.604003 0.0729768 0.
0.606004 0.0729768 0.
0.608005 0.0729775 0.
0.610005 0.0729782 0.
0.612006 0.0729785 0.
0.614007 0.0729783 0.
0.616008 0.072978 0.
0.618008 0.0729779 0.
0.620009 0.0729778 0.
0.622009 0.0729777 0.
0.62401 0.0729781 0.
0.626011 0.0729786 0.
0.628012 0.0729792 0.
0.630013 0.0729802 0.
0.632013 0.0729812 0.
0.634014 0.072982 0.
0.636014 0.0729823 0.
0.638015 0.0729827 0.
0.640015 0.0729836 0.
0.642015 0.0729847 0.
0.644015 0.0729859 0.
0.646015 0.0729864 0.
0.648015 0.0729867 0.
0.650015 0.0729869 0.
0.652015 0.0729881 0.
0.654015 0.0729892 0.
0.656016 0.0729903 0.
0.658016 0.0729912 0.
0.660016 0.072992 0.
0.662017 0.0729929 0.
0.664018 0.0729936 0.
0.666018 0.0729944 0.
0.668019 0.0729955 0.
0.670019 0.0729968 0.
0.672019 0.0729981 0.
0.674019 0.0729983 0.
0.676019 0.0729983 0.
0.67802 0.0729984 0.
0.68002 0.0729994 0.
0.68202 0.0730004 0.
0.68402 0.0730016 0.
0.68602 0.073003 0.
0.688021 0.0730044 0.
0.690021 0.0730056 0.
0.692022 0.0730067 0.
0.694022 0.0730079 0.
0.696022 0.0730088 0.
0.698023 0.0730097 0.
0.499978 0.0750094 0.
0.501979 0.0750076 0.
0.503979 0.0750062 0.
0.50598 0.0750048 0.
0.50798 0.0750041 0.
0.509981 0.0750033 0.
0.511981 0.0750025 0.
0.513982 0.0750017 0.
0.515982 0.0750009 0.
0.517982 0.0749999 0.
0.519982 0.0749988 0.
0.521982 0.0749978 0.
0.523982 0.0749967 0.
0.525981 0.0749955 0.
0.527981 0.0749946 0.
0.529982 0.0749951 0.
0.531982 0.0749956 0.
0.533983 0.0749955 0.
0.535983 0.0749941 0.
0.537984 0.0749927 0.
0.539984 0.0749914 0.
0.541985 0.0749903 0.
0.543985 0.0749891 0.
0.545986 0.0749884 0.
0.547986 0.0749877 0.
0.549986 0.074987 0.
0.551987 0.0749865 0.
0.553987 0.074986 0.
0.555988 0.0749854 0.
0.557989 0.0749846 0.
0.559989 0.0749837 0.
0.56199 0.0749832 0.
0.56399 0.0749832 0.
0.565991 0.0749831 0.
0.567991 0.0749829 0.
0.569992 0.0749825 0.
0.571992 0.0749821 0.
0.573993 0.074981 0.
0.575993 0.0749798 0.
0.577994 0.0749787 0.
0.579995 0.0749784 0.
0.581996 0.0749781 0.
0.583997 0.0749779 0.
0.585997 0.0749779 0.
0.587998 0.0749779 0.
0.589998 0.0749775 0.
0.591998 0.0749768 0.
0.593998 0.0749761 0.
0.595999 0.0749762 0.
0.598 0.0749766 0.
0.600001 0.074977 0.
0.602002 0.0749767 0.
0.604003 0.0749764 0.
0.606004 0.0749763 0.
0.608005 0.0749769 0.
0.610005 0.0749776 0.
0.612006 0.0749779 0.
0.614006 0.0749778 0.
0.616007 0.0749777 0.
0.618008 0.0749776 0.
0.620008 0.0749774 0.
0.622008 0.0749772 0.
0.624009 0.0749778 0.
0.62601 0.0749785 0.
0.628011 0.0749792 0.
0.630012 0.0749801 0.
0.632013 0.074981 0.
0.634013 0.0749818 0.
0.636014 0.0749824 0.
0.638014 0.074983 0.
0.640014 0.0749839 0.
0.642014 0.0749849 0.
0.644014 0.0749859 0.
0.646014 0.0749864 0.
0.648015 0.0749866 0.
0.650015 0.0749868 0.
0.652015 0.0749879 0.
0.654014 0.074989 0.
0.656014 0.07499 0.
0.658015 0.074991 0.
0.660015 0.074992 0.
0.662016 0.0749928 0.
0.664016 0.0749935 0.
0.666017 0.0749942 0.
0.668018 0.0749953 0.
0.670018 0.0749968 0.
0.672018 0.0749983 0.
0.674019 0.0749984 0.
0.676019 0.0749984 0.
0.678019 0.0749985 0.
0.680018 0.0749993 0.
0.682018 0.0750001 0.
0.684018 0.0750013 0.
0.686019 0.0750029 0.
0.68802 0.0750046 0.
0.69002 0.0750059 0.
0.69202 0.075007 0.
0.69402 0.0750081 0.
0.69602 0.0750088 0.
0.69802 0.0750096 0.
0.499981 0.0770094 0.
0.501981 0.077008 0.
0.503981 0.0770066 0.
0.505981 0.0770053 0.
0.507982 0.0770044 0.
0.509982 0.0770035 0.
0.511983 0.0770026 0.
0.513983 0.0770016 0.
0.515983 0.0770007 0.
0.517983 0.0769998 0.
0.519983 0.076999 0.
0.521983 0.0769981 0.
0.523983 0.0769971 0.
0.525983 0.076996 0.
0.527982 0.076995 0.
0.529983 0.0769951 0.
0.531983 0.0769952 0.
0.533984 0.0769949 0.
0.535984 0.0769938 0.
0.537985 0.0769928 0.
0.539985 0.0769915 0.
0.541986 0.0769901 0.
0.543986 0.0769887 0.
0.545987 0.0769878 0.
0.547987 0.076987 0.
0.549987 0.0769862 0.
0.551988 0.0769856 0.
0.553988 0.0769851 0.
0.555989 0.0769845 0.
0.557989 0.076984 0.
0.55999 0.0769835 0.
0.56199 0.0769831 0.
0.563991 0.0769827 0.
0.565992 0.0769823 0.
0.567992 0.076982 0.
0.569992 0.0769817 0.
0.571993 0.0769815 0.
0.573993 0.0769804 0.
0.575994 0.0769792 0.
0.577995 0.0769781 0.
0.579995 0.0769778 0.
0.581996 0.0769775 0.
0.583997 0.0769773 0.
0.585997 0.0769774 0.
0.587997 0.0769775 0.
0.589998 0.0769771 0.
0.591998 0.0769764 0.
0.593998 0.0769757 0.
0.595999 0.0769758 0.
0.598 0.0769761 0.
0.600001 0.0769764 0.
0.602002 0.0769761 0.
0.604003 0.0769758 0.
0.606004 0.0769757 0.
0.608004 0.076976 0.
0.610004 0.0769763 0.
0.612005 0.0769766 0.
0.614006 0.0769767 0.
0.616007 0.0769769 0.
0.618007 0.076977 0.
0.620007 0.076977 0.
0.622008 0.076977 0.
0.624009 0.0769775 0.
0.62601 0.076978 0.
0.628011 0.0769785 0.
0.630011 0.0769797 0.
0.632012 0.0769809 0.
0.634012 0.0769818 0.
0.636012 0.0769822 0.
0.638013 0.0769827 0.
0.640013 0.0769835 0.
0.642013 0.0769846 0.
0.644013 0.0769856 0.
0.646013 0.0769861 0.
0.648014 0.0769865 0.
0.650014 0.0769868 0.
0.652014 0.0769879 0.
0.654014 0.0769889 0.
0.656014 0.0769899 0.
0.658014 0.0769908 0.
0.660014 0.0769917 0.
0.662015 0.0769925 0.
0.664015 0.0769932 0.
0.666016 0.0769939 0.
0.668016 0.076995 0.
0.670017 0.0769963 0.
0.672017 0.0769976 0.
0.674017 0.076998 0.
0.676017 0.0769983 0.
0.678017 0.0769986 0.
0.680017 0.0769996 0.
0.682017 0.0770006 0.
0.684017 0.0770017 0.
0.686018 0.077003 0.
0.688018 0.0770044 0.
0.690018 0.0770056 0.
0.692019 0.0770067 0.
0.694019 0.0770078 0.
0.696019 0.0770088 0.
0.698019 0.0770098 0.
0.499983 0.0790096 0.
0.501983 0.0790083 0.
0.503983 0.079007 0.
0.505983 0.0790057 0.
0.507983 0.0790047 0.
0.509983 0.0790037 0.
0.511984 0.0790027 0.
0.513984 0.0790016 0.
0.515984 0.0790005 0.
0.517984 0.0789997 0.
0.519984 0.0789991 0.
0.521984 0.0789985 0.
0.523984 0.0789975 0.
0.525984 0.0789964 0.
0.527983 0.0789954 0.
0.529984 0.078995 0.
0.531984 0.0789947 0.
0.533985 0.0789943 0.
0.535985 0.0789936 0.
0.537986 0.0789929 0.
0.539986 0.0789916 0.
0.541987 0.0789899 0.
0.543987 0.0789883 0.
0.545987 0.0789872 0.
0.547988 0.0789863 0.
0.549988 0.0789854 0.
0.551988 0.0789848 0.
0.553989 0.0789841 0.
0.555989 0.0789836 0.
0.55799 0.0789835 0.
0.55999 0.0789833 0.
0.561991 0.0789829 0.
0.563991 0.0789822 0.
0.565992 0.0789814 0.
0.567993 0.0789811 0.
0.569993 0.078981 0.
0.571993 0.078981 0.
0.573994 0.0789799 0.
0.575994 0.0789786 0.
0.577995 0.0789775 0.
0.579995 0.0789772 0.
0.581996 0.0789769 0.
0.583996 0.0789767 0.
0.585997 0.0789769 0.
0.587997 0.0789771 0.
0.589998 0.0789768 0.
0.591998 0.0789761 0.
0.593999 0.0789754 0.
0.596 0.0789754 0.
0.598 0.0789756 0.
0.600001 0.0789758 0.
0.602002 0.0789755 0.
0.604002 0.0789753 0.
0.606003 0.0789751 0.
0.608003 0.0789751 0.
0.610004 0.0789751 0.
0.612005 0.0789753 0.
0.614005 0.0789757 0.
0.616006 0.0789761 0.
0.618007 0.0789763 0.
0.620007 0.0789766 0.
0.622007 0.0789768 0.
0.624008 0.0789771 0.
0.626009 0.0789774 0.
0.62801 0.0789779 0.
0.63001 0.0789793 0.
0.632011 0.0789807 0.
0.634011 0.0789818 0.
0.636011 0.0789821 0.
0.638011 0.0789824 0.
0.640012 0.0789831 0.
0.642012 0.0789842 0.
0.644012 0.0789853 0.
0.646013 0.0789859 0.
0.648013 0.0789864 0.
0.650013 0.0789868 0.
0.652013 0.0789878 0.
0.654013 0.0789889 0.
0.656013 0.0789899 0.
0.658013 0.0789907 0.
0.660013 0.0789915 0.
0.662014 0.0789923 0.
0.664014 0.078993 0.
0.666015 0.0789937 0.
0.668015 0.0789947 0.
0.670016 0.0789958 0.
0.672016 0.0789969 0.
0.674016 0.0789975 0.
0.676016 0.0789981 0.
0.678016 0.0789987 0.
0.680016 0.0789999 0.
0.682017 0.079001 0.
0.684017 0.0790021 0.
0.686017 0.0790031 0.
0.688017 0.0790041 0.
0.690017 0.0790052 0.
0.692017 0.0790064 0.
0.694018 0.0790076 0.
0.696018 0.0790088 0.
0.698017 0.0790101 0.
0.499985 0.0810096 0.
0.501984 0.0810084 0.
0.503984 0.0810072 0.
0.505985 0.081006 0.
0.507985 0.081005 0.
0.509985 0.0810041 0.
0.511985 0.081003 0.
0.513985 0.0810017 0.
0.515986 0.0810005 0.
0.517986 0.0809998 0.
0.519986 0.0809994 0.
0.521985 0.080999 0.
0.523985 0.080998 0.
0.525985 0.0809969 0.
0.527984 0.0809958 0.
0.529985 0.0809952 0.
0.531985 0.0809945 0.
0.533985 0.0809939 0.
0.535986 0.0809932 0.
0.537987 0.0809925 0.
0.539987 0.0809913 0.
0.541988 0.0809895 0.
0.543988 0.0809878 0.
0.545988 0.0809867 0.
0.547988 0.0809858 0.
0.549989 0.0809849 0.
0.551989 0.0809843 0.
0.55399 0.0809836 0.
0.55599 0.080983 0.
0.557991 0.0809831 0.
0.559991 0.0809831 0.
0.561991 0.0809827 0.
0.563992 0.0809818 0.
0.565992 0.0809809 0.
0.567993 0.0809805 0.
0.569993 0.0809803 0.
0.571994 0.0809801 0.
0.573994 0.0809791 0.
0.575995 0.080978 0.
0.577995 0.080977 0.
0.579995 0.0809768 0.
0.581996 0.0809765 0.
0.583996 0.0809763 0.
0.585996 0.0809764 0.
0.587997 0.0809765 0.
0.589997 0.0809763 0.
0.591998 0.0809758 0.
0.593999 0.0809753 0.
0.596 0.0809753 0.
0.598 0.0809755 0.
0.600001 0.0809756 0.
0.602001 0.0809753 0.
0.604002 0.0809749 0.
0.606002 0.0809746 0.
0.608003 0.0809745 0.
0.610003 0.0809744 0.
0.612004 0.0809745 0.
0.614005 0.0809749 0.
0.616006 0.0809753 0.
0.618006 0.0809757 0.
0.620006 0.0809761 0.
0.622006 0.0809764 0.
0.624007 0.0809768 0.
0.626008 0.0809772 0.
0.628009 0.0809778 0.
0.630009 0.0809791 0.
0.63201 0.0809804 0.
0.63401 0.0809814 0.
0.63601 0.0809818 0.
0.63801 0.0809821 0.
0.640011 0.0809828 0.
0.642011 0.080984 0.
0.644011 0.0809852 0.
0.646012 0.0809858 0.
0.648012 0.0809862 0.
0.650012 0.0809867 0.
0.652012 0.0809877 0.
0.654012 0.0809887 0.
0.656012 0.0809897 0.
0.658012 0.0809905 0.
0.660013 0.0809913 0.
0.662013 0.0809921 0.
0.664013 0.0809928 0.
0.666014 0.0809935 0.
0.668014 0.0809945 0.
0.670015 0.0809955 0.
0.672015 0.0809965 0.
0.674015 0.0809973 0.
0.676015 0.0809981 0.
0.678015 0.0809989 0.
0.680015 0.081 0.
0.682015 0.0810011 0.
0.684015 0.0810022 0.
0.686015 0.0810031 0.
0.688016 0.081004 0.
0.690016 0.0810052 0.
0.692016 0.0810065 0.
0.694017 0.0810079 0.
0.696016 0.081009 0.
0.698016 0.0810102 0.
0.499985 0.0830089 0.
0.501985 0.0830081 0.
0.503986 0.0830072 0.
0.505986 0.0830062 0.
0.507986 0.0830054 0.
0.509986 0.0830046 0.
0.511987 0.0830035 0.
0.513987 0.0830021 0.
0.515987 0.0830007 0.
0.517987 0.083 0.
0.519987 0.0829998 0.
0.521986 0.0829995 0.
0.523986 0.0829985 0.
0.525986 0.0829974 0.
0.527985 0.0829962 0.
0.529986 0.0829954 0.
0.531986 0.0829946 0.
0.533986 0.0829937 0.
0.535987 0.0829927 0.
0.537988 0.0829916 0.
0.539988 0.0829903 0.
0.541989 0.0829888 0.
0.543989 0.0829873 0.
0.545989 0.0829864 0.
0.547989 0.0829856 0.
0.54999 0.0829849 0.
0.55199 0.0829841 0.
0.553991 0.0829834 0.
0.555991 0.0829828 0.
0.557991 0.0829828 0.
0.559992 0.0829827 0.
0.561992 0.0829824 0.
0.563992 0.0829816 0.
0.565993 0.0829809 0.
0.567993 0.0829802 0.
0.569993 0.0829796 0.
0.571994 0.0829789 0.
0.573994 0.0829782 0.
0.575994 0.0829774 0.
0.577995 0.0829767 0.
0.579995 0.0829765 0.
0.581996 0.0829763 0.
0.583996 0.0829761 0.
0.585997 0.0829759 0.
0.587997 0.0829757 0.
0.589997 0.0829756 0.
0.591998 0.0829756 0.
0.593999 0.0829756 0.
0.595999 0.0829757 0.
0.598 0.0829758 0.
0.6 0.0829759 0.
0.602001 0.0829753 0.
0.604002 0.0829747 0.
0.606002 0.0829743 0.
0.608003 0.0829743 0.
0.610003 0.0829743 0.
0.612003 0.0829744 0.
0.614004 0.0829746 0.
0.616005 0.0829748 0.
0.618006 0.0829751 0.
0.620006 0.0829756 0.
0.622006 0.082976 0.
0.624006 0.0829767 0.
0.626007 0.0829775 0.
0.628007 0.0829782 0.
0.630008 0.0829791 0.
0.632008 0.0829799 0.
0.634008 0.0829807 0.
0.636009 0.0829812 0.
0.638009 0.0829818 0.
0.64001 0.0829827 0.
0.64201 0.0829839 0.
0.64401 0.0829851 0.
0.64601 0.0829857 0.
0.648011 0.0829861 0.
0.650011 0.0829865 0.
0.652011 0.0829875 0.
0.654011 0.0829885 0.
0.656011 0.0829894 0.
0.658011 0.0829903 0.
0.660011 0.0829912 0.
0.662012 0.082992 0.
0.664012 0.0829927 0.
0.666013 0.0829935 0.
0.668013 0.0829944 0.
0.670013 0.0829955 0.
0.672014 0.0829965 0.
0.674013 0.0829974 0.
0.676013 0.0829982 0.
0.678013 0.0829991 0.
0.680013 0.083 0.
0.682014 0.0830009 0.
0.684014 0.0830019 0.
0.686014 0.083003 0.
0.688015 0.083004 0.
0.690015 0.0830054 0.
0.692015 0.083007 0.
0.694015 0.0830087 0.
0.696015 0.0830095 0.
0.698015 0.0830101 0.
0.499986 0.0850083 0.
0.501986 0.0850078 0.
0.503987 0.0850072 0.
0.505987 0.0850065 0.
0.507988 0.0850058 0.
0.509988 0.0850052 0.
0.511988 0.0850041 0.
0.513989 0.0850025 0.
0.515989 0.0850009 0.
0.517989 0.0850002 0.
0.519988 0.0850002 0.
0.521988 0.0850001 0.
0.523987 0.0849991 0.
0.525987 0.0849979 0.
0.527986 0.0849967 0.
0.529987 0.0849957 0.
0.531987 0.0849947 0.
0.533987 0.0849935 0.
0.535988 0.0849922 0.
0.537989 0.0849908 0.
0.539989 0.0849894 0.
0.54199 0.0849882 0.
0.54399 0.0849869 0.
0.54599 0.0849861 0.
0.54799 0.0849855 0.
0.549991 0.0849848 0.
0.551991 0.084984 0.
0.553991 0.0849832 0.
0.555992 0.0849826 0.
0.557992 0.0849825 0.
0.559992 0.0849824 0.
0.561992 0.0849821 0.
0.563993 0.0849814 0.
0.565993 0.0849808 0.
0.567993 0.0849799 0.
0.569994 0.0849788 0.
0.571994 0.0849778 0.
0.573994 0.0849773 0.
0.575994 0.0849768 0.
0.577995 0.0849764 0.
0.579995 0.0849763 0.
0.581996 0.0849761 0.
0.583996 0.0849759 0.
0.585997 0.0849754 0.
0.587997 0.084975 0.
0.589997 0.084975 0.
0.591998 0.0849754 0.
0.593998 0.0849758 0.
0.595999 0.084976 0.
0.597999 0.0849761 0.
0.6 0.0849761 0.
0.602 0.0849754 0.
0.604001 0.0849746 0.
0.606002 0.084974 0.
0.608002 0.0849741 0.
0.610002 0.0849743 0.
0.612003 0.0849743 0.
0.614004 0.0849742 0.
0.616005 0.0849742 0.
0.618005 0.0849745 0.
0.620005 0.084975 0.
0.622005 0.0849756 0.
0.624005 0.0849766 0.
0.626005 0.0849777 0.
0.628006 0.0849787 0.
0.630006 0.0849791 0.
0.632006 0.0849794 0.
0.634007 0.0849799 0.
0.636008 0.0849807 0.
0.638008 0.0849816 0.
0.640008 0.0849826 0.
0.642009 0.0849839 0.
0.644009 0.0849851 0.
0.646009 0.0849857 0.
0.648009 0.084986 0.
0.65001 0.0849863 0.
0.65201 0.0849873 0.
0.65401 0.0849882 0.
0.656011 0.0849892 0.
0.65801 0.0849901 0.
0.66001 0.084991 0.
0.662011 0.0849919 0.
0.664011 0.0849927 0.
0.666011 0.0849935 0.
0.668012 0.0849944 0.
0.670012 0.0849954 0.
0.672012 0.0849964 0.
0.674012 0.0849974 0.
0.676011 0.0849983 0.
0.678011 0.0849992 0.
0.680011 0.085 0.
0.682012 0.0850007 0.
0.684012 0.0850016 0.
0.686013 0.0850028 0.
0.688014 0.0850041 0.
0.690014 0.0850057 0.
0.692014 0.0850076 0.
0.694014 0.0850095 0.
0.696014 0.0850099 0.
0.698014 0.0850101 0.
0.499987 0.0870092 0.
0.501987 0.0870084 0.
0.503988 0.0870075 0.
0.505988 0.0870066 0.
0.507989 0.0870054 0.
0.509989 0.0870043 0.
0.511989 0.0870032 0.
0.51399 0.0870022 0.
0.51599 0.0870012 0.
0.51799 0.0870006 0.
0.519989 0.0870002 0.
0.521989 0.0869999 0.
0.523989 0.0869989 0.
0.525988 0.0869977 0.
0.527988 0.0869966 0.
0.529988 0.0869958 0.
0.531988 0.086995 0.
0.533989 0.0869939 0.
0.535989 0.0869922 0.
0.53799 0.0869905 0.
0.53999 0.0869891 0.
0.541991 0.0869879 0.
0.543991 0.0869868 0.
0.545991 0.0869861 0.
0.547991 0.0869854 0.
0.549991 0.0869848 0.
0.551992 0.0869841 0.
0.553992 0.0869833 0.
0.555992 0.0869826 0.
0.557992 0.0869823 0.
0.559993 0.086982 0.
0.561993 0.0869815 0.
0.563993 0.0869808 0.
0.565994 0.0869801 0.
0.567994 0.0869792 0.
0.569994 0.0869782 0.
0.571994 0.0869772 0.
0.573994 0.0869769 0.
0.575995 0.0869768 0.
0.577995 0.0869767 0.
0.579996 0.0869764 0.
0.581996 0.0869761 0.
0.583997 0.0869758 0.
0.585997 0.0869754 0.
0.587997 0.086975 0.
0.589997 0.0869749 0.
0.591998 0.0869751 0.
0.593998 0.0869752 0.
0.595999 0.0869752 0.
0.597999 0.0869752 0.
0.6 0.0869751 0.
0.602001 0.0869746 0.
0.604001 0.0869742 0.
0.606002 0.0869738 0.
0.608002 0.0869738 0.
0.610002 0.0869738 0.
0.612003 0.0869738 0.
0.614003 0.0869737 0.
0.616004 0.0869736 0.
0.618004 0.0869739 0.
0.620005 0.0869744 0.
0.622005 0.0869749 0.
0.624005 0.086976 0.
0.626005 0.0869772 0.
0.628005 0.0869784 0.
0.630005 0.0869788 0.
0.632006 0.0869793 0.
0.634007 0.0869798 0.
0.636007 0.0869806 0.
0.638007 0.0869813 0.
0.640008 0.0869823 0.
0.642008 0.0869835 0.
0.644008 0.0869847 0.
0.646008 0.0869855 0.
0.648009 0.0869861 0.
0.650009 0.0869867 0.
0.652009 0.0869874 0.
0.654009 0.0869882 0.
0.656009 0.086989 0.
0.658009 0.0869898 0.
0.660009 0.0869907 0.
0.662009 0.0869915 0.
0.66401 0.0869924 0.
0.66601 0.0869933 0.
0.66801 0.0869943 0.
0.67001 0.0869954 0.
0.67201 0.0869965 0.
0.67401 0.0869973 0.
0.67601 0.0869982 0.
0.67801 0.086999 0.
0.68001 0.0869998 0.
0.682011 0.0870006 0.
0.684011 0.0870015 0.
0.686012 0.0870027 0.
0.688012 0.0870039 0.
0.690012 0.0870054 0.
0.692012 0.0870071 0.
0.694013 0.0870088 0.
0.696013 0.0870098 0.
0.698013 0.0870105 0.
0.499988 0.0890101 0.
0.501988 0.089009 0.
0.503989 0.0890079 0.
0.50599 0.0890067 0.
0.50799 0.0890051 0.
0.50999 0.0890035 0.
0.51199 0.0890024 0.
0.51399 0.0890019 0.
0.515991 0.0890015 0.
0.517991 0.0890009 0.
0.519991 0.0890003 0.
0.521991 0.0889997 0.
0.52399 0.0889987 0.
0.52599 0.0889976 0.
0.527989 0.0889966 0.
0.52999 0.0889959 0.
0.53199 0.0889953 0.
0.53399 0.0889942 0.
0.53599 0.0889922 0.
0.537991 0.0889902 0.
0.539991 0.0889887 0.
0.541991 0.0889877 0.
0.543992 0.0889867 0.
0.545992 0.088986 0.
0.547992 0.0889854 0.
0.549992 0.0889849 0.
0.551992 0.0889841 0.
0.553992 0.0889833 0.
0.555992 0.0889826 0.
0.557993 0.0889821 0.
0.559993 0.0889816 0.
0.561994 0.088981 0.
0.563994 0.0889802 0.
0.565994 0.0889794 0.
0.567994 0.0889785 0.
0.569994 0.0889775 0.
0.571994 0.0889766 0.
0.573995 0.0889766 0.
0.575995 0.0889768 0.
0.577996 0.088977 0.
0.579996 0.0889765 0.
0.581996 0.088976 0.
0.583997 0.0889756 0.
0.585997 0.0889754 0.
0.587997 0.0889751 0.
0.589997 0.0889749 0.
0.591998 0.0889748 0.
0.593998 0.0889746 0.
0.595999 0.0889744 0.
0.597999 0.0889742 0.
0.6 0.088974 0.
0.602001 0.0889739 0.
0.604001 0.0889737 0.
0.606001 0.0889736 0.
0.608002 0.0889735 0.
0.610002 0.0889734 0.
0.612002 0.0889733 0.
0.614003 0.0889732 0.
0.616003 0.0889731 0.
0.618004 0.0889734 0.
0.620004 0.0889738 0.
0.622005 0.0889742 0.
0.624005 0.0889755 0.
0.626004 0.0889768 0.
0.628004 0.088978 0.
0.630005 0.0889786 0.
0.632006 0.0889791 0.
0.634006 0.0889797 0.
0.636007 0.0889804 0.
0.638007 0.0889811 0.
0.640007 0.088982 0.
0.642007 0.0889832 0.
0.644007 0.0889843 0.
0.646008 0.0889853 0.
0.648008 0.0889861 0.
0.650008 0.088987 0.
0.652008 0.0889876 0.
0.654007 0.0889882 0.
0.656008 0.0889888 0.
0.658008 0.0889895 0.
0.660008 0.0889903 0.
0.662008 0.0889911 0.
0.664008 0.0889921 0.
0.666009 0.088993 0.
0.668009 0.0889942 0.
0.670009 0.0889954 0.
0.672009 0.0889966 0.
0.674009 0.0889973 0.
0.676009 0.088998 0.
0.678009 0.0889987 0.
0.680009 0.0889996 0.
0.68201 0.0890005 0.
0.68401 0.0890015 0.
0.68601 0.0890026 0.
0.68801 0.0890038 0.
0.690011 0.0890051 0.
0.692011 0.0890067 0.
0.694012 0.0890082 0.
0.696012 0.0890096 0.
0.698011 0.089011 0.
0.499989 0.0910103 0.
0.501989 0.091009 0.
0.50399 0.0910077 0.
0.50599 0.0910063 0.
0.507991 0.0910047 0.
0.509991 0.091003 0.
0.511991 0.091002 0.
0.513991 0.0910017 0.
0.515992 0.0910014 0.
0.517992 0.0910009 0.
0.519992 0.0910002 0.
0.521992 0.0909995 0.
0.523992 0.0909987 0.
0.525991 0.0909978 0.
0.527991 0.090997 0.
0.529991 0.0909963 0.
0.531991 0.0909956 0.
0.533991 0.0909944 0.
0.535991 0.0909924 0.
0.537992 0.0909903 0.
0.539992 0.0909888 0.
0.541992 0.0909877 0.
0.543993 0.0909867 0.
0.545993 0.090986 0.
0.547993 0.0909854 0.
0.549993 0.0909848 0.
0.551992 0.090984 0.
0.553992 0.0909831 0.
0.555992 0.0909823 0.
0.557993 0.0909816 0.
0.559994 0.090981 0.
0.561995 0.0909803 0.
0.563995 0.0909797 0.
0.565995 0.090979 0.
0.567995 0.0909782 0.
0.569995 0.0909771 0.
0.571995 0.0909761 0.
0.573995 0.0909763 0.
0.575995 0.0909767 0.
0.577996 0.090977 0.
0.579996 0.0909764 0.
0.581997 0.0909758 0.
0.583997 0.0909754 0.
0.585997 0.0909752 0.
0.587997 0.0909751 0.
0.589998 0.0909748 0.
0.591998 0.0909744 0.
0.593998 0.090974 0.
0.595999 0.0909738 0.
0.597999 0.0909735 0.
0.6 0.0909733 0.
0.602001 0.0909734 0.
0.604001 0.0909735 0.
0.606001 0.0909735 0.
0.608002 0.0909733 0.
0.610002 0.090973 0.
0.612002 0.0909728 0.
0.614002 0.0909727 0.
0.616003 0.0909726 0.
0.618003 0.090973 0.
0.620004 0.0909737 0.
0.622004 0.0909743 0.
0.624004 0.0909755 0.
0.626004 0.0909767 0.
0.628004 0.0909778 0.
0.630004 0.0909784 0.
0.632005 0.0909789 0.
0.634006 0.0909795 0.
0.636006 0.0909802 0.
0.638006 0.0909809 0.
0.640006 0.0909819 0.
0.642006 0.0909831 0.
0.644007 0.0909843 0.
0.646007 0.0909852 0.
0.648007 0.0909861 0.
0.650007 0.090987 0.
0.652007 0.0909875 0.
0.654006 0.0909881 0.
0.656006 0.0909887 0.
0.658007 0.0909894 0.
0.660007 0.0909901 0.
0.662007 0.090991 0.
0.664007 0.0909919 0.
0.666007 0.0909929 0.
0.668007 0.090994 0.
0.670007 0.0909953 0.
0.672007 0.0909965 0.
0.674008 0.0909972 0.
0.676008 0.0909979 0.
0.678008 0.0909985 0.
0.680008 0.0909994 0.
0.682008 0.0910003 0.
0.684009 0.0910014 0.
0.686009 0.0910026 0.
0.688009 0.0910039 0.
0.690009 0.0910052 0.
0.69201 0.0910064 0.
0.69401 0.0910077 0.
0.69601 0.0910093 0.
0.69801 0.0910111 0.
0.49999 0.0930097 0.
0.50199 0.0930085 0.
0.503991 0.093007 0.
0.505991 0.0930056 0.
0.507991 0.0930043 0.
0.509992 0.093003 0.
0.511992 0.093002 0.
0.513992 0.0930015 0.
0.515993 0.0930011 0.
0.517993 0.0930005 0.
0.519993 0.0929999 0.
0.521993 0.0929992 0.
0.523993 0.0929988 0.
0.525993 0.0929983 0.
0.527993 0.0929978 0.
0.529992 0.0929968 0.
0.531992 0.0929958 0.
0.533992 0.0929945 0.
0.535992 0.0929927 0.
0.537993 0.0929909 0.
0.539993 0.0929893 0.
0.541993 0.092988 0.
0.543993 0.0929867 0.
0.545993 0.0929859 0.
0.547993 0.0929853 0.
0.549993 0.0929847 0.
0.551993 0.0929836 0.
0.553993 0.0929825 0.
0.555993 0.0929815 0.
0.557994 0.0929808 0.
0.559994 0.0929801 0.
0.561995 0.0929795 0.
0.563995 0.0929793 0.
0.565995 0.092979 0.
0.567995 0.0929782 0.
0.569995 0.092977 0.
0.571995 0.0929758 0.
0.573995 0.0929761 0.
0.575996 0.0929765 0.
0.577996 0.0929768 0.
0.579996 0.0929761 0.
0.581997 0.0929755 0.
0.583997 0.092975 0.
0.585997 0.0929751 0.
0.587998 0.0929751 0.
0.589998 0.0929747 0.
0.591998 0.0929741 0.
0.593998 0.0929734 0.
0.595999 0.0929732 0.
0.597999 0.0929731 0.
0.6 0.0929731 0.
0.602 0.0929733 0.
0.604001 0.0929735 0.
0.606002 0.0929736 0.
0.608002 0.0929731 0.
0.610002 0.0929727 0.
0.612002 0.0929724 0.
0.614002 0.0929723 0.
0.616003 0.0929722 0.
0.618003 0.092973 0.
0.620003 0.0929741 0.
0.622004 0.0929752 0.
0.624004 0.0929761 0.
0.626004 0.0929769 0.
0.628003 0.0929778 0.
0.630004 0.0929783 0.
0.632004 0.0929788 0.
0.634005 0.0929794 0.
0.636005 0.0929802 0.
0.638005 0.092981 0.
0.640005 0.092982 0.
0.642005 0.0929833 0.
0.644005 0.0929846 0.
0.646006 0.0929853 0.
0.648006 0.0929859 0.
0.650006 0.0929865 0.
0.652006 0.0929872 0.
0.654006 0.0929879 0.
0.656006 0.0929887 0.
0.658006 0.0929895 0.
0.660006 0.0929902 0.
0.662006 0.0929911 0.
0.664007 0.0929919 0.
0.666007 0.0929927 0.
0.668007 0.0929938 0.
0.670007 0.092995 0.
0.672007 0.0929963 0.
0.674007 0.092997 0.
0.676007 0.0929977 0.
0.678007 0.0929985 0.
0.680007 0.0929993 0.
0.682007 0.0930001 0.
0.684007 0.0930012 0.
0.686008 0.0930028 0.
0.688008 0.0930043 0.
0.690008 0.0930055 0.
0.692008 0.0930064 0.
0.694008 0.0930073 0.
0.696008 0.0930089 0.
0.698008 0.0930107 0.
0.49999 0.0950094 0.
0.501991 0.0950079 0.
0.503991 0.0950064 0.
0.505992 0.0950049 0.
0.507992 0.0950039 0.
0.509992 0.0950029 0.
0.511993 0.095002 0.
0.513993 0.0950014 0.
0.515994 0.0950007 0.
0.517994 0.0950001 0.
0.519994 0.0949996 0.
0.521994 0.094999 0.
0.523994 0.0949989 0.
0.525994 0.0949988 0.
0.527994 0.0949986 0.
0.529994 0.0949973 0.
0.531993 0.094996 0.
0.533993 0.0949946 0.
0.535993 0.094993 0.
0.537993 0.0949914 0.
0.539994 0.0949898 0.
0.541994 0.0949883 0.
0.543994 0.0949867 0.
0.545994 0.0949858 0.
0.547994 0.0949852 0.
0.549993 0.0949845 0.
0.551993 0.0949832 0.
0.553993 0.094982 0.
0.555993 0.0949808 0.
0.557994 0.09498 0.
0.559995 0.0949791 0.
0.561995 0.0949787 0.
0.563995 0.0949788 0.
0.565996 0.0949789 0.
0.567996 0.0949782 0.
0.569995 0.0949769 0.
0.571995 0.0949756 0.
0.573995 0.0949758 0.
0.575996 0.0949762 0.
0.577996 0.0949765 0.
0.579996 0.0949758 0.
0.581997 0.0949751 0.
0.583997 0.0949747 0.
0.585998 0.0949749 0.
0.587998 0.0949751 0.
0.589998 0.0949747 0.
0.591998 0.0949737 0.
0.593998 0.0949727 0.
0.595999 0.0949726 0.
0.597999 0.0949727 0.
0.6 0.0949728 0.
0.602 0.0949731 0.
0.604001 0.0949735 0.
0.606002 0.0949736 0.
0.608002 0.094973 0.
0.610002 0.0949723 0.
0.612002 0.0949719 0.
0.614002 0.0949719 0.
0.616003 0.0949718 0.
0.618003 0.0949729 0.
0.620003 0.0949745 0.
0.622003 0.0949761 0.
0.624003 0.0949767 0.
0.626003 0.0949772 0.
0.628003 0.0949777 0.
0.630003 0.0949782 0.
0.632003 0.0949787 0.
0.634003 0.0949793 0.
0.636004 0.0949802 0.
0.638004 0.094981 0.
0.640004 0.0949822 0.
0.642004 0.0949835 0.
0.644004 0.0949849 0.
0.646005 0.0949854 0.
0.648005 0.0949858 0.
0.650005 0.0949861 0.
0.652005 0.0949869 0.
0.654005 0.0949878 0.
0.656005 0.0949886 0.
0.658005 0.0949895 0.
0.660005 0.0949904 0.
0.662005 0.0949911 0.
0.664006 0.0949918 0.
0.666006 0.0949926 0.
0.668006 0.0949936 0.
0.670006 0.0949948 0.
0.672006 0.094996 0.
0.674006 0.0949969 0.
0.676006 0.0949976 0.
0.678006 0.0949984 0.
0.680006 0.0949992 0.
0.682006 0.0949999 0.
0.684006 0.0950011 0.
0.686007 0.0950029 0.
0.688007 0.0950048 0.
0.690007 0.0950059 0.
0.692007 0.0950064 0.
0.694006 0.0950069 0.
0.696006 0.0950085 0.
0.698007 0.0950104 0.
0.499994 0.0970098 0.
0.501994 0.0970083 0.
0.503993 0.0970066 0.
0.505993 0.097005 0.
0.507993 0.0970037 0.
0.509993 0.0970025 0.
0.511993 0.0970015 0.
0.513994 0.0970011 0.
0.515994 0.0970006 0.
0.517994 0.0970004 0.
0.519994 0.0970002 0.
0.521994 0.0970001 0.
0.523994 0.0969994 0.
0.525994 0.0969987 0.
0.527994 0.0969979 0.
0.529994 0.0969969 0.
0.531995 0.0969958 0.
0.533995 0.0969945 0.
0.535995 0.0969929 0.
0.537995 0.0969913 0.
0.539995 0.0969898 0.
0.541996 0.0969884 0.
0.543996 0.096987 0.
0.545996 0.0969862 0.
0.547995 0.0969856 0.
0.549994 0.096985 0.
0.551995 0.0969838 0.
0.553995 0.0969826 0.
0.555995 0.0969813 0.
0.557995 0.0969803 0.
0.559995 0.0969792 0.
0.561995 0.0969786 0.
0.563996 0.0969787 0.
0.565996 0.0969788 0.
0.567996 0.096978 0.
0.569996 0.0969769 0.
0.571996 0.0969757 0.
0.573996 0.0969758 0.
0.575996 0.096976 0.
0.577996 0.0969762 0.
0.579996 0.0969755 0.
0.581996 0.0969749 0.
0.583996 0.0969745 0.
0.585997 0.0969746 0.
0.587997 0.0969747 0.
0.589997 0.0969742 0.
0.591998 0.0969733 0.
0.593998 0.0969724 0.
0.595999 0.0969725 0.
0.598 0.0969728 0.
0.6 0.0969732 0.
0.602001 0.0969733 0.
0.604001 0.0969735 0.
0.606002 0.0969735 0.
0.608002 0.0969731 0.
0.610002 0.0969726 0.
0.612002 0.0969724 0.
0.614002 0.0969723 0.
0.616002 0.0969722 0.
0.618002 0.0969732 0.
0.620002 0.0969749 0.
0.622001 0.0969765 0.
0.624001 0.096977 0.
0.626002 0.0969774 0.
0.628002 0.0969778 0.
0.630002 0.0969781 0.
0.632001 0.0969784 0.
0.634002 0.0969789 0.
0.636002 0.0969799 0.
0.638002 0.0969809 0.
0.640003 0.0969821 0.
0.642003 0.0969835 0.
0.644003 0.0969849 0.
0.646004 0.0969853 0.
0.648004 0.0969854 0.
0.650004 0.0969855 0.
0.652004 0.0969864 0.
0.654004 0.0969874 0.
0.656004 0.0969883 0.
0.658004 0.0969892 0.
0.660004 0.09699 0.
0.662004 0.0969909 0.
0.664004 0.096992 0.
0.666004 0.096993 0.
0.668004 0.0969941 0.
0.670005 0.0969952 0.
0.672005 0.0969964 0.
0.674005 0.0969969 0.
0.676005 0.0969975 0.
0.678005 0.096998 0.
0.680005 0.0969989 0.
0.682005 0.0969998 0.
0.684006 0.097001 0.
0.686006 0.0970028 0.
0.688006 0.0970046 0.
0.690006 0.0970059 0.
0.692005 0.0970068 0.
0.694005 0.0970076 0.
0.696005 0.0970089 0.
0.698006 0.0970103 0.
0.499997 0.0990101 0.
0.501996 0.0990086 0.
0.503995 0.0990068 0.
0.505994 0.0990051 0.
0.507994 0.0990036 0.
0.509994 0.099002 0.
0.511994 0.099001 0.
0.513994 0.0990008 0.
0.515995 0.0990006 0.
0.517995 0.0990006 0.
0.519995 0.0990009 0.
0.521994 0.0990011 0.
0.523994 0.0989999 0.
0.525994 0.0989986 0.
0.527994 0.0989973 0.
0.529995 0.0989964 0.
0.531996 0.0989956 0.
0.533997 0.0989944 0.
0.535997 0.0989928 0.
0.537997 0.0989912 0.
0.539997 0.0989898 0.
0.541997 0.0989885 0.
0.543997 0.0989873 0.
0.545997 0.0989866 0.
0.547996 0.0989861 0.
0.549995 0.0989856 0.
0.551996 0.0989844 0.
0.553996 0.0989831 0.
0.555996 0.0989819 0.
0.557996 0.0989806 0.
0.559996 0.0989793 0.
0.561996 0.0989786 0.
0.563996 0.0989786 0.
0.565996 0.0989786 0.
0.567996 0.0989779 0.
0.569996 0.0989769 0.
0.571997 0.0989758 0.
0.573996 0.0989758 0.
0.575996 0.0989758 0.
0.577996 0.0989758 0.
0.579996 0.0989753 0.
0.581995 0.0989747 0.
0.583996 0.0989743 0.
0.585996 0.0989742 0.
0.587996 0.0989742 0.
0.589997 0.0989737 0.
0.591998 0.0989729 0.
0.593999 0.0989722 0.
0.596 0.0989724 0.
0.598001 0.098973 0.
0.600001 0.0989735 0.
0.602002 0.0989735 0.
0.604002 0.0989735 0.
0.606002 0.0989734 0.
0.608002 0.0989732 0.
0.610002 0.098973 0.
0.612002 0.0989728 0.
0.614002 0.0989727 0.
0.616002 0.0989725 0.
0.618001 0.0989736 0.
0.620001 0.0989752 0.
0.622 0.0989769 0.
0.624 0.0989773 0.
0.626 0.0989777 0.
0.628 0.098978 0.
0.63 0.098978 0.
0.632 0.0989781 0.
0.634 0.0989785 0.
0.636 0.0989796 0.
0.638001 0.0989807 0.
0.640001 0.098982 0.
0.642002 0.0989835 0.
0.644003 0.0989849 0.
0.646003 0.0989851 0.
0.648003 0.098985 0.
0.650003 0.0989849 0.
0.652003 0.0989859 0.
0.654002 0.098987 0.
0.656003 0.098988 0.
0.658003 0.0989888 0.
0.660003 0.0989896 0.
0.662003 0.0989907 0.
0.664003 0.0989921 0.
0.666003 0.0989935 0.
0.668003 0.0989946 0.
0.670003 0.0989957 0.
0.672003 0.0989967 0.
0.674003 0.098997 0.
0.676003 0.0989973 0.
0.678004 0.0989976 0.
0.680004 0.0989986 0.
0.682005 0.0989996 0.
0.684005 0.0990009 0.
0.686005 0.0990027 0.
0.688005 0.0990045 0.
0.690005 0.0990059 0.
0.692004 0.0990071 0.
0.694004 0.0990083 0.
0.696004 0.0990093 0.
0.698004 0.0990102 0.
CELLS 5000 10000
1 0
1 1
1 2
1 3
1 4
1 5
1 6
1 7
1 8
1 9
1 10
1 11
1 12
1 13
1 14
1 15
1 16
1 17
1 18
1 19
1 20
1 21
1 22
1 23
1 24
1 25
1 26
1 27
1 28
1 29
1 30
1 31
1 32
1 33
1 34
1 35
1 36
1 37
1 38
1 39
1 40
1 41
1 42
1 43
1 44
1 45
1 46
1 47
1 48
1 49
1 50
1 51
1 52
1 53
1 54
1 55
1 56
1 57
1 58
1 59
1 60
1 61
1 62
1 63
1 64
1 65
1 66
1 67
1 68
1 69
1 70
1 71
1 72
1 73
1 74
1 75
1 76
1 77
1 78
1 79
1 80
1 81
1 82
1 83
1 84
1 85
1 86
1 87
1 88
1 89
1 90
1 91
1 92
1 93
1 94
1 95
1 96
1 97
1 98
1 99
1 100
1 101
1 102
1 103
1 104
1 105
1 106
1 107
1 108
1 109
1 110
1 111
1 112
1 113
1 114
1 115
1 116
1 117
1 118
1 119
1 120
1 121
1 122
1 123
1 124
1 125
1 126
1 127
1 128
1 129
1 130
1 131
1 132
1 133
1 134
1 135
1 136
1 137
1 138
1 139
1 140
1 141
1 142
1 143
1 144
1 145
1 146
1 147
1 148
1 149
1 150
1 151
1 152
1 153
1 154
1 155
1 156
1 157
1 158
1 159
1 160
1 161
1 162
1 163
1 164
1 165
1 166
1 167
1 168
1 169
1 170
1 171
1 172
1 173
1 174
1 175
1 176
1 177
1 178
1 179
1 180
1 181
1 182
1 183
1 184
1 185
1 186
1 187
1 188
1 189
1 190
1 191
1 192
1 193
1 194
1 195
1 196
1 197
1 198
1 199
1 200
1 201
1 202
1 203
1 204
1 205
1 206
1 207
1 208
1 209
1 210
1 211
1 212
1 213
1 214
1 215
1 216
1 217
1 218
1 219
1 220
1 221
1 222
1 223
1 224
1 225
1 226
1 227
1 228
1 229
1 230
1 231
1 232
1 233
1 234
1 235
1 236
1 237
1 238
1 239
1 240
1 241
1 242
1 243
1 244
1 245
1 246
1 247
1 248
1 249
1 250
1 251
1 252
1 253
1 254
1 255
1 256
1 257
1 258
1 259
1 260
1 261
1 262
1 263
1 264
1 265
1 266
1 267
1 268
1 269
1 270
1 271
1 272
1 273
1 274
1 275
1 276
1 277
1 278
1 279
1 280
1 281
1 282
1 283
1 284
1 285
1 286
1 287
1 288
1 289
1 290
1 291
1 292
1 293
1 294
1 295
1 296
1 297
1 298
1 299
1 300
1 301
1 302
1 303
1 304
1 305
1 306
1 307
1 308
1 309
1 310
1 311
1 312
1 313
1 314
1 315
1 316
1 317
1 318
1 319
1 320
1 321
1 322
1 323
1 324
1 325
1 326
1 327
1 328
1 329
1 330
1 331
1 332
1 333
1 334
1 335
1 336
1 337
1 338
1 339
1 340
1 341
1 342
1 343
1 344
1 345
1 346
1 347
1 348
1 349
1 350
1 351
1 352
1 353
1 354
1 355
1 356
1 357
1 358
1 359
1 360
1 361
1 362
1 363
1 364
1 365
1 366
1 367
1 368
1 369
1 370
1 371
1 372
1 373
1 374
1 375
1 376
1 377
1 378
1 379
1 380
1 381
1 382
1 383
1 384
1 385
1 386
1 387
1 388
1 389
1 390
1 391
1 392
1 393
1 394
1 395
1 396
1 397
1 398
1 399
1 400
1 401
1 402
1 403
1 404
1 405
1 406
1 407
1 408
1 409
1 410
1 411
1 412
1 413
1 414
1 415
1 416
1 417
1 418
1 419
1 420
1 421
1 422
1 423
1 424
1 425
1 426
1 427
1 428
1 429
1 430
1 431
1 432
1 433
1 434
1 435
1 436
1 437
1 438
1 439
1 440
1 441
1 442
1 443
1 444
1 445
1 446
1 447
1 448
1 449
1 450
1 451
1 452
1 453
1 454
1 455
1 456
1 457
1 458
1 459
1 460
1 461
1 462
1 463
1 464
1 465
1 466
1 467
1 468
1 469
1 470
1 471
1 472
1 473
1 474
1 475
1 476
1 477
1 478
1 479
1 480
1 481
1 482
1 483
1 484
1 485
1 486
1 487
1 488
1 489
1 490
1 491
1 492
1 493
1 494
1 495
1 496
1 497
1 498
1 499
1 500
1 501
1 502
1 503
1 504
1 505
1 506
1 507
1 508
1 509
1 510
1 511
1 512
1 513
1 514
1 515
1 516
1 517
1 518
1 519
1 520
1 521
1 522
1 523
1 524
1 525
1 526
1 527
1 528
1 529
1 530
1 531
1 532
1 533
1 534
1 535
1 536
1 537
1 538
1 539
1 540
1 541
1 542
1 543
1 544
1 545
1 546
1 547
1 548
1 549
1 550
1 551
1 552
1 553
1 554
1 555
1 556
1 557
1 558
1 559
1 560
1 561
1 562
1 563
1 564
1 565
1 566
1 567
1 568
1 569
1 570
1 571
1 572
1 573
1 574
1 575
1 576
1 577
1 578
1 579
1 580
1 581
1 582
1 583
1 584
1 585
1 586
1 587
1 588
1 589
1 590
1 591
1 592
1 593
1 594
1 595
1 596
1 597
1 598
1 599
1 600
1 601
1 602
1 603
1 604
1 605
1 606
1 607
1 608
1 609
1 610
1 611
1 612
1 613
1 614
1 615
1 616
1 617
1 618
1 619
1 620
1 621
1 622
1 623
1 624
1 625
1 626
1 627
1 628
1 629
1 630
1 631
1 632
1 633
1 634
1 635
1 636
1 637
1 638
1 639
1 640
1 641
1 642
1 643
1 644
1 645
1 646
1 647
1 648
1 649
1 650
1 651
1 652
1 653
1 654
1 655
1 656
1 657
1 658
1 659
1 660
1 661
1 662
1 663
1 664
1 665
1 666
1 667
1 668
1 669
1 670
1 671
1 672
1 673
1 674
1 675
1 676
1 677
1 678
1 679
1 680
1 681
1 682
1 683
1 684
1 685
1 686
1 687
1 688
1 689
1 690
1 691
1 692
1 693
1 694
1 695
1 696
1 697
1 698
1 699
1 700
1 701
1 702
1 703
1 704
1 705
1 706
1 707
1 708
1 709
1 710
1 711
1 712
1 713
1 714
1 715
1 716
1 717
1 718
1 719
1 720
1 721
1 722
1 723
1 724
1 725
1 726
1 727
1 728
1 729
1 730
1 731
1 732
1 733
1 734
1 735
1 736
1 737
1 738
1 739
1 740
1 741
1 742
1 743
1 744
1 745
1 746
1 747
1 748
1 749
1 750
1 751
1 752
1 753
1 754
1 755
1 756
1 757
1 758
1 759
1 760
1 761
1 762
1 763
1 764
1 765
1 766
1 767
1 768
1 769
1 770
1 771
1 772
1 773
1 774
1 775
1 776
1 777
1 778
1 779
1 780
1 781
1 782
1 783
1 784
1 785
1 786
1 787
1 788
1 789
1 790
1 791
1 792
1 793
1 794
1 795
1 796
1 797
1 798
1 799
1 800
1 801
1 802
1 803
1 804
1 805
1 806
1 807
1 808
1 809
1 810
1 811
1 812
1 813
1 814
1 815
1 816
1 817
1 818
1 819
1 820
1 821
1 822
1 823
1 824
1 825
1 826
1 827
1 828
1 829
1 830
1 831
1 832
1 833
1 834
1 835
1 836
1 837
1 838
1 839
1 840
1 841
1 842
1 843
1 844
1 845
1 846
1 847
1 848
1 849
1 850
1 851
1 852
1 853
1 854
1 855
1 856
1 857
1 858
1 859
1 860
1 861
1 862
1 863
1 864
1 865
1 866
1 867
1 868
1 869
1 870
1 871
1 872
1 873
1 874
1 875
1 876
1 877
1 878
1 879
1 880
1 881
1 882
1 883
1 884
1 885
1 886
1 887
1 888
1 889
1 890
1 891
1 892
1 893
1 894
1 895
1 896
1 897
1 898
1 899
1 900
1 901
1 902
1 903
1 904
1 905
1 906
1 907
1 908
1 909
1 910
1 911
1 912
1 913
1 914
1 915
1 916
1 917
1 918
1 919
1 920
1 921
1 922
1 923
1 924
1 925
1 926
1 927
1 928
1 929
1 930
1 931
1 932
1 933
1 934
1 935
1 936
1 937
1 938
1 939
1 940
1 941
1 942
1 943
1 944
1 945
1 946
1 947
1 948
1 949
1 950
1 951
1 952
1 953
1 954
1 955
1 956
1 957
1 958
1 959
1 960
1 961
1 962
1 963
1 964
1 965
1 966
1 967
1 968
1 969
1 970
1 971
1 972
1 973
1 974
1 975
1 976
1 977
1 978
1 979
1 980
1 981
1 982
1 983
1 984
1 985
1 986
1 987
1 988
1 989
1 990
1 991
1 992
1 993
1 994
1 995
1 996
1 997
1 998
1 999
1 1000
1 1001
1 1002
1 1003
1 1004
1 1005
1 1006
1 1007
1 1008
1 1009
1 1010
1 1011
1 1012
1 1013
1 1014
1 1015
1 1016
1 1017
1 1018
1 1019
1 1020
1 1021
1 1022
1 1023
1 1024
1 1025
1 1026
1 1027
1 1028
1 1029
1 1030
1 1031
1 1032
1 1033
1 1034
1 1035
1 1036
1 1037
1 1038
1 1039
1 1040
1 1041
1 1042
1 1043
1 1044
1 1045
1 1046
1 1047
1 1048
1 1049
1 1050
1 1051
1 1052
1 1053
1 1054
1 1055
1 1056
1 1057
1 1058
1 1059
1 1060
1 1061
1 1062
1 1063
1 1064
1 1065
1 1066
1 1067
1 1068
1 1069
1 1070
1 1071
1 1072
1 1073
1 1074
1 1075
1 1076
1 1077
1 1078
1 1079
1 1080
1 1081
1 1082
1 1083
1 1084
1 1085
1 1086
1 1087
1 1088
1 1089
1 1090
1 1091
1 1092
1 1093
1 1094
1 1095
1 1096
1 1097
1 1098
1 1099
1 1100
1 1101
1 1102
1 1103
1 1104
1 1105
1 1106
1 1107
1 1108
1 1109
1 1110
1 1111
1 1112
1 1113
1 1114
1 1115
1 1116
1 1117
1 1118
1 1119
1 1120
1 1121
1 1122
1 1123
1 1124
1 1125
1 1126
1 1127
1 1128
1 1129
1 1130
1 1131
1 1132
1 1133
1 1134
1 1135
1 1136
1 1137
1 1138
1 1139
1 1140
1 1141
1 1142
1 1143
1 1144
1 1145
1 1146
1 1147
1 1148
1 1149
1 1150
1 1151
1 1152
1 1153
1 1154
1 1155
1 1156
1 1157
1 1158
1 1159
1 1160
1 1161
1 1162
1 1163
1 1164
1 1165
1 1166
1 1167
1 1168
1 1169
1 1170
1 1171
1 1172
1 1173
1 1174
1 1175
1 1176
1 1177
1 1178
1 1179
1 1180
1 1181
1 1182
1 1183
1 1184
1 1185
1 1186
1 1187
1 1188
1 1189
1 1190
1 1191
1 1192
1 1193
1 1194
1 1195
1 1196
1 1197
1 1198
1 1199
1 1200
1 1201
1 1202
1 1203
1 1204
1 1205
1 1206
1 1207
1 1208
1 1209
1 1210
1 1211
1 1212
1 1213
1 1214
1 1215
1 1216
1 1217
1 1218
1 1219
1 1220
1 1221
1 1222
1 1223
1 1224
1 1225
1 1226
1 1227
1 1228
1 1229
1 1230
1 1231
1 1232
1 1233
1 1234
1 1235
1 1236
1 1237
1 1238
1 1239
1 1240
1 1241
1 1242
1 1243
1 1244
1 1245
1 1246
1 1247
1 1248
1 1249
1 1250
1 1251
1 1252
1 1253
1 1254
1 1255
1 1256
1 1257
1 1258
1 1259
1 1260
1 1261
1 1262
1 1263
1 1264
1 1265
1 1266
1 1267
1 1268
1 1269
1 1270
1 1271
1 1272
1 1273
1 1274
1 1275
1 1276
1 1277
1 1278
1 1279
1 1280
1 1281
1 1282
1 1283
1 1284
1 1285
1 1286
1 1287
1 1288
1 1289
1 1290
1 1291
1 1292
1 1293
1 1294
1 1295
1 1296
1 1297
1 1298
1 1299
1 1300
1 1301
1 1302
1 1303
1 1304
1 1305
1 1306
1 1307
1 1308
1 1309
1 1310
1 1311
1 1312
1 1313
1 1314
1 1315
1 1316
1 1317
1 1318
1 1319
1 1320
1 1321
1 1322
1 1323
1 1324
1 1325
1 1326
1 1327
1 1328
1 1329
1 1330
1 1331
1 1332
1 1333
1 1334
1 1335
1 1336
1 1337
1 1338
1 1339
1 1340
1 1341
1 1342
1 1343
1 1344
1 1345
1 1346
1 1347
1 1348
1 1349
1 1350
1 1351
1 1352
1 1353
1 1354
1 1355
1 1356
1 1357
1 1358
1 1359
1 1360
1 1361
1 1362
1 1363
1 1364
1 1365
1 1366
1 1367
1 1368
1 1369
1 1370
1 1371
1 1372
1 1373
1 1374
1 1375
1 1376
1 1377
1 1378
1 1379
1 1380
1 1381
1 1382
1 1383
1 1384
1 1385
1 1386
1 1387
1 1388
1 1389
1 1390
1 1391
1 1392
1 1393
1 1394
1 1395
1 1396
1 1397
1 1398
1 1399
1 1400
1 1401
1 1402
1 1403
1 1404
1 1405
1 1406
1 1407
1 1408
1 1409
1 1410
1 1411
1 1412
1 1413
1 1414
1 1415
1 1416
1 1417
1 1418
1 1419
1 1420
1 1421
1 1422
1 1423
1 1424
1 1425
1 1426
1 1427
1 1428
1 1429
1 1430
1 1431
1 1432
1 1433
1 1434
1 1435
1 1436
1 1437
1 1438
1 1439
1 1440
1 1441
1 1442
1 1443
1 1444
1 1445
1 1446
1 1447
1 1448
1 1449
1 1450
1 1451
1 1452
1 1453
1 1454
1 1455
1 1456
1 1457
1 1458
1 1459
1 1460
1 1461
1 1462
1 1463
1 1464
1 1465
1 1466
1 1467
1 1468
1 1469
1 1470
1 1471
1 1472
1 1473
1 1474
1 1475
1 1476
1 1477
1 1478
1 1479
1 1480
1 1481
1 1482
1 1483
1 1484
1 1485
1 1486
1 1487
1 1488
1 1489
1 1490
1 1491
1 1492
1 1493
1 1494
1 1495
1 1496
1 1497
1 1498
1 1499
1 1500
1 1501
1 1502
1 1503
1 1504
1 1505
1 1506
1 1507
1 1508
1 1509
1 1510
1 1511
1 1512
1 1513
1 1514
1 1515
1 1516
1 1517
1 1518
1 1519
1 1520
1 1521
1 1522
1 1523
1 1524
1 1525
1 1526
1 1527
1 1528
1 1529
1 1530
1 1531
1 1532
1 1533
1 1534
1 1535
1 1536
1 1537
1 1538
1 1539
1 1540
1 1541
1 1542
1 1543
1 1544
1 1545
1 1546
1 1547
1 1548
1 1549
1 1550
1 1551
1 1552
1 1553
1 1554
1 1555
1 1556
1 1557
1 1558
1 1559
1 1560
1 1561
1 1562
1 1563
1 1564
1 1565
1 1566
1 1567
1 1568
1 1569
1 1570
1 1571
1 1572
1 1573
1 1574
1 1575
1 1576
1 1577
1 1578
1 1579
1 1580
1 1581
1 1582
1 1583
1 1584
1 1585
1 1586
1 1587
1 1588
1 1589
1 1590
1 1591
1 1592
1 1593
1 1594
1 1595
1 1596
1 1597
1 1598
1 1599
1 1600
1 1601
1 1602
1 1603
1 1604
1 1605
1 1606
1 1607
1 1608
1 1609
1 1610
1 1611
1 1612
1 1613
1 1614
1 1615
1 1616
1 1617
1 1618
1 1619
1 1620
1 1621
1 1622
1 1623
1 1624
1 1625
1 1626
1 1627
1 1628
1 1629
1 1630
1 1631
1 1632
1 1633
1 1634
1 1635
1 1636
1 1637
1 1638
1 1639
1 1640
1 1641
1 1642
1 1643
1 1644
1 1645
1 1646
1 1647
1 1648
1 1649
1 1650
1 1651
1 1652
1 1653
1 1654
1 1655
1 1656
1 1657
1 1658
1 1659
1 1660
1 1661
1 1662
1 1663
1 1664
1 1665
1 1666
1 1667
1 1668
1 1669
1 1670
1 1671
1 1672
1 1673
1 1674
1 1675
1 1676
1 1677
1 1678
1 1679
1 1680
1 1681
1 1682
1 1683
1 1684
1 1685
1 1686
1 1687
1 1688
1 1689
1 1690
1 1691
1 1692
1 1693
1 1694
1 1695
1 1696
1 1697
1 1698
1 1699
1 1700
1 1701
1 1702
1 1703
1 1704
1 1705
1 1706
1 1707
1 1708
1 1709
1 1710
1 1711
1 1712
1 1713
1 1714
1 1715
1 1716
1 1717
1 1718
1 1719
1 1720
1 1721
1 1722
1 1723
1 1724
1 1725
1 1726
1 1727
1 1728
1 1729
1 1730
1 1731
1 1732
1 1733
1 1734
1 1735
1 1736
1 1737
1 1738
1 1739
1 1740
1 1741
1 1742
1 1743
1 1744
1 1745
1 1746
1 1747
1 1748
1 1749
1 1750
1 1751
1 1752
1 1753
1 1754
1 1755
1 1756
1 1757
1 1758
1 1759
1 1760
1 1761
1 1762
1 1763
1 1764
1 1765
1 1766
1 1767
1 1768
1 1769
1 1770
1 1771
1 1772
1 1773
1 1774
1 1775
1 1776
1 1777
1 1778
1 1779
1 1780
1 1781
1 1782
1 1783
1 1784
1 1785
1 1786
1 1787
1 1788
1 1789
1 1790
1 1791
1 1792
1 1793
1 1794
1 1795
1 1796
1 1797
1 1798
1 1799
1 1800
1 1801
1 1802
1 1803
1 1804
1 1805
1 1806
1 1807
1 1808
1 1809
1 1810
1 1811
1 1812
1 1813
1 1814
1 1815
1 1816
1 1817
1 1818
1 1819
1 1820
1 1821
1 1822
1 1823
1 1824
1 1825
1 1826
1 1827
1 1828
1 1829
1 1830
1 1831
1 1832
1 1833
1 1834
1 1835
1 1836
1 1837
1 1838
1 1839
1 1840
1 1841
1 1842
1 1843
1 1844
1 1845
1 1846
1 1847
1 1848
1 1849
1 1850
1 1851
1 1852
1 1853
1 1854
1 1855
1 1856
1 1857
1 1858
1 1859
1 1860
1 1861
1 1862
1 1863
1 1864
1 1865
1 1866
1 1867
1 1868
1 1869
1 1870
1 1871
1 1872
1 1873
1 1874
1 1875
1 1876
1 1877
1 1878
1 1879
1 1880
1 1881
1 1882
1 1883
1 1884
1 1885
1 1886
1 1887
1 1888
1 1889
1 1890
1 1891
1 1892
1 1893
1 1894
1 1895
1 1896
1 1897
1 1898
1 1899
1 1900
1 1901
1 1902
1 1903
1 1904
1 1905
1 1906
1 1907
1 1908
1 1909
1 1910
1 1911
1 1912
1 1913
1 1914
1 1915
1 1916
1 1917
1 1918
1 1919
1 1920
1 1921
1 1922
1 1923
1 1924
1 1925
1 1926
1 1927
1 1928
1 1929
1 1930
1 1931
1 1932
1 1933
1 1934
1 1935
1 1936
1 1937
1 1938
1 1939
1 1940
1 1941
1 1942
1 1943
1 1944
1 1945
1 1946
1 1947
1 1948
1 1949
1 1950
1 1951
1 1952
1 1953
1 1954
1 1955
1 1956
1 1957
1 1958
1 1959
1 1960
1 1961
1 1962
1 1963
1 1964
1 1965
1 1966
1 1967
1 1968
1 1969
1 1970
1 1971
1 1972
1 1973
1 1974
1 1975
1 1976
1 1977
1 1978
1 1979
1 1980
1 1981
1 1982
1 1983
1 1984
1 1985
1 1986
1 1987
1 1988
1 1989
1 1990
1 1991
1 1992
1 1993
1 1994
1 1995
1 1996
1 1997
1 1998
1 1999
1 2000
1 2001
1 2002
1 2003
1 2004
1 2005
1 2006
1 2007
1 2008
1 2009
1 2010
1 2011
1 2012
1 2013
1 2014
1 2015
1 2016
1 2017
1 2018
1 2019
1 2020
1 2021
1 2022
1 2023
1 2024
1 2025
1 2026
1 2027
1 2028
1 2029
1 2030
1 2031
1 2032
1 2033
1 2034
1 2035
1 2036
1 2037
1 2038
1 2039
1 2040
1 2041
1 2042
1 2043
1 2044
1 2045
1 2046
1 2047
1 2048
1 2049
1 2050
1 2051
1 2052
1 2053
1 2054
1 2055
1 2056
1 2057
1 2058
1 2059
1 2060
1 2061
1 2062
1 2063
1 2064
1 2065
1 2066
1 2067
1 2068
1 2069
1 2070
1 2071
1 2072
1 2073
1 2074
1 2075
1 2076
1 2077
1 2078
1 2079
1 2080
1 2081
1 2082
1 2083
1 2084
1 2085
1 2086
1 2087
1 2088
1 2089
1 2090
1 2091
1 2092
1 2093
1 2094
1 2095
1 2096
1 2097
1 2098
1 2099
1 2100
1 2101
1 2102
1 2103
1 2104
1 2105
1 2106
1 2107
1 2108
1 2109
1 2110
1 2111
1 2112
1 2113
1 2114
1 2115
1 2116
1 2117
1 2118
1 2119
1 2120
1 2121
1 2122
1 2123
1 2124
1 2125
1 2126
1 2127
1 2128
1 2129
1 2130
1 2131
1 2132
1 2133
1 2134
1 2135
1 2136
1 2137
1 2138
1 2139
1 2140
1 2141
1 2142
1 2143
1 2144
1 2145
1 2146
1 2147
1 2148
1 2149
1 2150
1 2151
1 2152
1 2153
1 2154
1 2155
1 2156
1 2157
1 2158
1 2159
1 2160
1 2161
1 2162
1 2163
1 2164
1 2165
1 2166
1 2167
1 2168
1 2169
1 2170
1 2171
1 2172
1 2173
1 2174
1 2175
1 2176
1 2177
1 2178
1 2179
1 2180
1 2181
1 2182
1 2183
1 2184
1 2185
1 2186
1 2187
1 2188
1 2189
1 2190
1 2191
1 2192
1 2193
1 2194
1 2195
1 2196
1 2197
1 2198
1 2199
1 2200
1 2201
1 2202
1 2203
1 2204
1 2205
1 2206
1 2207
1 2208
1 2209
1 2210
1 2211
1 2212
1 2213
1 2214
1 2215
1 2216
1 2217
1 2218
1 2219
1 2220
1 2221
1 2222
1 2223
1 2224
1 2225
1 2226
1 2227
1 2228
1 2229
1 2230
1 2231
1 2232
1 2233
1 2234
1 2235
1 2236
1 2237
1 2238
1 2239
1 2240
1 2241
1 2242
1 2243
1 2244
1 2245
1 2246
1 2247
1 2248
1 2249
1 2250
1 2251
1 2252
1 2253
1 2254
1 2255
1 2256
1 2257
1 2258
1 2259
1 2260
1 2261
1 2262
1 2263
1 2264
1 2265
1 2266
1 2267
1 2268
1 2269
1 2270
1 2271
1 2272
1 2273
1 2274
1 2275
1 2276
1 2277
1 2278
1 2279
1 2280
1 2281
1 2282
1 2283
1 2284
1 2285
1 2286
1 2287
1 2288
1 2289
1 2290
1 2291
1 2292
1 2293
1 2294
1 2295
1 2296
1 2297
1 2298
1 2299
1 2300
1 2301
1 2302
1 2303
1 2304
1 2305
1 2306
1 2307
1 2308
1 2309
1 2310
1 2311
1 2312
1 2313
1 2314
1 2315
1 2316
1 2317
1 2318
1 2319
1 2320
1 2321
1 2322
1 2323
1 2324
1 2325
1 2326
1 2327
1 2328
1 2329
1 2330
1 2331
1 2332
1 2333
1 2334
1 2335
1 2336
1 2337
1 2338
1 2339
1 2340
1 2341
1 2342
1 2343
1 2344
1 2345
1 2346
1 2347
1 2348
1 2349
1 2350
1 2351
1 2352
1 2353
1 2354
1 2355
1 2356
1 2357
1 2358
1 2359
1 2360
1 2361
1 2362
1 2363
1 2364
1 2365
1 2366
1 2367
1 2368
1 2369
1 2370
1 2371
1 2372
1 2373
1 2374
1 2375
1 2376
1 2377
1 2378
1 2379
1 2380
1 2381
1 2382
1 2383
1 2384
1 2385
1 2386
1 2387
1 2388
1 2389
1 2390
1 2391
1 2392
1 2393
1 2394
1 2395
1 2396
1 2397
1 2398
1 2399
1 2400
1 2401
1 2402
1 2403
1 2404
1 2405
1 2406
1 2407
1 2408
1 2409
1 2410
1 2411
1 2412
1 2413
1 2414
1 2415
1 2416
1 2417
1 2418
1 2419
1 2420
1 2421
1 2422
1 2423
1 2424
1 2425
1 2426
1 2427
1 2428
1 2429
1 2430
1 2431
1 2432
1 2433
1 2434
1 2435
1 2436
1 2437
1 2438
1 2439
1 2440
1 2441
1 2442
1 2443
1 2444
1 2445
1 2446
1 2447
1 2448
1 2449
1 2450
1 2451
1 2452
1 2453
1 2454
1 2455
1 2456
1 2457
1 2458
1 2459
1 2460
1 2461
1 2462
1 2463
1 2464
1 2465
1 2466
1 2467
1 2468
1 2469
1 2470
1 2471
1 2472
1 2473
1 2474
1 2475
1 2476
1 2477
1 2478
1 2479
1 2480
1 2481
1 2482
1 2483
1 2484
1 2485
1 2486
1 2487
1 2488
1 2489
1 2490
1 2491
1 2492
1 2493
1 2494
1 2495
1 2496
1 2497
1 2498
1 2499
1 2500
1 2501
1 2502
1 2503
1 2504
1 2505
1 2506
1 2507
1 2508
1 2509
1 2510
1 2511
1 2512
1 2513
1 2514
1 2515
1 2516
1 2517
1 2518
1 2519
1 2520
1 2521
1 2522
1 2523
1 2524
1 2525
1 2526
1 2527
1 2528
1 2529
1 2530
1 2531
1 2532
1 2533
1 2534
1 2535
1 2536
1 2537
1 2538
1 2539
1 2540
1 2541
1 2542
1 2543
1 2544
1 2545
1 2546
1 2547
1 2548
1 2549
1 2550
1 2551
1 2552
1 2553
1 2554
1 2555
1 2556
1 2557
1 2558
1 2559
1 2560
1 2561
1 2562
1 2563
1 2564
1 2565
1 2566
1 2567
1 2568
1 2569
1 2570
1 2571
1 2572
1 2573
1 2574
1 2575
1 2576
1 2577
1 2578
1 2579
1 2580
1 2581
1 2582
1 2583
1 2584
1 2585
1 2586
1 2587
1 2588
1 2589
1 2590
1 2591
1 2592
1 2593
1 2594
1 2595
1 2596
1 2597
1 2598
1 2599
1 2600
1 2601
1 2602
1 2603
1 2604
1 2605
1 2606
1 2607
1 2608
1 2609
1 2610
1 2611
1 2612
1 2613
1 2614
1 2615
1 2616
1 2617
1 2618
1 2619
1 2620
1 2621
1 2622
1 2623
1 2624
1 2625
1 2626
1 2627
1 2628
1 2629
1 2630
1 2631
1 2632
1 2633
1 2634
1 2635
1 2636
1 2637
1 2638
1 2639
1 2640
1 2641
1 2642
1 2643
1 2644
1 2645
1 2646
1 2647
1 2648
1 2649
1 2650
1 2651
1 2652
1 2653
1 2654
1 2655
1 2656
1 2657
1 2658
1 2659
1 2660
1 2661
1 2662
1 2663
1 2664
1 2665
1 2666
1 2667
1 2668
1 2669
1 2670
1 2671
1 2672
1 2673
1 2674
1 2675
1 2676
1 2677
1 2678
1 2679
1 2680
1 2681
1 2682
1 2683
1 2684
1 2685
1 2686
1 2687
1 2688
1 2689
1 2690
1 2691
1 2692
1 2693
1 2694
1 2695
1 2696
1 2697
1 2698
1 2699
1 2700
1 2701
1 2702
1 2703
1 2704
1 2705
1 2706
1 2707
1 2708
1 2709
1 2710
1 2711
1 2712
1 2713
1 2714
1 2715
1 2716
1 2717
1 2718
1 2719
1 2720
1 2721
1 2722
1 2723
1 2724
1 2725
1 2726
1 2727
1 2728
1 2729
1 2730
1 2731
1 2732
1 2733
1 2734
1 2735
1 2736
1 2737
1 2738
1 2739
1 2740
1 2741
1 2742
1 2743
1 2744
1 2745
1 2746
1 2747
1 2748
1 2749
1 2750
1 2751
1 2752
1 2753
1 2754
1 2755
1 2756
1 2757
1 2758
1 2759
1 2760
1 2761
1 2762
1 2763
1 2764
1 2765
1 2766
1 2767
1 2768
1 2769
1 2770
1 2771
1 2772
1 2773
1 2774
1 2775
1 2776
1 2777
1 2778
1 2779
1 2780
1 2781
1 2782
1 2783
1 2784
1 2785
1 2786
1 2787
1 2788
1 2789
1 2790
1 2791
1 2792
1 2793
1 2794
1 2795
1 2796
1 2797
1 2798
1 2799
1 2800
1 2801
1 2802
1 2803
1 2804
1 2805
1 2806
1 2807
1 2808
1 2809
1 2810
1 2811
1 2812
1 2813
1 2814
1 2815
1 2816
1 2817
1 2818
1 2819
1 2820
1 2821
1 2822
1 2823
1 2824
1 2825
1 2826
1 2827
1 2828
1 2829
1 2830
1 2831
1 2832
1 2833
1 2834
1 2835
1 2836
1 2837
1 2838
1 2839
1 2840
1 2841
1 2842
1 2843
1 2844
1 2845
1 2846
1 2847
1 2848
1 2849
1 2850
1 2851
1 2852
1 2853
1 2854
1 2855
1 2856
1 2857
1 2858
1 2859
1 2860
1 2861
1 2862
1 2863
1 2864
1 2865
1 2866
1 2867
1 2868
1 2869
1 2870
1 2871
1 2872
1 2873
1 2874
1 2875
1 2876
1 2877
1 2878
1 2879
1 2880
1 2881
1 2882
1 2883
1 2884
1 2885
1 2886
1 2887
1 2888
1 2889
1 2890
1 2891
1 2892
1 2893
1 2894
1 2895
1 2896
1 2897
1 2898
1 2899
1 2900
1 2901
1 2902
1 2903
1 2904
1 2905
1 2906
1 2907
1 2908
1 2909
1 2910
1 2911
1 2912
1 2913
1 2914
1 2915
1 2916
1 2917
1 2918
1 2919
1 2920
1 2921
1 2922
1 2923
1 2924
1 2925
1 2926
1 2927
1 2928
1 2929
1 2930
1 2931
1 2932
1 2933
1 2934
1 2935
1 2936
1 2937
1 2938
1 2939
1 2940
1 2941
1 2942
1 2943
1 2944
1 2945
1 2946
1 2947
1 2948
1 2949
1 2950
1 2951
1 2952
1 2953
1 2954
1 2955
1 2956
1 2957
1 2958
1 2959
1 2960
1 2961
1 2962
1 2963
1 2964
1 2965
1 2966
1 2967
1 2968
1 2969
1 2970
1 2971
1 2972
1 2973
1 2974
1 2975
1 2976
1 2977
1 2978
1 2979
1 2980
1 2981
1 2982
1 2983
1 2984
1 2985
1 2986
1 2987
1 2988
1 2989
1 2990
1 2991
1 2992
1 2993
1 2994
1 2995
1 2996
1 2997
1 2998
1 2999
1 3000
1 3001
1 3002
1 3003
1 3004
1 3005
1 3006
1 3007
1 3008
1 3009
1 3010
1 3011
1 3012
1 3013
1 3014
1 3015
1 3016
1 3017
1 3018
1 3019
1 3020
1 3021
1 3022
1 3023
1 3024
1 3025
1 3026
1 3027
1 3028
1 3029
1 3030
1 3031
1 3032
1 3033
1 3034
1 3035
1 3036
1 3037
1 3038
1 3039
1 3040
1 3041
1 3042
1 3043
1 3044
1 3045
1 3046
1 3047
1 3048
1 3049
1 3050
1 3051
1 3052
1 3053
1 3054
1 3055
1 3056
1 3057
1 3058
1 3059
1 3060
1 3061
1 3062
1 3063
1 3064
1 3065
1 3066
1 3067
1 3068
1 3069
1 3070
1 3071
1 3072
1 3073
1 3074
1 3075
1 3076
1 3077
1 3078
1 3079
1 3080
1 3081
1 3082
1 3083
1 3084
1 3085
1 3086
1 3087
1 3088
1 3089
1 3090
1 3091
1 3092
1 3093
1 3094
1 3095
1 3096
1 3097
1 3098
1 3099
1 3100
1 3101
1 3102
1 3103
1 3104
1 3105
1 3106
1 3107
1 3108
1 3109
1 3110
1 3111
1 3112
1 3113
1 3114
1 3115
1 3116
1 3117
1 3118
1 3119
1 3120
1 3121
1 3122
1 3123
1 3124
1 3125
1 3126
1 3127
1 3128
1 3129
1 3130
1 3131
1 3132
1 3133
1 3134
1 3135
1 3136
1 3137
1 3138
1 3139
1 3140
1 3141
1 3142
1 3143
1 3144
1 3145
1 3146
1 3147
1 3148
1 3149
1 3150
1 3151
1 3152
1 3153
1 3154
1 3155
1 3156
1 3157
1 3158
1 3159
1 3160
1 3161
1 3162
1 3163
1 3164
1 3165
1 3166
1 3167
1 3168
1 3169
1 3170
1 3171
1 3172
1 3173
1 3174
1 3175
1 3176
1 3177
1 3178
1 3179
1 3180
1 3181
1 3182
1 3183
1 3184
1 3185
1 3186
1 3187
1 3188
1 3189
1 3190
1 3191
1 3192
1 3193
1 3194
1 3195
1 3196
1 3197
1 3198
1 3199
1 3200
1 3201
1 3202
1 3203
1 3204
1 3205
1 3206
1 3207
1 3208
1 3209
1 3210
1 3211
1 3212
1 3213
1 3214
1 3215
1 3216
1 3217
1 3218
1 3219
1 3220
1 3221
1 3222
1 3223
1 3224
1 3225
1 3226
1 3227
1 3228
1 3229
1 3230
1 3231
1 3232
1 3233
1 3234
1 3235
1 3236
1 3237
1 3238
1 3239
1 3240
1 3241
1 3242
1 3243
1 3244
1 3245
1 3246
1 3247
1 3248
1 3249
1 3250
1 3251
1 3252
1 3253
1 3254
1 3255
1 3256
1 3257
1 3258
1 3259
1 3260
1 3261
1 3262
1 3263
1 3264
1 3265
1 3266
1 3267
1 3268
1 3269
1 3270
1 3271
1 3272
1 3273
1 3274
1 3275
1 3276
1 3277
1 3278
1 3279
1 3280
1 3281
1 3282
1 3283
1 3284
1 3285
1 3286
1 3287
1 3288
1 3289
1 3290
1 3291
1 3292
1 3293
1 3294
1 3295
1 3296
1 3297
1 3298
1 3299
1 3300
1 3301
1 3302
1 3303
1 3304
1 3305
1 3306
1 3307
1 3308
1 3309
1 3310
1 3311
1 3312
1 3313
1 3314
1 3315
1 3316
1 3317
1 3318
1 3319
1 3320
1 3321
1 3322
1 3323
1 3324
1 3325
1 3326
1 3327
1 3328
1 3329
1 3330
1 3331
1 3332
1 3333
1 3334
1 3335
1 3336
1 3337
1 3338
1 3339
1 3340
1 3341
1 3342
1 3343
1 3344
1 3345
1 3346
1 3347
1 3348
1 3349
1 3350
1 3351
1 3352
1 3353
1 3354
1 3355
1 3356
1 3357
1 3358
1 3359
1 3360
1 3361
1 3362
1 3363
1 3364
1 3365
1 3366
1 3367
1 3368
1 3369
1 3370
1 3371
1 3372
1 3373
1 3374
1 3375
1 3376
1 3377
1 3378
1 3379
1 3380
1 3381
1 3382
1 3383
1 3384
1 3385
1 3386
1 3387
1 3388
1 3389
1 3390
1 3391
1 3392
1 3393
1 3394
1 3395
1 3396
1 3397
1 3398
1 3399
1 3400
1 3401
1 3402
1 3403
1 3404
1 3405
1 3406
1 3407
1 3408
1 3409
1 3410
1 3411
1 3412
1 3413
1 3414
1 3415
1 3416
1 3417
1 3418
1 3419
1 3420
1 3421
1 3422
1 3423
1 3424
1 3425
1 3426
1 3427
1 3428
1 3429
1 3430
1 3431
1 3432
1 3433
1 3434
1 3435
1 3436
1 3437
1 3438
1 3439
1 3440
1 3441
1 3442
1 3443
1 3444
1 3445
1 3446
1 3447
1 3448
1 3449
1 3450
1 3451
1 3452
1 3453
1 3454
1 3455
1 3456
1 3457
1 3458
1 3459
1 3460
1 3461
1 3462
1 3463
1 3464
1 3465
1 3466
1 3467
1 3468
1 3469
1 3470
1 3471
1 3472
1 3473
1 3474
1 3475
1 3476
1 3477
1 3478
1 3479
1 3480
1 3481
1 3482
1 3483
1 3484
1 3485
1 3486
1 3487
1 3488
1 3489
1 3490
1 3491
1 3492
1 3493
1 3494
1 3495
1 3496
1 3497
1 3498
1 3499
1 3500
1 3501
1 3502
1 3503
1 3504
1 3505
1 3506
1 3507
1 3508
1 3509
1 3510
1 3511
1 3512
1 3513
1 3514
1 3515
1 3516
1 3517
1 3518
1 3519
1 3520
1 3521
1 3522
1 3523
1 3524
1 3525
1 3526
1 3527
1 3528
1 3529
1 3530
1 3531
1 3532
1 3533
1 3534
1 3535
1 3536
1 3537
1 3538
1 3539
1 3540
1 3541
1 3542
1 3543
1 3544
1 3545
1 3546
1 3547
1 3548
1 3549
1 3550
1 3551
1 3552
1 3553
1 3554
1 3555
1 3556
1 3557
1 3558
1 3559
1 3560
1 3561
1 3562
1 3563
1 3564
1 3565
1 3566
1 3567
1 3568
1 3569
1 3570
1 3571
1 3572
1 3573
1 3574
1 3575
1 3576
1 3577
1 3578
1 3579
1 3580
1 3581
1 3582
1 3583
1 3584
1 3585
1 3586
1 3587
1 3588
1 3589
1 3590
1 3591
1 3592
1 3593
1 3594
1 3595
1 3596
1 3597
1 3598
1 3599
1 3600
1 3601
1 3602
1 3603
1 3604
1 3605
1 3606
1 3607
1 3608
1 3609
1 3610
1 3611
1 3612
1 3613
1 3614
1 3615
1 3616
1 3617
1 3618
1 3619
1 3620
1 3621
1 3622
1 3623
1 3624
1 3625
1 3626
1 3627
1 3628
1 3629
1 3630
1 3631
1 3632
1 3633
1 3634
1 3635
1 3636
1 3637
1 3638
1 3639
1 3640
1 3641
1 3642
1 3643
1 3644
1 3645
1 3646
1 3647
1 3648
1 3649
1 3650
1 3651
1 3652
1 3653
1 3654
1 3655
1 3656
1 3657
1 3658
1 3659
1 3660
1 3661
1 3662
1 3663
1 3664
1 3665
1 3666
1 3667
1 3668
1 3669
1 3670
1 3671
1 3672
1 3673
1 3674
1 3675
1 3676
1 3677
1 3678
1 3679
1 3680
1 3681
1 3682
1 3683
1 3684
1 3685
1 3686
1 3687
1 3688
1 3689
1 3690
1 3691
1 3692
1 3693
1 3694
1 3695
1 3696
1 3697
1 3698
1 3699
1 3700
1 3701
1 3702
1 3703
1 3704
1 3705
1 3706
1 3707
1 3708
1 3709
1 3710
1 3711
1 3712
1 3713
1 3714
1 3715
1 3716
1 3717
1 3718
1 3719
1 3720
1 3721
1 3722
1 3723
1 3724
1 3725
1 3726
1 3727
1 3728
1 3729
1 3730
1 3731
1 3732
1 3733
1 3734
1 3735
1 3736
1 3737
1 3738
1 3739
1 3740
1 3741
1 3742
1 3743
1 3744
1 3745
1 3746
1 3747
1 3748
1 3749
1 3750
1 3751
1 3752
1 3753
1 3754
1 3755
1 3756
1 3757
1 3758
1 3759
1 3760
1 3761
1 3762
1 3763
1 3764
1 3765
1 3766
1 3767
1 3768
1 3769
1 3770
1 3771
1 3772
1 3773
1 3774
1 3775
1 3776
1 3777
1 3778
1 3779
1 3780
1 3781
1 3782
1 3783
1 3784
1 3785
1 3786
1 3787
1 3788
1 3789
1 3790
1 3791
1 3792
1 3793
1 3794
1 3795
1 3796
1 3797
1 3798
1 3799
1 3800
1 3801
1 3802
1 3803
1 3804
1 3805
1 3806
1 3807
1 3808
1 3809
1 3810
1 3811
1 3812
1 3813
1 3814
1 3815
1 3816
1 3817
1 3818
1 3819
1 3820
1 3821
1 3822
1 3823
1 3824
1 3825
1 3826
1 3827
1 3828
1 3829
1 3830
1 3831
1 3832
1 3833
1 3834
1 3835
1 3836
1 3837
1 3838
1 3839
1 3840
1 3841
1 3842
1 3843
1 3844
1 3845
1 3846
1 3847
1 3848
1 3849
1 3850
1 3851
1 3852
1 3853
1 3854
1 3855
1 3856
1 3857
1 3858
1 3859
1 3860
1 3861
1 3862
1 3863
1 3864
1 3865
1 3866
1 3867
1 3868
1 3869
1 3870
1 3871
1 3872
1 3873
1 3874
1 3875
1 3876
1 3877
1 3878
1 3879
1 3880
1 3881
1 3882
1 3883
1 3884
1 3885
1 3886
1 3887
1 3888
1 3889
1 3890
1 3891
1 3892
1 3893
1 3894
1 3895
1 3896
1 3897
1 3898
1 3899
1 3900
1 3901
1 3902
1 3903
1 3904
1 3905
1 3906
1 3907
1 3908
1 3909
1 3910
1 3911
1 3912
1 3913
1 3914
1 3915
1 3916
1 3917
1 3918
1 3919
1 3920
1 3921
1 3922
1 3923
1 3924
1 3925
1 3926
1 3927
1 3928
1 3929
1 3930
1 3931
1 3932
1 3933
1 3934
1 3935
1 3936
1 3937
1 3938
1 3939
1 3940
1 3941
1 3942
1 3943
1 3944
1 3945
1 3946
1 3947
1 3948
1 3949
1 3950
1 3951
1 3952
1 3953
1 3954
1 3955
1 3956
1 3957
1 3958
1 3959
1 3960
1 3961
1 3962
1 3963
1 3964
1 3965
1 3966
1 3967
1 3968
1 3969
1 3970
1 3971
1 3972
1 3973
1 3974
1 3975
1 3976
1 3977
1 3978
1 3979
1 3980
1 3981
1 3982
1 3983
1 3984
1 3985
1 3986
1 3987
1 3988
1 3989
1 3990
1 3991
1 3992
1 3993
1 3994
1 3995
1 3996
1 3997
1 3998
1 3999
1 4000
1 4001
1 4002
1 4003
1 4004
1 4005
1 4006
1 4007
1 4008
1 4009
1 4010
1 4011
1 4012
1 4013
1 4014
1 4015
1 4016
1 4017
1 4018
1 4019
1 4020
1 4021
1 4022
1 4023
1 4024
1 4025
1 4026
1 4027
1 4028
1 4029
1 4030
1 4031
1 4032
1 4033
1 4034
1 4035
1 4036
1 4037
1 4038
1 4039
1 4040
1 4041
1 4042
1 4043
1 4044
1 4045
1 4046
1 4047
1 4048
1 4049
1 4050
1 4051
1 4052
1 4053
1 4054
1 4055
1 4056
1 4057
1 4058
1 4059
1 4060
1 4061
1 4062
1 4063
1 4064
1 4065
1 4066
1 4067
1 4068
1 4069
1 4070
1 4071
1 4072
1 4073
1 4074
1 4075
1 4076
1 4077
1 4078
1 4079
1 4080
1 4081
1 4082
1 4083
1 4084
1 4085
1 4086
1 4087
1 4088
1 4089
1 4090
1 4091
1 4092
1 4093
1 4094
1 4095
1 4096
1 4097
1 4098
1 4099
1 4100
1 4101
1 4102
1 4103
1 4104
1 4105
1 4106
1 4107
1 4108
1 4109
1 4110
1 4111
1 4112
1 4113
1 4114
1 4115
1 4116
1 4117
1 4118
1 4119
1 4120
1 4121
1 4122
1 4123
1 4124
1 4125
1 4126
1 4127
1 4128
1 4129
1 4130
1 4131
1 4132
1 4133
1 4134
1 4135
1 4136
1 4137
1 4138
1 4139
1 4140
1 4141
1 4142
1 4143
1 4144
1 4145
1 4146
1 4147
1 4148
1 4149
1 4150
1 4151
1 4152
1 4153
1 4154
1 4155
1 4156
1 4157
1 4158
1 4159
1 4160
1 4161
1 4162
1 4163
1 4164
1 4165
1 4166
1 4167
1 4168
1 4169
1 4170
1 4171
1 4172
1 4173
1 4174
1 4175
1 4176
1 4177
1 4178
1 4179
1 4180
1 4181
1 4182
1 4183
1 4184
1 4185
1 4186
1 4187
1 4188
1 4189
1 4190
1 4191
1 4192
1 4193
1 4194
1 4195
1 4196
1 4197
1 4198
1 4199
1 4200
1 4201
1 4202
1 4203
1 4204
1 4205
1 4206
1 4207
1 4208
1 4209
1 4210
1 4211
1 4212
1 4213
1 4214
1 4215
1 4216
1 4217
1 4218
1 4219
1 4220
1 4221
1 4222
1 4223
1 4224
1 4225
1 4226
1 4227
1 4228
1 4229
1 4230
1 4231
1 4232
1 4233
1 4234
1 4235
1 4236
1 4237
1 4238
1 4239
1 4240
1 4241
1 4242
1 4243
1 4244
1 4245
1 4246
1 4247
1 4248
1 4249
1 4250
1 4251
1 4252
1 4253
1 4254
1 4255
1 4256
1 4257
1 4258
1 4259
1 4260
1 4261
1 4262
1 4263
1 4264
1 4265
1 4266
1 4267
1 4268
1 4269
1 4270
1 4271
1 4272
1 4273
1 4274
1 4275
1 4276
1 4277
1 4278
1 4279
1 4280
1 4281
1 4282
1 4283
1 4284
1 4285
1 4286
1 4287
1 4288
1 4289
1 4290
1 4291
1 4292
1 4293
1 4294
1 4295
1 4296
1 4297
1 4298
1 4299
1 4300
1 4301
1 4302
1 4303
1 4304
1 4305
1 4306
1 4307
1 4308
1 4309
1 4310
1 4311
1 4312
1 4313
1 4314
1 4315
1 4316
1 4317
1 4318
1 4319
1 4320
1 4321
1 4322
1 4323
1 4324
1 4325
1 4326
1 4327
1 4328
1 4329
1 4330
1 4331
1 4332
1 4333
1 4334
1 4335
1 4336
1 4337
1 4338
1 4339
1 4340
1 4341
1 4342
1 4343
1 4344
1 4345
1 4346
1 4347
1 4348
1 4349
1 4350
1 4351
1 4352
1 4353
1 4354
1 4355
1 4356
1 4357
1 4358
1 4359
1 4360
1 4361
1 4362
1 4363
1 4364
1 4365
1 4366
1 4367
1 4368
1 4369
1 4370
1 4371
1 4372
1 4373
1 4374
1 4375
1 4376
1 4377
1 4378
1 4379
1 4380
1 4381
1 4382
1 4383
1 4384
1 4385
1 4386
1 4387
1 4388
1 4389
1 4390
1 4391
1 4392
1 4393
1 4394
1 4395
1 4396
1 4397
1 4398
1 4399
1 4400
1 4401
1 4402
1 4403
1 4404
1 4405
1 4406
1 4407
1 4408
1 4409
1 4410
1 4411
1 4412
1 4413
1 4414
1 4415
1 4416
1 4417
1 4418
1 4419
1 4420
1 4421
1 4422
1 4423
1 4424
1 4425
1 4426
1 4427
1 4428
1 4429
1 4430
1 4431
1 4432
1 4433
1 4434
1 4435
1 4436
1 4437
1 4438
1 4439
1 4440
1 4441
1 4442
1 4443
1 4444
1 4445
1 4446
1 4447
1 4448
1 4449
1 4450
1 4451
1 4452
1 4453
1 4454
1 4455
1 4456
1 4457
1 4458
1 4459
1 4460
1 4461
1 4462
1 4463
1 4464
1 4465
1 4466
1 4467
1 4468
1 4469
1 4470
1 4471
1 4472
1 4473
1 4474
1 4475
1 4476
1 4477
1 4478
1 4479
1 4480
1 4481
1 4482
1 4483
1 4484
1 4485
1 4486
1 4487
1 4488
1 4489
1 4490
1 4491
1 4492
1 4493
1 4494
1 4495
1 4496
1 4497
1 4498
1 4499
1 4500
1 4501
1 4502
1 4503
1 4504
1 4505
1 4506
1 4507
1 4508
1 4509
1 4510
1 4511
1 4512
1 4513
1 4514
1 4515
1 4516
1 4517
1 4518
1 4519
1 4520
1 4521
1 4522
1 4523
1 4524
1 4525
1 4526
1 4527
1 4528
1 4529
1 4530
1 4531
1 4532
1 4533
1 4534
1 4535
1 4536
1 4537
1 4538
1 4539
1 4540
1 4541
1 4542
1 4543
1 4544
1 4545
1 4546
1 4547
1 4548
1 4549
1 4550
1 4551
1 4552
1 4553
1 4554
1 4555
1 4556
1 4557
1 4558
1 4559
1 4560
1 4561
1 4562
1 4563
1 4564
1 4565
1 4566
1 4567
1 4568
1 4569
1 4570
1 4571
1 4572
1 4573
1 4574
1 4575
1 4576
1 4577
1 4578
1 4579
1 4580
1 4581
1 4582
1 4583
1 4584
1 4585
1 4586
1 4587
1 4588
1 4589
1 4590
1 4591
1 4592
1 4593
1 4594
1 4595
1 4596
1 4597
1 4598
1 4599
1 4600
1 4601
1 4602
1 4603
1 4604
1 4605
1 4606
1 4607
1 4608
1 4609
1 4610
1 4611
1 4612
1 4613
1 4614
1 4615
1 4616
1 4617
1 4618
1 4619
1 4620
1 4621
1 4622
1 4623
1 4624
1 4625
1 4626
1 4627
1 4628
1 4629
1 4630
1 4631
1 4632
1 4633
1 4634
1 4635
1 4636
1 4637
1 4638
1 4639
1 4640
1 4641
1 4642
1 4643
1 4644
1 4645
1 4646
1 4647
1 4648
1 4649
1 4650
1 4651
1 4652
1 4653
1 4654
1 4655
1 4656
1 4657
1 4658
1 4659
1 4660
1 4661
1 4662
1 4663
1 4664
1 4665
1 4666
1 4667
1 4668
1 4669
1 4670
1 4671
1 4672
1 4673
1 4674
1 4675
1 4676
1 4677
1 4678
1 4679
1 4680
1 4681
1 4682
1 4683
1 4684
1 4685
1 4686
1 4687
1 4688
1 4689
1 4690
1 4691
1 4692
1 4693
1 4694
1 4695
1 4696
1 4697
1 4698
1 4699
1 4700
1 4701
1 4702
1 4703
1 4704
1 4705
1 4706
1 4707
1 4708
1 4709
1 4710
1 4711
1 4712
1 4713
1 4714
1 4715
1 4716
1 4717
1 4718
1 4719
1 4720
1 4721
1 4722
1 4723
1 4724
1 4725
1 4726
1 4727
1 4728
1 4729
1 4730
1 4731
1 4732
1 4733
1 4734
1 4735
1 4736
1 4737
1 4738
1 4739
1 4740
1 4741
1 4742
1 4743
1 4744
1 4745
1 4746
1 4747
1 4748
1 4749
1 4750
1 4751
1 4752
1 4753
1 4754
1 4755
1 4756
1 4757
1 4758
1 4759
1 4760
1 4761
1 4762
1 4763
1 4764
1 4765
1 4766
1 4767
1 4768
1 4769
1 4770
1 4771
1 4772
1 4773
1 4774
1 4775
1 4776
1 4777
1 4778
1 4779
1 4780
1 4781
1 4782
1 4783
1 4784
1 4785
1 4786
1 4787
1 4788
1 4789
1 4790
1 4791
1 4792
1 4793
1 4794
1 4795
1 4796
1 4797
1 4798
1 4799
1 4800
1 4801
1 4802
1 4803
1 4804
1 4805
1 4806
1 4807
1 4808
1 4809
1 4810
1 4811
1 4812
1 4813
1 4814
1 4815
1 4816
1 4817
1 4818
1 4819
1 4820
1 4821
1 4822
1 4823
1 4824
1 4825
1 4826
1 4827
1 4828
1 4829
1 4830
1 4831
1 4832
1 4833
1 4834
1 4835
1 4836
1 4837
1 4838
1 4839
1 4840
1 4841
1 4842
1 4843
1 4844
1 4845
1 4846
1 4847
1 4848
1 4849
1 4850
1 4851
1 4852
1 4853
1 4854
1 4855
1 4856
1 4857
1 4858
1 4859
1 4860
1 4861
1 4862
1 4863
1 4864
1 4865
1 4866
1 4867
1 4868
1 4869
1 4870
1 4871
1 4872
1 4873
1 4874
1 4875
1 4876
1 4877
1 4878
1 4879
1 4880
1 4881
1 4882
1 4883
1 4884
1 4885
1 4886
1 4887
1 4888
1 4889
1 4890
1 4891
1 4892
1 4893
1 4894
1 4895
1 4896
1 4897
1 4898
1 4899
1 4900
1 4901
1 4902
1 4903
1 4904
1 4905
1 4906
1 4907
1 4908
1 4909
1 4910
1 4911
1 4912
1 4913
1 4914
1 4915
1 4916
1 4917
1 4918
1 4919
1 4920
1 4921
1 4922
1 4923
1 4924
1 4925
1 4926
1 4927
1 4928
1 4929
1 4930
1 4931
1 4932
1 4933
1 4934
1 4935
1 4936
1 4937
1 4938
1 4939
1 4940
1 4941
1 4942
1 4943
1 4944
1 4945
1 4946
1 4947
1 4948
1 4949
1 4950
1 4951
1 4952
1 4953
1 4954
1 4955
1 4956
1 4957
1 4958
1 4959
1 4960
1 4961
1 4962
1 4963
1 4964
1 4965
1 4966
1 4967
1 4968
1 4969
1 4970
1 4971
1 4972
1 4973
1 4974
1 4975
1 4976
1 4977
1 4978
1 4979
1 4980
1 4981
1 4982
1 4983
1 4984
1 4985
1 4986
1 4987
1 4988
1 4989
1 4990
1 4991
1 4992
1 4993
1 4994
1 4995
1 4996
1 4997
1 4998
1 4999
CELL_TYPES 5000
1 
1 
1 
1 
1 
1 
1 
1 
1 
1 
1 
1 
1 
1 
1 
1 
1 
1 
1 
1 
1 
1 
1 
1 
1 
1 
1 
1 
1 
1 
1 
1 
1 
1 
1 
1 
1 
1 
1 
1 
1 
1 
1 
1 
1 
1 
1 
1 
1 
1 
1 
1 
1 
1 
1 
1 
1 
1 
1 
1 
1 
1 
1 
1 
1 
1 
1 
1 
1 
1 
1 
1 
1 
1 
1 
1 
1 
1 
1 
1 
1 
1 
1 
1 
1 
1 
1 
1 
1 
1 
1 
1 
1 
1 
1 
1 
1 
1 
1 
1 
1 
1 
1 
1 
1 
1 
1 
1 
1 
1 
1 
1 
1 
1 
1 
1 
1 
1 
1 
1 
1 
1 
1 
1 
1 
1 
1 
1 
1 
1 
1 
1 
1 
1 
1 
1 
1 
1 
1 
1 
1 
1 
1 
1 
1 
1 
1 
1 
1 
1 
1 
1 
1 
1 
1 
1 
1 
1 
1 
1 
1 
1 
1 
1 
1 
1 
1 
1 
1 
1 
1 
1 
1 
1 
1 
1 
1 
1 
1 
1 
1 
1 
1 
1 
1 
1 
1 
1 
1 
1 
1 
1 
1 
1 
1 
1 
1 
1 
1 
1 
1 
1 
1 
1 
1 
1 
1 
1 
1 
1 
1 
1 
1 
1 
1 
1 
1 
1 
1 
1 
1 
1 
1 
1 
1 
1 
1 
1 
1 
1 
1 
1 
1 
1 
1 
1 
1 
1 
1 
1 
1 
1 
1 
1 
1 
1 
1 
1 
1 
1 
1 
1 
1 
1 
1 
1 
1 
1 
1 
1 
1 
1 
1 
1 
1 
1 
1 
1 
1 
1 
1 
1 
1 
1 
1 
1 
1 
1 
1 
1 
1 
1 
1 
1 
1 
1 
1 
1 
1 
1 
1 
1 
1 
1 
1 
1 
1 
1 
1 
1 
1 
1 
1 
1 
1 
1 
1 
1 
1 
1 
1 
1 
1 
1 
1 
1 
1 
1 
1 
1 
1 
1 
1 
1 
1 
1 
1 
1 
1 
1 
1 
1 
1 
1 
1 
1 
1 
1 
1 
1 
1 
1 
1 
1 
1 
1 
1 
1 
1 
1 
1 
1 
1 
1 
1 
1 
1 
1 
1 
1 
1 
1 
1 
1 
1 
1 
1 
1 
1 
1 
1 
1 
1 
1 
1 
1 
1 
1 
1 
1 
1 
1 
1 
1 
1 
1 
1 
1 
1 
1 
1 
1 
1 
1 
1 
1 
1 
1 
1 
1 
1 
1 
1 
1 
1 
1 
1 
1 
1 
1 
1 
1 
1 
1 
1 
1 
1 
1 
1 
1 
1 
1 
1 
1 
1 
1 
1 
1 
1 
1 
1 
1 
1 
1 
1 
1 
1 
1 
1 
1 
1 
1 
1 
1 
1 
1 
1 
1 
1 
1 
1 
1 
1 
1 
1 
1 
1 
1 
1 
1 
1 
1 
1 
1 
1 
1 
1 
1 
1 
1 
1 
1 
1 
1 
1 
1 
1 
1 
1 
1 
1 
1 
1 
1 
1 
1 
1 
1 
1 
1 
1 
1 
1 
1 
1 
1 
1 
1 
1 
1 
1 
1 
1 
1 
1 
1 
1 
1 
1 
1 
1 
1 
1 
1 
1 
1 
1 
1 
1 
1 
1 
1 
1 
1 
1 
1 
1 
1 
1 
1 
1 
1 
1 
1 
1 
1 
1 
1 
1 
1 
1 
1 
1 
1 
1 
1 
1 
1 
1 
1 
1 
1 
1 
1 
1 
1 
1 
1 
1 
1 
1 
1 
1 
1 
1 
1 
1 
1 
1 
1 
1 
1 
1 
1 
1 
1 
1 
1 
1 
1 
1 
1 
1 
1 
1 
1 
1 
1 
1 
1 
1 
1 
1 
1 
1 
1 
1 
1 
1 
1 
1 
1 
1 
1 
1 
1 
1 
1 
1 
1 
1 
1 
1 
1 
1 
1 
1 
1 
1 
1 
1 
1 
1 
1 
1 
1 
1 
1 
1 
1 
1 
1 
1 
1 
1 
1 
1 
1 
1 
1 
1 
1 
1 
1 
1 
1 
1 
1 
1 
1 
1 
1 
1 
1 
1 
1 
1 
1 
1 
1 
1 
1 
1 
1 
1 
1 
1 
1 
1 
1 
1 
1 
1 
1 
1 
1 
1 
1 
1 
1 
1 
1 
1 
1 
1 
1 
1 
1 
1 
1 
1 
1 
1 
1 
1 
1 
1 
1 
1 
1 
1 
1 
1 
1 
1 
1 
1 
1 
1 
1 
1 
1 
1 
1 
1 
1 
1 
1 
1 
1 
1 
1 
1 
1 
1 
1 
1 
1 
1 
1 
1 
1 
1 
1 
1 
1 
1 
1 
1 
1 
1 
1 
1 
1 
1 
1 
1 
1 
1 
1 
1 
1 
1 
1 
1 
1 
1 
1 
1 
1 
1 
1 
1 
1 
1 
1 
1 
1 
1 
1 
1 
1 
1 
1 
1 
1 
1 
1 
1 
1 
1 
1 
1 
1 
1 
1 
1 
1 
1 
1 
1 
1 
1 
1 
1 
1 
1 
1 
1 
1 
1 
1 
1 
1 
1 
1 
1 
1 
1 
1 
1 
1 
1 
1 
1 
1 
1 
1 
1 
1 
1 
1 
1 
1 
1 
1 
1 
1 
1 
1 
1 
1 
1 
1 
1 
1 
1 
1 
1 
1 
1 
1 
1 
1 
1 
1 
1 
1 
1 
1 
1 
1 
1 
1 
1 
1 
1 
1 
1 
1 
1 
1 
1 
1 
1 
1 
1 
1 
1 
1 
1 
1 
1 
1 
1 
1 
1 
1 
1 
1 
1 
1 
1 
1 
1 
1 
1 
1 
1 
1 
1 
1 
1 
1 
1 
1 
1 
1 
1 
1 
1 
1 
1 
1 
1 
1 
1 
1 
1 
1 
1 
1 
1 
1 
1 
1 
1 
1 
1 
1 
1 
1 
1 
1 
1 
1 
1 
1 
1 
1 
1 
1 
1 
1 
1 
1 
1 
1 
1 
1 
1 
1 
1 
1 
1 
1 
1 
1 
1 
1 
1 
1 
1 
1 
1 
1 
1 
1 
1 
1 
1 
1 
1 
1 
1 
1 
1 
1 
1 
1 
1 
1 
1 
1 
1 
1 
1 
1 
1 
1 
1 
1 
1 
1 
1 
1 
1 
1 
1 
1 
1 
1 
1 
1 
1 
1 
1 
1 
1 
1 
1 
1 
1 
1 
1 
1 
1 
1 
1 
1 
1 
1 
1 
1 
1 
1 
1 
1 
1 
1 
1 
1 
1 
1 
1 
1 
1 
1 
1 
1 
1 
1 
1 
1 
1 
1 
1 
1 
1 
1 
1 
1 
1 
1 
1 
1 
1 
1 
1 
1 
1 
1 
1 
1 
1 
1 
1 
1 
1 
1 
1 
1 
1 
1 
1 
1 
1 
1 
1 
1 
1 
1 
1 
1 
1 
1 
1 
1 
1 
1 
1 
1 
1 
1 
1 
1 
1 
1 
1 
1 
1 
1 
1 
1 
1 
1 
1 
1 
1 
1 
1 
1 
1 
1 
1 
1 
1 
1 
1 
1 
1 
1 
1 
1 
1 
1 
1 
1 
1 
1 
1 
1 
1 
1 
1 
1 
1 
1 
1 
1 
1 
1 
1 
1 
1 
1 
1 
1 
1 
1 
1 
1 
1 
1 
1 
1 
1 
1 
1 
1 
1 
1 
1 
1 
1 
1 
1 
1 
1 
1 
1 
1 
1 
1 
1 
1 
1 
1 
1 
1 
1 
1 
1 
1 
1 
1 
1 
1 
1 
1 
1 
1 
1 
1 
1 
1 
1 
1 
1 
1 
1 
1 
1 
1 
1 
1 
1 
1 
1 
1 
1 
1 
1 
1 
1 
1 
1 
1 
1 
1 
1 
1 
1 
1 
1 
1 
1 
1 
1 
1 
1 
1 
1 
1 
1 
1 
1 
1 
1 
1 
1 
1 
1 
1 
1 
1 
1 
1 
1 
1 
1 
1 
1 
1 
1 
1 
1 
1 
1 
1 
1 
1 
1 
1 
1 
1 
1 
1 
1 
1 
1 
1 
1 
1 
1 
1 
1 
1 
1 
1 
1 
1 
1 
1 
1 
1 
1 
1 
1 
1 
1 
1 
1 
1 
1 
1 
1 
1 
1 
1 
1 
1 
1 
1 
1 
1 
1 
1 
1 
1 
1 
1 
1 
1 
1 
1 
1 
1 
1 
1 
1 
1 
1 
1 
1 
1 
1 
1 
1 
1 
1 
1 
1 
1 
1 
1 
1 
1 
1 
1 
1 
1 
1 
1 
1 
1 
1 
1 
1 
1 
1 
1 
1 
1 
1 
1 
1 
1 
1 
1 
1 
1 
1 
1 
1 
1 
1 
1 
1 
1 
1 
1 
1 
1 
1 
1 
1 
1 
1 
1 
1 
1 
1 
1 
1 
1 
1 
1 
1 
1 
1 
1 
1 
1 
1 
1 
1 
1 
1 
1 
1 
1 
1 
1 
1 
1 
1 
1 
1 
1 
1 
1 
1 
1 
1 
1 
1 
1 
1 
1 
1 
1 
1 
1 
1 
1 
1 
1 
1 
1 
1 
1 
1 
1 
1 
1 
1 
1 
1 
1 
1 
1 
1 
1 
1 
1 
1 
1 
1 
1 
1 
1 
1 
1 
1 
1 
1 
1 
1 
1 
1 
1 
1 
1 
1 
1 
1 
1 
1 
1 
1 
1 
1 
1 
1 
1 
1 
1 
1 
1 
1 
1 
1 
1 
1 
1 
1 
1 
1 
1 
1 
1 
1 
1 
1 
1 
1 
1 
1 
1 
1 
1 
1 
1 
1 
1 
1 
1 
1 
1 
1 
1 
1 
1 
1 
1 
1 
1 
1 
1 
1 
1 
1 
1 
1 
1 
1 
1 
1 
1 
1 
1 
1 
1 
1 
1 
1 
1 
1 
1 
1 
1 
1 
1 
1 
1 
1 
1 
1 
1 
1 
1 
1 
1 
1 
1 
1 
1 
1 
1 
1 
1 
1 
1 
1 
1 
1 
1 
1 
1 
1 
1 
1 
1 
1 
1 
1 
1 
1 
1 
1 
1 
1 
1 
1 
1 
1 
1 
1 
1 
1 
1 
1 
1 
1 
1 
1 
1 
1 
1 
1 
1 
1 
1 
1 
1 
1 
1 
1 
1 
1 
1 
1 
1 
1 
1 
1 
1 
1 
1 
1 
1 
1 
1 
1 
1 
1 
1 
1 
1 
1 
1 
1 
1 
1 
1 
1 
1 
1 
1 
1 
1 
1 
1 
1 
1 
1 
1 
1 
1 
1 
1 
1 
1 
1 
1 
1 
1 
1 
1 
1 
1 
1 
1 
1 
1 
1 
1 
1 
1 
1 
1 
1 
1 
1 
1 
1 
1 
1 
1 
1 
1 
1 
1 
1 
1 
1 
1 
1 
1 
1 
1 
1 
1 
1 
1 
1 
1 
1 
1 
1 
1 
1 
1 
1 
1 
1 
1 
1 
1 
1 
1 
1 
1 
1 
1 
1 
1 
1 
1 
1 
1 
1 
1 
1 
1 
1 
1 
1 
1 
1 
1 
1 
1 
1 
1 
1 
1 
1 
1 
1 
1 
1 
1 
1 
1 
1 
1 
1 
1 
1 
1 
1 
1 
1 
1 
1 
1 
1 
1 
1 
1 
1 
1 
1 
1 
1 
1 
1 
1 
1 
1 
1 
1 
1 
1 
1 
1 
1 
1 
1 
1 
1 
1 
1 
1 
1 
1 
1 
1 
1 
1 
1 
1 
1 
1 
1 
1 
1 
1 
1 
1 
1 
1 
1 
1 
1 
1 
1 
1 
1 
1 
1 
1 
1 
1 
1 
1 
1 
1 
1 
1 
1 
1 
1 
1 
1 
1 
1 
1 
1 
1 
1 
1 
1 
1 
1 
1 
1 
1 
1 
1 
1 
1 
1 
1 
1 
1 
1 
1 
1 
1 
1 
1 
1 
1 
1 
1 
1 
1 
1 
1 
1 
1 
1 
1 
1 
1 
1 
1 
1 
1 
1 
1 
1 
1 
1 
1 
1 
1 
1 
1 
1 
1 
1 
1 
1 
1 
1 
1 
1 
1 
1 
1 
1 
1 
1 
1 
1 
1 
1 
1 
1 
1 
1 
1 
1 
1 
1 
1 
1 
1 
1 
1 
1 
1 
1 
1 
1 
1 
1 
1 
1 
1 
1 
1 
1 
1 
1 
1 
1 
1 
1 
1 
1 
1 
1 
1 
1 
1 
1 
1 
1 
1 
1 
1 
1 
1 
1 
1 
1 
1 
1 
1 
1 
1 
1 
1 
1 
1 
1 
1 
1 
1 
1 
1 
1 
1 
1 
1 
1 
1 
1 
1 
1 
1 
1 
1 
1 
1 
1 
1 
1 
1 
1 
1 
1 
1 
1 
1 
1 
1 
1 
1 
1 
1 
1 
1 
1 
1 
1 
1 
1 
1 
1 
1 
1 
1 
1 
1 
1 
1 
1 
1 
1 
1 
1 
1 
1 
1 
1 
1 
1 
1 
1 
1 
1 
1 
1 
1 
1 
1 
1 
1 
1 
1 
1 
1 
1 
1 
1 
1 
1 
1 
1 
1 
1 
1 
1 
1 
1 
1 
1 
1 
1 
1 
1 
1 
1 
1 
1 
1 
1 
1 
1 
1 
1 
1 
1 
1 
1 
1 
1 
1 
1 
1 
1 
1 
1 
1 
1 
1 
1 
1 
1 
1 
1 
1 
1 
1 
1 
1 
1 
1 
1 
1 
1 
1 
1 
1 
1 
1 
1 
1 
1 
1 
1 
1 
1 
1 
1 
1 
1 
1 
1 
1 
1 
1 
1 
1 
1 
1 
1 
1 
1 
1 
1 
1 
1 
1 
1 
1 
1 
1 
1 
1 
1 
1 
1 
1 
1 
1 
1 
1 
1 
1 
1 
1 
1 
1 
1 
1 
1 
1 
1 
1 
1 
1 
1 
1 
1 
1 
1 
1 
1 
1 
1 
1 
1 
1 
1 
1 
1 
1 
1 
1 
1 
1 
1 
1 
1 
1 
1 
1 
1 
1 
1 
1 
1 
1 
1 
1 
1 
1 
1 
1 
1 
1 
1 
1 
1 
1 
1 
1 
1 
1 
1 
1 
1 
1 
1 
1 
1 
1 
1 
1 
1 
1 
1 
1 
1 
1 
1 
1 
1 
1 
1 
1 
1 
1 
1 
1 
1 
1 
1 
1 
1 
1 
1 
1 
1 
1 
1 
1 
1 
1 
1 
1 
1 
1 
1 
1 
1 
1 
1 
1 
1 
1 
1 
1 
1 
1 
1 
1 
1 
1 
1 
1 
1 
1 
1 
1 
1 
1 
1 
1 
1 
1 
1 
1 
1 
1 
1 
1 
1 
1 
1 
1 
1 
1 
1 
1 
1 
1 
1 
1 
1 
1 
1 
1 
1 
1 
1 
1 
1 
1 
1 
1 
1 
1 
1 
1 
1 
1 
1 
1 
1 
1 
1 
1 
1 
1 
1 
1 
1 
1 
1 
1 
1 
1 
1 
1 
1 
1 
1 
1 
1 
1 
1 
1 
1 
1 
1 
1 
1 
1 
1 
1 
1 
1 
1 
1 
1 
1 
1 
1 
1 
1 
1 
1 
1 
1 
1 
1 
1 
1 
1 
1 
1 
1 
1 
1 
1 
1 
1 
1 
1 
1 
1 
1 
1 
1 
1 
1 
1 
1 
1 
1 
1 
1 
1 
1 
1 
1 
1 
1 
1 
1 
1 
1 
1 
1 
1 
1 
1 
1 
1 
1 
1 
1 
1 
1 
1 
1 
1 
1 
1 
1 
1 
1 
1 
1 
1 
1 
1 
1 
1 
1 
1 
1 
1 
1 
1 
1 
1 
1 
1 
1 
1 
1 
1 
1 
1 
1 
1 
1 
1 
1 
1 
1 
1 
1 
1 
1 
1 
1 
1 
1 
1 
1 
1 
1 
1 
1 
1 
1 
1 
1 
1 
1 
1 
1 
1 
1 
1 
1 
1 
1 
1 
1 
1 
1 
1 
1 
1 
1 
1 
1 
1 
1 
1 
1 
1 
1 
1 
1 
1 
1 
1 
1 
1 
1 
1 
1 
1 
1 
1 
1 
1 
1 
1 
1 
1 
1 
1 
1 
1 
1 
1 
1 
1 
1 
1 
1 
1 
1 
1 
1 
1 
1 
1 
1 
1 
1 
1 
1 
1 
1 
1 
1 
1 
1 
1 
1 
1 
1 
1 
1 
1 
1 
1 
1 
1 
1 
1 
1 
1 
1 
1 
1 
1 
1 
1 
1 
1 
1 
1 
1 
1 
1 
1 
1 
1 
1 
1 
1 
1 
1 
1 
1 
1 
1 
1 
1 
1 
1 
1 
1 
1 
1 
1 
1 
1 
1 
1 
1 
1 
1 
1 
1 
1 
1 
1 
1 
1 
1 
1 
1 
1 
1 
1 
1 
1 
1 
1 
1 
1 
1 
1 
1 
1 
1 
1 
1 
1 
1 
1 
1 
1 
1 
1 
1 
1 
1 
1 
1 
1 
1 
1 
1 
1 
1 
1 
1 
1 
1 
1 
1 
1 
1 
1 
1 
1 
1 
1 
1 
1 
1 
1 
1 
1 
1 
1 
1 
1 
1 
1 
1 
1 
1 
1 
1 
1 
1 
1 
1 
1 
1 
1 
1 
1 
1 
1 
1 
1 
1 
1 
1 
1 
1 
1 
1 
1 
1 
1 
1 
1 
1 
1 
1 
1 
1 
1 
1 
1 
1 
1 
1 
1 
1 
1 
1 
1 
1 
1 
1 
1 
1 
1 
1 
1 
1 
1 
1 
1 
1 
1 
1 
1 
1 
1 
1 
1 
1 
1 
1 
1 
1 
1 
1 
1 
1 
1 
1 
1 
1 
1 
1 
1 
1 
1 
1 
1 
1 
1 
1 
1 
1 
1 
1 
1 
1 
1 
1 
1 
1 
1 
1 
1 
1 
1 
1 
1 
1 
1 
1 
1 
1 
1 
1 
1 
1 
1 
1 
1 
1 
1 
1 
1 
1 
1 
1 
1 
1 
1 
1 
1 
1 
1 
1 
1 
1 
1 
1 
1 
1 
1 
1 
1 
1 
1 
1 
1 
1 
1 
1 
1 
1 
1 
1 
1 
1 
1 
1 
1 
1 
1 
1 
1 
1 
1 
1 
1 
1 
1 
1 
1 
1 
1 
1 
1 
1 
1 
1 
1 
1 
1 
1 
1 
1 
1 
1 
1 
1 
1 
1 
1 
1 
1 
1 
1 
1 
1 
1 
1 
1 
1 
1 
1 
1 
1 
1 
1 
1 
1 
1 
1 
1 
1 
1 
1 
1 
1 
1 
1 
1 
1 
1 
1 
1 
1 
1 
1 
1 
1 
1 
1 
1 
1 
1 
1 
1 
1 
1 
1 
1 
1 
1 
1 
1 
1 
1 
1 
1 
1 
1 
1 
1 
1 
1 
1 
1 
1 
1 
1 
1 
1 
1 
1 
1 
1 
1 
1 
1 
1 
1 
1 
1 
1 
1 
1 
1 
1 
1 
1 
1 
1 
1 
1 
1 
1 
1 
1 
1 
1 
1 
1 
1 
1 
1 
1 
1 
1 
1 
1 
1 
1 
1 
1 
1 
1 
1 
1 
1 
1 
1 
1 
1 
1 
1 
1 
1 
1 
1 
1 
1 
1 
1 
1 
1 
1 
1 
1 
1 
1 
1 
1 
1 
1 
1 
1 
1 
1 
1 
1 
1 
1 
1 
1 
1 
1 
1 
1 
1 
1 
1 
1 
1 
1 
1 
1 
1 
1 
1 
1 
1 
1 
1 
1 
1 
1 
1 
1 
1 
1 
1 
1 
1 
1 
1 
1 
1 
1 
1 
1 
1 
1 
1 
1 
1 
1 
1 
1 
1 
1 
1 
1 
1 
1 
1 
1 
1 
1 
1 
1 
1 
1 
1 
1 
1 
1 
1 
1 
1 
1 
1 
1 
1 
1 
1 
1 
1 
1 
1 
1 
1 
1 
1 
1 
1 
1 
1 
1 
1 
1 
1 
1 
1 
1 
1 
1 
1 
1 
1 
1 
1 
1 
1 
1 
1 
1 
1 
1 
1 
1 
1 
1 
1 
1 
1 
1 
1 
1 
1 
1 
1 
1 
1 
1 
1 
1 
1 
1 
1 
1 
1 
1 
1 
1 
1 
1 
1 
1 
1 
1 
1 
1 
1 
1 
1 
1 
1 
1 
1 
1 
1 
1 
1 
1 
1 
1 
1 
1 
1 
1 
1 
1 
1 
1 
1 
1 
1 
1 
1 
1 
1 
1 
1 
1 
1 
1 
1 
1 
1 
1 
1 
1 
1 
1 
1 
1 
1 
1 
1 
1 
1 
1 
1 
1 
1 
1 
1 
1 
1 
1 
1 
1 
1 
1 
1 
1 
1 
1 
1 
1 
1 
1 
1 
1 
1 
1 
1 
1 
1 
1 
1 
1 
1 
1 
1 
1 
1 
1 
1 
1 
1 
1 
1 
1 
1 
1 
1 
1 
1 
1 
1 
1 
1 
1 
1 
1 
1 
1 
1 
1 
1 
1 
1 
1 
1 
1 
1 
1 
1 
1 
1 
1 
1 
1 
1 
1 
1 
1 
1 
1 
1 
1 
1 
1 
1 
1 
1 
1 
1 
1 
1 
1 
1 
1 
1 
1 
1 
1 
1 
1 
1 
1 
1 
1 
1 
1 
1 
1 
1 
1 
1 
1 
1 
1 
1 
1 
1 
1 
1 
1 
1 
1 
1 
1 
1 
1 
1 
1 
1 
1 
1 
1 
1 
1 
1 
1 
1 
1 
1 
1 
1 
1 
1 
1 
1 
1 
1 
1 
1 
1 
1 
1 
1 
1 
1 
1 
1 
1 
1 
1 
1 
1 
1 
1 
1 
1 
1 
1 
1 
1 
1 
1 
1 
1 
1 
1 
1 
1 
1 
1 
1 
1 
1 
1 
1 
1 
1 
1 
1 
1 
1 
1 
1 
1 
1 
1 
1 
1 
1 
1 
1 
1 
1 
1 
1 
1 
1 
1 
1 
1 
1 
1 
1 
1 
1 
1 
1 
1 
1 
1 
1 
1 
1 
1 
1 
1 
1 
1 
1 
1 
1 
1 
1 
1 
1 
1 
1 
1 
1 
1 
1 
1 
1 
1 
1 
1 
1 
1 
1 
1 
1 
1 
1 
1 
1 
1 
1 
1 
1 
1 
1 
1 
1 
1 
1 
1 
1 
1 
1 
1 
1 
1 
1 
1 
1 
1 
1 
1 
1 
1 
1 
1 
1 
1 
1 
1 
1 
1 
1 
1 
1 
1 
1 
1 
1 
1 
1 
1 
1 
1 
1 
1 
1 
1 
1 
1 
1 
1 
1 
1 
1 
1 
1 
1 
1 
1 
1 
1 
1 
1 
1 
1 
1 
1 
1 
1 
1 
1 
1 
1 
1 
1 
1 
1 
1 
1 
1 
1 
1 
1 
1 
1 
1 
1 
1 
1 
1 
1 
1 
1 
1 
1 
1 
1 
1 
1 
1 
1 
1 
1 
1 
1 
1 
1 
1 
1 
1 
1 
1 
1 
1 
1 
1 
1 
1 
1 
1 
1 
1 
1 
1 
1 
1 
1 
1 
1 
1 
1 
1 
1 
1 
1 
1 
1 
1 
1 
1 
1 
1 
1 
1 
1 
1 
1 
1 
1 
1 
1 
1 
1 
1 
1 
1 
1 
1 
1 
1 
1 
1 
1 
1 
1 
1 
1 
1 
1 
1 
1 
1 
1 
1 
1 
1 
1 
1 
1 
1 
1 
1 
1 
1 
1 
1 
1 
1 
1 
1 
1 
1 
1 
1 
1 
1 
1 
1 
1 
1 
1 
1 
1 
1 
1 
1 
1 
1 
1 
1 
1 
1 
1 
1 
1 
1 
1 
1 
1 
1 
1 
1 
1 
1 
1 
1 
1 
1 
1 
1 
1 
1 
1 
1 
1 
1 
1 
1 
1 
1 
1 
1 
1 
1 
1 
1 
1 
1 
1 
1 
1 
1 
1 
1 
1 
1 
1 
1 
1 
1 
1 
1 
1 
1 
1 
1 
1 
1 
1 
1 
1 
1 
1 
1 
1 
1 
1 
1 
1 
1 
1 
1 
1 
1 
1 
1 
1 
1 
1 
1 
1 
1 
1 
1 
1 
1 
1 
1 
1 
1 
1 
1 
1 
1 
1 
1 
1 
1 
1 
1 
1 
1 
1 
1 
1 
1 
1 
1 
1 
1 
1 
1 
1 
1 
1 
1 
1 
1 
1 
1 
1 
1 
1 
1 
1 
1 
1 
1 
1 
1 
1 
1 
1 
1 
1 
1 
1 
1 
1 
1 
1 
1 
1 
1 
1 
1 
1 
1 
1 
1 
1 
1 
1 
1 
1 
1 
1 
1 
1 
1 
1 
1 
1 
1 
1 
1 
1 
1 
1 
1 
1 
1 
1 
1 
1 
1 
1 
1 
1 
1 
1 
1 
1 
1 
1 
1 
1 
1 
1 
1 
1 
1 
1 
1 
1 
1 
1 
1 
1 
1 
1 
1 
1 
1 
1 
1 
1 
1 
1 
1 
1 
1 
1 
1 
1 
1 
1 
1 
1 
1 
1 
1 
1 
1 
1 
1 
1 
1 
1 
1 
1 
1 
1 
1 
1 
1 
1 
1 
1 
1 
1 
1 
1 
1 
1 
1 
1 
1 
1 
1 
1 
1 
1 
1 
1 
1 
1 
1 
1 
1 
1 
1 
1 
1 
1 
1 
1 
1 
1 
1 
1 
1 
1 
1 
1 
1 
1 
1 
1 
1 
1 
1 
1 
1 
1 
1 
1 
1 
1 
1 
1 
1 
1 
1 
1 
1 
1 
1 
1 
1 
1 
1 
1 
1 
1 
1 
1 
1 
1 
1 
1 
1 
1 
1 
1 
1 
1 
1 
1 
1 
1 
1 
1 
1 
1 
1 
1 
1 
1 
1 
1 
1 
1 
1 
1 
1 
1 
1 
1 
1 
1 
1 
1 
1 
1 
1 
1 
1 
1 
1 
1 
1 
1 
1 
1 
1 
1 
1 
1 
1 
1 
1 
1 
1 
1 
1 
1 
1 
1 
1 
1 
1 
1 
1 
1 
1 
1 
1 
1 
1 
1 
1 
1 
1 
1 
1 
1 
1 
1 
1 
1 
1 
1 
1 
1 
1 
1 
1 
1 
1 
1 
1 
1 
1 
1 
1 
1 
1 
1 
1 
1 
1 
1 
1 
1 
1 
1 
1 
1 
1 
1 
1 
1 
1 
1 
1 
1 
1 
1 
1 
1 
1 
1 
1 
1 
1 
1 
1 
1 
1 
1 
1 
1 
1 
1 
1 
1 
1 
1 
1 
1 
1 
1 
1 
1 
1 
1 
1 
1 
1 
1 
1 
1 
1 
1 
1 
1 
1 
1 
1 
1 
1 
1 
1 
1 
1 
1 
1 
1 
1 
1 
1 
1 
1 
1 
1 
1 
1 
1 
1 
1 
1 
1 
1 
1 
1 
1 
1 
1 
1 
1 
1 
1 
1 
1 
1 
1 
1 
1 
1 
1 
1 
1 
1 
1 
1 
1 
1 
1 
1 
1 
1 
1 
1 
1 
1 
1 
1 
1 
1 
1 
1 
1 
1 
1 
1 
1 
1 
1 
1 
1 
1 
1 
1 
1 
1 
1 
1 
1 
1 
1 
1 
1 
1 
1 
1 
1 
1 
1 
1 
1 
1 
1 
1 
1 
1 
1 
1 
1 
1 
1 
1 
1 
1 
1 
1 
1 
1 
1 
1 
1 
1 
1 
1 
1 
1 
1 
1 
1 
1 
1 
1 
1 
1 
1 
1 
1 
1 
1 
1 
1 
1 
1 
1 
1 
1 
1 
1 
1 
1 
1 
1 
1 
1 
1 
1 
1 
1 
1 
1 
1 
1 
1 
1 
1 
1 
1 
1 
1 
1 
1 
1 
1 
1 
1 
1 
1 
1 
1 
1 
1 
1 
1 
1 
1 
1 
1 
1 
1 
1 
1 
1 
1 
1 
1 
1 
1 
1 
1 
1 
1 
1 
1 
1 
1 
1 
1 
1 
1 
1 
1 
1 
1 
1 
1 
1 
1 
1 
1 
1 
1 
1 
1 
1 
1 
1 
1 
1 
1 
1 
1 
1 
1 
1 
1 
1 
1 
1 
1 
1 
1 
1 
1 
1 
1 
1 
1 
1 
1 
1 
1 
1 
1 
1 
1 
1 
1 
1 
1 
1 
1 
1 
1 
1 
1 
1 
1 
1 
1 
1 
1 
1 
1 
1 
1 
1 
1 
1 
1 
1 
1 
1 
1 
1 
1 
1 
1 
1 
1 
1 
1 
1 
1 
1 
1 
1 
1 
1 
1 
1 
1 
1 
1 
1 
1 
1 
1 
1 
1 
1 
1 
1 
1 
1 
1 
1 
1 
1 
1 
1 
1 
1 
1 
1 
1 
1 
1 
1 
1 
1 
1 
1 
1 
1 
1 
1 
1 
1 
1 
1 
1 
1 
1 
1 
1 
1 
1 
1 
1 
1 
1 
1 
1 
1 
1 
1 
1 
1 
1 
1 
1 
1 
1 
1 
1 
1 
1 
1 
1 
1 
1 
1 
1 
1 
1 
1 
1 
1 
1 
1 
1 
1 
1 
1 
1 
1 
1 
1 
1 
1 
1 
1 
1 
1 
1 
1 
1 
1 
1 
1 
1 
1 
1 
1 
1 
1 
1 
1 
1 
1 
1 
1 
1 
1 
1 
1 
1 
1 
1 
1 
1 
1 
1 
1 
1 
1 
1 
1 
1 
1 
1 
1 
1 
1 
1 
1 
1 
1 
1 
1 
1 
1 
1 
1 
1 
1 
1 
1 
1 
1 
1 
1 
1 
1 
1 
1 
1 
1 
1 
1 
1 
1 
1 
1 
1 
1 
1 
1 
1 
1 
1 
1 
1 
1 
1 
1 
1 
1 
1 
1 
1 
1 
1 
1 
1 
1 
1 
1 
1 
1 
1 
1 
1 
1 
1 
1 
1 
1 
1 
1 
1 
1 
1 
1 
1 
1 
1 
1 
1 
1 
1 
1 
1 
1 
1 
1 
1 
1 
1 
1 
1 
1 
1 
1 
1 
1 
1 
1 
1 
1 
1 
1 
1 
1 
1 
1 
1 
1 
1 
1 
1 
1 
1 
1 
1 
1 
1 
1 
1 
1 
1 
1 
1 
1 
1 
1 
1 
1 
1 
1 
1 
1 
1 
1 
1 
1 
1 
1 
1 
1 
1 
1 
1 
1 
1 
1 
1 
1 
1 
1 
1 
1 
1 
1 
1 
1 
1 
1 
1 
1 
1 
1 
1 
1 
1 
1 
1 
1 
1 
1 
1 
1 
1 
1 
1 
1 
1 
1 
1 
1 
1 
1 
1 
1 
1 
1 
1 
1 
1 
1 
1 
1 
1 
1 
1 
1 
1 
1 
1 
1 
1 
1 
1 
1 
1 
1 
1 
1 
1 
1 
1 
1 
1 
1 
1 
1 
1 
1 
1 
1 
1 
1 
1 
1 
1 
1 
1 
1 
1 
1 
1 
1 
1 
1 
1 
1 
1 
1 
1 
1 
1 
1 
1 
1 
1 
1 
1 
1 
1 
1 
1 
1 
1 
1 
1 
1 
1 
1 
1 
1 
1 
1 
1 
1 
1 
1 
1 
1 
1 
1 
1 
1 
1 
1 
1 
1 
1 
1 
1 
1 
1 
1 
1 
1 
1 
1 
1 
1 
1 
1 
1 
1 
1 
1 
1 
1 
1 
1 
1 
1 
1 
1 
1 
1 
1 
1 
1 
1 
1 
1 
1 
1 
1 
1 
1 
1 
1 
1 
1 
1 
1 
1 
1 
1 
1 
1 
1 
1 
1 
1 
1 
1 
1 
1 
1 
1 
1 
1 
1 
1 
1 
1 
1 
1 
1 
1 
1 
1 
1 
1 
1 
1 
1 
1 
1 
1 
1 
1 
1 
1 
1 
1 
1 
1 
1 
1 
1 
1 
1 
1 
1 
1 
1 
1 
1 
1 
1 
1 
1 
1 
1 
1 
1 
1 
1 
1 
1 
1 
1 
1 
1 
1 
1 
1 
1 
1 
1 
1 
1 
1 
1 
1 
1 
1 
1 
1 
1 
1 
1 
1 
1 
1 
1 
1 
1 
1 
1 
1 
1 
1 
1 
1 
1 
1 
1 
1 
1 
1 
1 
1 
1 
1 
1 
1 
1 
1 
1 
1 
1 
1 
1 
1 
1 
1 
1 
1 
1 
1 
1 
1 
1 
1 
1 
1 
1 
1 
1 
1 
POINT_DATA 5000
VECTORS Stress float
500.736 -1161.45 0.
118.63 -1388.79 0.
95.4445 -1442.97 0.
-122.106 -1567.9 0.
-114.312 -1549.82 0.
-106.519 -1531.74 0.
-241.711 -1591.95 0.
-254.474 -1621.71 0.
-267.236 -1651.48 0.
24.5774 -1533.98 0.
25.4093 -1532.04 0.
26.2413 -1530.09 0.
-635.302 -1811.7 0.
-633.578 -1807.7 0.
-164.882 -1602.89 0.
-162.501 -1597.37 0.
-160.121 -1591.84 0.
-57.6155 -1547.86 0.
-61.266 -1556.57 0.
-64.9166 -1565.28 0.
-140.911 -1599.41 0.
-138.796 -1594.45 0.
-136.681 -1589.49 0.
127.186 -1475.88 0.
127.164 -1475.89 0.
255.61 -1420.85 0.
-134.389 -1591.21 0.
-134.674 -1591.95 0.
-858.184 -1899.26 0.
-858.427 -1900.11 0.
-858.671 -1900.95 0.
-357.584 -1689.74 0.
-359.021 -1693.18 0.
-360.459 -1696.61 0.
-161.103 -1611.39 0.
-161.186 -1611.26 0.
-161.27 -1611.12 0.
-354.452 -1692.68 0.
-353.812 -1691.25 0.
-517.374 -1760.39 0.
-516.785 -1758.89 0.
-516.195 -1757.4 0.
-673.916 -1815.49 0.
-662.347 -1788.38 0.
-650.778 -1761.28 0.
-628.022 -1756 0.
-641.401 -1787.44 0.
-654.781 -1818.88 0.
995.702 -1111.93 0.
999.892 -1102.35 0.
-9915.5 -5772.83 0.
1617.44 -832.321 0.
1616.56 -834.776 0.
-787.249 -1868.72 0.
-787.737 -1869.96 0.
-788.226 -1871.2 0.
-690.697 -1829.63 0.
-690.874 -1830.16 0.
-691.05 -1830.68 0.
-13.9521 -1540.82 0.
-14.3791 -1541.66 0.
-14.806 -1542.49 0.
-623.376 -1805.32 0.
-623.403 -1805.15 0.
-472.761 -1738.11 0.
-472.79 -1738 0.
-472.82 -1737.9 0.
-127.471 -1591.81 0.
-128.599 -1594.58 0.
-129.727 -1597.35 0.
-18.313 -1551.06 0.
-18.8987 -1552.59 0.
-19.4844 -1554.13 0.
-227.047 -1640.36 0.
-225.052 -1635.78 0.
-415.409 -1716.66 0.
-273.682 -1656.62 0.
-273.91 -1657.42 0.
-66.7983 -1566.96 0.
-64.7137 -1562.01 0.
-62.6291 -1557.05 0.
200.379 -1444.44 0.
197.488 -1450.81 0.
194.598 -1457.18 0.
90.964 -1498.59 0.
91.7016 -1496.25 0.
92.4393 -1493.91 0.
-247.903 -1642.48 0.
-248.838 -1644.84 0.
-347.247 -1684.21 0.
-328.088 -1639.41 0.
-308.929 -1594.61 0.
40.4449 -1431.3 0.
24.0086 -1469.4 0.
7.5723 -1507.51 0.
-637.775 -1764.86 0.
-609.62 -1698.94 0.
-581.465 -1633.02 0.
187.654 -1185.35 0.
256.729 -1024.09 0.
464.269 -1145.67 0.
-32.6598 -1422.34 0.
-55.8265 -1476.64 0.
-300.264 -1612.64 0.
-292.446 -1594.71 0.
-284.627 -1576.78 0.
94.2602 -1416.64 0.
81.4928 -1446.4 0.
68.7254 -1476.15 0.
-34.2633 -1527.9 0.
-33.4197 -1525.92 0.
-32.5761 -1523.95 0.
-482.45 -1714.92 0.
-480.692 -1710.87 0.
-381.161 -1664.7 0.
-378.748 -1659.15 0.
-376.334 -1653.6 0.
71.2691 -1460.91 0.
67.7237 -1469.75 0.
64.1783 -1478.59 0.
131.308 -1451.27 0.
133.408 -1446.29 0.
135.509 -1441.32 0.
-255.06 -1608.62 0.
-255.14 -1608.69 0.
-585.918 -1750.49 0.
-292.363 -1626.93 0.
-292.62 -1627.74 0.
-554.241 -1737.64 0.
-554.288 -1738.58 0.
-554.335 -1739.53 0.
-273.899 -1622.55 0.
-275.269 -1625.98 0.
-276.639 -1629.41 0.
-128.85 -1566.37 0.
-129.147 -1566.07 0.
-129.444 -1565.78 0.
-510.383 -1728.37 0.
-509.692 -1726.96 0.
-127.69 -1562.08 0.
-127.16 -1560.48 0.
-126.631 -1558.88 0.
-824.879 -1849.19 0.
-813.312 -1821.86 0.
-801.745 -1794.54 0.
-413.878 -1633.88 0.
-427.074 -1665.33 0.
-440.27 -1696.78 0.
804.531 -1162.19 0.
808.841 -1152.71 0.
-7136.88 -4550.53 0.
1337.11 -921.314 0.
1336.45 -924.045 0.
-406.937 -1673.84 0.
-407.389 -1675.2 0.
-407.841 -1676.56 0.
-557.163 -1740.55 0.
-557.295 -1741.19 0.
-557.427 -1741.84 0.
-244.393 -1609.02 0.
-244.904 -1609.73 0.
-245.415 -1610.44 0.
-647.633 -1783.75 0.
-647.828 -1783.51 0.
-375.234 -1665.87 0.
-375.392 -1665.73 0.
-375.551 -1665.58 0.
-13.0323 -1510.71 0.
-14.0729 -1513.56 0.
-15.1135 -1516.42 0.
-77.7307 -1545.38 0.
-78.2025 -1546.98 0.
-78.6743 -1548.58 0.
-441.407 -1701.3 0.
-439.354 -1696.73 0.
-199.498 -1591.83 0.
-88.7133 -1545.34 0.
-88.806 -1546.36 0.
-138.471 -1566.38 0.
-136.457 -1561.4 0.
-134.442 -1556.43 0.
471.656 -1296.77 0.
468.546 -1302.92 0.
465.436 -1309.06 0.
-75.2151 -1538.89 0.
-74.8795 -1536.25 0.
-74.544 -1533.61 0.
-279.75 -1625.35 0.
-280.596 -1627.83 0.
-143.765 -1565.37 0.
-124.696 -1520.59 0.
-105.627 -1475.81 0.
34.6229 -1402.62 0.
17.9979 -1440.66 0.
1.373 -1478.71 0.
-564.934 -1702.57 0.
-536.873 -1636.42 0.
-508.813 -1570.27 0.
144.947 -1172.5 0.
214.087 -1010.9 0.
170.401 -1732.4 0.
-339.396 -1823.64 0.
-174.542 -1438.57 0.
-770.16 -2334.27 0.
-570.784 -1869.7 0.
-875.404 -2581.16 0.
-792.883 -4097.27 0.
-757.571 -4015.74 0.
-1701.84 -6219.89 0.
-2101.81 -6206.83 0.
-1845.13 -5609 0.
-1898.74 -5735.21 0.
-2050.13 -5633.87 0.
-1704.71 -4826.38 0.
-2793.16 -6852.43 0.
-1776.97 -4480.51 0.
-1906.57 -4782.11 0.
-1108.47 -4432.94 0.
-1612.17 -5607.7 0.
-3215.17 -9347.48 0.
-3900.74 -11346.1 0.
-2314.75 -7645.23 0.
-2094.97 -7132.2 0.
-2382.56 -5812.03 0.
-2089.94 -5130.55 0.
-2777.21 -6791.77 0.
-2067.07 -5435.95 0.
-1837.13 -4898.31 0.
-1186.73 -3765.97 0.
-1467.88 -4420.9 0.
-2540.44 -6922.47 0.
-3262.36 -8725.05 0.
-2550.71 -7064.95 0.
-2354.13 -6606.67 0.
-2046.48 -6068.22 0.
-2705.79 -7608.14 0.
-4451.49 -11683 0.
-4311.81 -10271.7 0.
-3310.68 -7936.14 0.
-3435.54 -9994.37 0.
-2420.53 -7626.12 0.
-2459.36 -7716.84 0.
-2843.33 -6240.63 0.
-1741.63 -3669.4 0.
-1618.58 -3381.68 0.
-1467.08 -4468.53 0.
-2071.57 -5879.29 0.
-3338.24 -8835.16 0.
-1574.94 -6321.21 0.
-1425.6 -5973.19 0.
-9324.95 -11991.9 0.
-1089 -6017.62 0.
-1360.86 -6651.28 0.
-2979.18 -8370.87 0.
-2004.8 -6096.18 0.
-2692.11 -7698.79 0.
-2824.03 -7251.35 0.
-2301.26 -6031.51 0.
-2711.93 -6989.66 0.
-2930.91 -7412.12 0.
-1980.67 -5195.38 0.
-1980.17 -5194.74 0.
-1960.71 -4769.39 0.
-2142.49 -5194.07 0.
-3136.72 -8262.61 0.
-3020.44 -7991.43 0.
-4030.52 -10348.4 0.
-3799.04 -10532.2 0.
-2460.87 -7409.91 0.
-2652.78 -7857.82 0.
-2671.11 -7451.97 0.
-2418.48 -6862.86 0.
-3391.13 -9132.74 0.
-2168.56 -5293.12 0.
-1595.48 -3955.14 0.
-1154.62 -4139.23 0.
-1012.64 -4025.24 0.
-2150.43 -6679.76 0.
-3963.22 -10321.9 0.
-2854.54 -7734.42 0.
-3280.81 -8728.45 0.
-2338.68 -8338.22 0.
-1868.44 -7241.38 0.
-2318.1 -8290.97 0.
-2089.93 -5888.58 0.
-973.346 -3284.04 0.
-1212.61 -3843.14 0.
-1583.09 -4573.45 0.
-1776.39 -5024.97 0.
-1427.98 -4920.21 0.
-614.473 -3021.75 0.
-554.458 -2881.47 0.
-470.517 -2535.56 0.
-220.206 -1951.74 0.
-947.704 -3649.42 0.
-862.729 -2505.68 0.
-381.883 -1383.92 0.
-519.372 -1705.02 0.
-232.596 -1943.39 0.
-732.237 -3108.65 0.
394.793 -747.67 0.
62.3117 -770.124 0.
97.2771 -688.096 0.
73.2767 -651.112 0.
63.8225 -673.86 0.
54.3682 -696.607 0.
678.3 -325.171 0.
820.638 6.43493 0.
962.976 338.041 0.
677.897 209.836 0.
597.696 21.5247 0.
517.494 -166.787 0.
372.616 -57.0183 0.
486.79 210.841 0.
421.855 385.641 0.
434.783 416.141 0.
447.71 446.641 0.
1085.23 760.789 0.
1125.72 855.51 0.
1166.2 950.232 0.
1119.07 898.523 0.
1053.87 745.612 0.
988.668 592.701 0.
171.313 87.6202 0.
85.3019 -114.448 0.
549.207 -80.894 0.
359.245 -44.6118 0.
423.761 106.602 0.
482.077 239.814 0.
512.32 311.331 0.
542.563 382.848 0.
760.834 540.683 0.
798.613 628.677 0.
836.392 716.671 0.
890.863 799.605 0.
920.884 868.178 0.
950.905 936.751 0.
708.047 952.437 0.
774.962 1107.64 0.
1147.7 1361.06 0.
1052.83 1139.69 0.
957.957 918.322 0.
323.681 490.05 0.
263.925 351.097 0.
204.168 212.145 0.
602.71 344.11 0.
612.692 366.868 0.
622.674 389.626 0.
1260.69 739.191 0.
1312.53 858.488 0.
-1158.64 -103.019 0.
1668.46 1056.19 0.
1640.63 991.629 0.
892.678 630.559 0.
889.615 623.993 0.
886.552 617.427 0.
729.647 530.992 0.
709.079 483.676 0.
688.51 436.361 0.
337.62 255.434 0.
325.47 226.952 0.
313.321 198.471 0.
269.2 94.5549 0.
220.916 -18.3088 0.
410.074 12.8254 0.
540.719 317.26 0.
671.364 621.695 0.
924.373 867.456 0.
886.967 779.333 0.
849.562 691.209 0.
726.877 611.703 0.
731.699 621.541 0.
736.52 631.379 0.
540.434 419.666 0.
454.6 221.207 0.
705.256 173.016 0.
667.618 245.551 0.
713.586 353.916 0.
730.442 470.989 0.
825.505 692.909 0.
920.569 914.83 0.
1584.19 1226.48 0.
1504.1 1039.16 0.
1424.01 851.84 0.
401.257 274.248 0.
332.076 111.9 0.
262.896 -50.4483 0.
720.04 111.23 0.
704.387 75.4459 0.
542.404 -28.4179 0.
519.444 -81.3342 0.
496.484 -134.25 0.
570.129 -138.358 0.
552.861 -178.091 0.
535.593 -217.824 0.
130.118 -428.186 0.
110.568 -473.722 0.
91.018 -519.258 0.
234.732 -381.496 0.
288.872 -255.161 0.
169.485 -812.242 0.
17.5743 -758.252 0.
52.4805 -676.371 0.
239.678 -547.787 0.
230.174 -570.644 0.
220.67 -593.501 0.
516.998 -362.196 0.
659.204 -30.5495 0.
801.411 301.097 0.
730.973 264.364 0.
650.807 76.059 0.
570.641 -112.245 0.
428.775 -2.21643 0.
543.022 265.76 0.
576.726 483.38 0.
589.842 513.846 0.
602.958 544.313 0.
1062.53 782.912 0.
1103.12 877.587 0.
1143.71 972.262 0.
856.913 818.551 0.
792.062 665.46 0.
727.212 512.368 0.
219.477 140.605 0.
133.435 -61.5817 0.
743.341 34.4068 0.
517.558 54.7128 0.
582.214 205.817 0.
439.969 253.472 0.
470.212 324.849 0.
500.455 396.227 0.
841.184 606.435 0.
878.876 694.492 0.
916.567 782.549 0.
899.549 833.883 0.
929.545 902.466 0.
959.541 971.049 0.
981.798 1102.29 0.
1048.91 1257.47 0.
817.575 1251.97 0.
722.768 1030.87 0.
627.96 809.767 0.
686.037 676.533 0.
626.292 537.485 0.
566.548 398.436 0.
627.11 384.174 0.
637.177 406.883 0.
647.243 429.592 0.
1044.5 678.679 0.
1096.61 797.424 0.
-1180.26 -80.8558 0.
1348.93 950.392 0.
1321.3 885.949 0.
926.68 676.986 0.
923.77 670.225 0.
920.86 663.464 0.
1013.63 684.05 0.
992.841 636.852 0.
972.056 589.653 0.
332.489 284.432 0.
320.273 256.161 0.
308.057 227.889 0.
464.496 211.055 0.
416.13 98.3396 0.
426.398 50.4774 0.
557.154 354.932 0.
687.909 659.387 0.
742.504 821.426 0.
705.242 732.917 0.
667.979 644.408 0.
672.867 620.729 0.
678.006 630.248 0.
683.144 639.767 0.
876.746 596.18 0.
790.538 397.882 0.
510.711 120.836 0.
500.3 205.331 0.
546.008 313.877 0.
830.46 545.403 0.
925.739 767.349 0.
1021.02 989.296 0.
1384.76 1172.53 0.
1304.73 985.27 0.
1224.7 798.014 0.
234.349 234.864 0.
165.174 72.4183 0.
95.9994 -90.0271 0.
1098.29 304.498 0.
1082.17 268.895 0.
403.983 -57.2211 0.
380.797 -110.225 0.
357.612 -163.228 0.
603.399 -91.6764 0.
585.911 -131.161 0.
568.423 -170.646 0.
272.029 -336.184 0.
252.359 -381.676 0.
232.689 -427.169 0.
3.94965 -448.344 0.
58.2779 -322.197 0.
-15.7809 -842.699 0.
-168.283 -1175.63 0.
-295.186 -1472.8 0.
-157.956 -1600.08 0.
-125.892 -1524.57 0.
-93.8278 -1449.06 0.
-90.692 -1532.6 0.
-241.413 -1886.45 0.
-392.134 -2240.29 0.
-247.774 -2110.78 0.
-105.119 -1779.13 0.
37.5363 -1447.48 0.
-332.497 -1678.21 0.
-400.788 -1837.71 0.
-326.758 -1933.42 0.
-359.669 -2010.4 0.
-392.581 -2087.38 0.
-236.561 -2100.96 0.
-296.712 -2240.27 0.
-356.862 -2379.57 0.
-700.015 -2510.48 0.
-631.864 -2352.88 0.
-563.712 -2195.28 0.
-600.538 -2095.68 0.
-539.639 -1955.59 0.
37.1344 -1594.31 0.
-244.593 -1863.14 0.
-322.984 -2048.02 0.
-703.371 -2328.65 0.
-695.892 -2310.44 0.
-688.414 -2292.24 0.
-358.233 -2168.02 0.
-388.152 -2240.12 0.
-418.07 -2312.21 0.
-510.52 -2423.05 0.
-549.625 -2515.28 0.
-588.731 -2607.5 0.
-539.468 -2617.87 0.
-554.039 -2649.1 0.
-1014.81 -2851.53 0.
-921.443 -2634.53 0.
-828.074 -2417.54 0.
-467.475 -2153.03 0.
-483.542 -2191.67 0.
-499.61 -2230.3 0.
-429.951 -2178.32 0.
-397.039 -2102.45 0.
-364.126 -2026.58 0.
-227.185 -1968.56 0.
-231.111 -1978.63 0.
-2222.06 -2841.58 0.
24.4414 -1959.25 0.
-17.4185 -2057.59 0.
-382 -2289.16 0.
-413.572 -2359.64 0.
-445.144 -2430.11 0.
-264.94 -2271.35 0.
-129.182 -1957.52 0.
6.57672 -1643.68 0.
-499.383 -1854.34 0.
-561.722 -1999.31 0.
-624.061 -2144.29 0.
-353.539 -1977.22 0.
-316.085 -1890.74 0.
-404.634 -1875 0.
-442.923 -1963.98 0.
-481.212 -2052.95 0.
-569.453 -2151.78 0.
-586.015 -2190.85 0.
-602.577 -2229.92 0.
-575.88 -2229.76 0.
-574.038 -2222.25 0.
-572.195 -2214.73 0.
-112.252 -1922.22 0.
-48.336 -1776.92 0.
-282.495 -1762.52 0.
-331.728 -1803.8 0.
-342.698 -1828.68 0.
-264.887 -1858.23 0.
-375.68 -2115.75 0.
-486.473 -2373.27 0.
-289.466 -2307.32 0.
-186.105 -2066.26 0.
-82.7442 -1825.19 0.
-556.674 -1884.86 0.
-492.446 -1735.17 0.
-428.219 -1585.48 0.
481.018 -1160.94 0.
494.756 -1129.04 0.
-237.773 -1442.48 0.
-325.015 -1645.74 0.
-412.257 -1848.99 0.
-100.961 -1745.65 0.
13.2259 -1478 0.
127.413 -1210.35 0.
-100.73 -1189.33 0.
-78.6915 -1138.54 0.
-56.6533 -1087.75 0.
-400.615 -1290.08 0.
-442.112 -1384.71 0.
-188.828 -887.289 0.
-96.8109 -1113.12 0.
-223.931 -1410.35 0.
-168.637 -1573.67 0.
-136.584 -1498.27 0.
-104.53 -1422.87 0.
-153.743 -1527.89 0.
-304.397 -1881.89 0.
-455.051 -2235.88 0.
-172.946 -2046.91 0.
-30.3975 -1715.22 0.
112.151 -1383.52 0.
-461.86 -1703.65 0.
-530.237 -1862.86 0.
-122.776 -1813.3 0.
-155.627 -1890.26 0.
-188.477 -1967.22 0.
-335.022 -2112.09 0.
-395.189 -2251.45 0.
-455.355 -2390.81 0.
-725.729 -2490.04 0.
-657.669 -2332.2 0.
-589.61 -2174.35 0.
-272.048 -1923.56 0.
-211.036 -1783.3 0.
-675.001 -1868.07 0.
-221.007 -1822.08 0.
-299.772 -2006.76 0.
-717.29 -2303.12 0.
-709.881 -2285.14 0.
-702.472 -2267.15 0.
-434.905 -2169.66 0.
-464.932 -2241.97 0.
-494.959 -2314.29 0.
-523.103 -2397.68 0.
-562.141 -2489.9 0.
-601.179 -2582.13 0.
-597.633 -2611.56 0.
-612.049 -2642.7 0.
-836.778 -2744.2 0.
-743.482 -2527.23 0.
-650.186 -2310.26 0.
-653.393 -2200.51 0.
-669.388 -2239.38 0.
-685.383 -2278.24 0.
-327.407 -2106.08 0.
-294.247 -2030.43 0.
-261.086 -1954.78 0.
-339.685 -1984.12 0.
-342.999 -1994.63 0.
-275.517 -1976.42 0.
188.144 -1858.6 0.
146.85 -1957.24 0.
-486.587 -2302.07 0.
-517.745 -2372.78 0.
-548.902 -2443.49 0.
-539.449 -2358.15 0.
-403.762 -2044.37 0.
-268.075 -1730.58 0.
-253.798 -1718.28 0.
-316.264 -1863.02 0.
-378.73 -2007.76 0.
-219.661 -1888.21 0.
-182.037 -1801.78 0.
-398.682 -1841.3 0.
-436.94 -1930.32 0.
-475.199 -2019.34 0.
-452.429 -2069.48 0.
-468.578 -2109.03 0.
-484.727 -2148.59 0.
-560.695 -2191.29 0.
-558.771 -2183.87 0.
-556.846 -2176.46 0.
-191.262 -1925.16 0.
-127.457 -1779.59 0.
2.07762 -1609.1 0.
-59.4818 -1655.53 0.
-70.5599 -1680.32 0.
-494.932 -1926.44 0.
-605.982 -2183.45 0.
-717.032 -2440.45 0.
-503.499 -2368.77 0.
-400.36 -2127.5 0.
-297.221 -1886.24 0.
-79.6412 -1649.81 0.
-15.9071 -1499.76 0.
47.8267 -1349.71 0.
157.472 -1269.81 0.
171.05 -1237.78 0.
-180.623 -1385.62 0.
-267.594 -1589.11 0.
-354.565 -1792.59 0.
-91.4832 -1710.42 0.
22.7354 -1442.53 0.
136.954 -1174.64 0.
-215.159 -1207.95 0.
-193.325 -1157.01 0.
-171.491 -1106.06 0.
-242.202 -1190.81 0.
-283.701 -1285.61 0.
-638.672 -1556.03 0.
67.5658 -838.999 0.
79.9785 -808.125 0.
-71.8869 -1293.03 0.
57.3902 -991.355 0.
95.3065 -902.838 0.
-615.305 -2453.15 0.
388.686 -109.777 0.
402.853 -76.4053 0.
432.443 -755.316 0.
43.0741 -1663.48 0.
468.162 -671.255 0.
-57.7771 -479.256 0.
-110.434 -605.536 0.
407.654 -926.115 0.
654.935 -350.93 0.
225.1 -1355.69 0.
-590.442 -2479.02 0.
-284.343 -1766.82 0.
249.296 -523.716 0.
138.996 -388.759 0.
120.234 -433.127 0.
114.653 -446.785 0.
736.482 -167.551 0.
328.938 -1117.4 0.
338.511 -1043.4 0.
164.899 -930.666 0.
-149.398 -1667.2 0.
-358.429 -1405.08 0.
97.3709 -344.174 0.
465.972 513.289 0.
-626.528 -2437.64 0.
-224.083 -1499.28 0.
226.76 -447.909 0.
502.871 46.7516 0.
-340.958 -1921.45 0.
-1009.23 -3480.09 0.
-675.987 -2653.17 0.
-109.89 -1336.46 0.
-59.0287 -1231.91 0.
-57.1749 -1228.27 0.
148.929 -748.13 0.
-490.261 -1439.19 0.
-596.367 -1684.67 0.
136.991 28.4756 0.
607.151 -94.7145 0.
167.812 -1116.47 0.
287.264 -834.428 0.
-592.488 -2326.91 0.
82.003 -750.737 0.
-246.356 -1660.25 0.
751.149 -832.875 0.
453.024 -1524.17 0.
-379.3 -1816.65 0.
-568.044 -2257.72 0.
-743.071 -2666.76 0.
175.22 -142.34 0.
606.286 863.374 0.
397.536 376.205 0.
258.815 -960.764 0.
-238.908 -2122.11 0.
833.241 379.666 0.
541.243 -335.244 0.
-205.408 -2075.76 0.
-460.735 -1959.81 0.
608.114 533.522 0.
139.305 -561.038 0.
120.005 -927.329 0.
-78.0501 -1387.73 0.
30.9302 -1131.68 0.
-358.407 -1712.9 0.
526.051 348.94 0.
424.504 110.162 0.
-195.281 -1753.54 0.
-463.095 -2377.72 0.
610.229 -662.137 0.
376.56 -1123.05 0.
119.203 -1723.92 0.
-69.8395 -462.353 0.
-432.231 -1307.32 0.
-303.574 -1006.43 0.
-30.2822 -829.204 0.
-11.1017 -785.863 0.
-29.6943 -830.599 0.
269.16 -1707.99 0.
246.254 -1763.1 0.
-201.524 -2809.62 0.
-112.402 -1255.47 0.
360.193 -154.31 0.
615.894 389.731 0.
488.135 91.9962 0.
341.88 -249.059 0.
438.234 -463.506 0.
391.348 -573.562 0.
829.035 447.055 0.
-111.663 -721.423 0.
-212.745 -957.792 0.
-205.949 -942.407 0.
373.896 -27.7019 0.
-97.7083 -1126.46 0.
-189.235 -1421.06 0.
-68.6525 -1209.23 0.
31.06 -974.996 0.
197.757 -775.218 0.
117.298 -963.366 0.
36.8385 -1151.51 0.
-168.372 -1320.75 0.
-153.79 -1285.19 0.
-139.208 -1249.63 0.
14.5261 -1201.78 0.
-11.9195 -1263.74 0.
-38.3652 -1325.71 0.
-291.257 -1367.44 0.
-243.308 -1258.51 0.
345.384 -933.591 0.
311.021 -1015.01 0.
276.658 -1096.43 0.
-174.837 -1337.89 0.
-185.197 -1363.48 0.
-195.557 -1389.07 0.
-127.858 -1395.43 0.
-153.438 -1455.37 0.
-179.018 -1515.32 0.
39.5681 -1434.51 0.
39.1194 -1435.11 0.
56.3404 -1428 0.
-51.0768 -1485.07 0.
-54.9295 -1496.15 0.
-474.886 -1691.31 0.
-496.739 -1745.31 0.
-518.592 -1799.31 0.
-204.001 -1715.25 0.
-228.489 -1774.06 0.
-252.977 -1832.87 0.
-367.57 -1720.43 0.
-225.347 -1387.75 0.
-83.1241 -1055.06 0.
-43.0933 -1117.05 0.
-108.806 -1273.29 0.
-184.373 -1422.44 0.
-214.164 -1492.97 0.
-243.955 -1563.49 0.
-441.661 -1658.44 0.
-392.592 -1542.68 0.
-343.522 -1426.93 0.
125.83 -1224.21 0.
84.98 -1318.61 0.
44.13 -1413.01 0.
-271.588 -1710.78 0.
-367.741 -1933.11 0.
353.913 -1803.71 0.
240.245 -1743.73 0.
295.136 -1611.67 0.
-479.859 -1775.52 0.
-266.667 -1278.81 0.
-53.4754 -782.1 0.
7.48653 -778.146 0.
-287.497 -1466.48 0.
-582.48 -2154.8 0.
-143.704 -2038.14 0.
-55.9288 -1832.23 0.
31.8468 -1626.32 0.
-213.538 -1607.11 0.
-152.314 -1462.53 0.
-121.823 -1373.19 0.
-222.549 -1608.63 0.
-323.274 -1844.08 0.
-270.672 -1902.38 0.
-202.14 -1740.46 0.
-133.608 -1578.54 0.
-249.036 -1539.92 0.
-218.521 -1469.43 0.
-188.007 -1398.93 0.
28.8066 -1312.78 0.
13.4638 -1346.17 0.
57.7394 -1353.77 0.
-38.1486 -1516.5 0.
-102.217 -1665.59 0.
-535.778 -1904.98 0.
-454.679 -1715.74 0.
-373.579 -1526.5 0.
-68.8775 -1310.93 0.
-61.6506 -1295.05 0.
-54.4237 -1279.17 0.
286.277 -1053.73 0.
345.289 -917.672 0.
404.302 -781.616 0.
22.1292 -1090.67 0.
-68.6487 -1302.86 0.
-230.747 -1519.18 0.
-195.915 -1436.66 0.
-161.084 -1354.13 0.
121.686 -1216.22 0.
79.2988 -1314.77 0.
36.9117 -1413.33 0.
-252.804 -1448.96 0.
-141.496 -1189.6 0.
-30.1886 -930.249 0.
30.5907 -986.307 0.
-49.8801 -1173.6 0.
305.834 -1179.62 0.
-24.6768 -1159.11 0.
75.1396 -924.919 0.
272.774 -711.509 0.
192.434 -899.856 0.
112.095 -1088.2 0.
-198.629 -1301.8 0.
-184.246 -1266.01 0.
-169.863 -1230.21 0.
-245.852 -1281.38 0.
-272.195 -1343.68 0.
-298.538 -1405.98 0.
-94.0519 -1251.08 0.
-46.2735 -1141.88 0.
289.993 -925.269 0.
255.584 -1006.58 0.
221.175 -1087.88 0.
-248.447 -1338.35 0.
-258.906 -1363.73 0.
-269.366 -1389.1 0.
90.3297 -1270.39 0.
64.5726 -1330.14 0.
38.8156 -1389.89 0.
-132.391 -1476.7 0.
-132.466 -1477.49 0.
-110.041 -1468.48 0.
-7.75262 -1435.69 0.
-11.8784 -1446.36 0.
-451.37 -1649.95 0.
-473.297 -1704.04 0.
-495.224 -1758.14 0.
-48.1738 -1616.34 0.
-72.5476 -1675.41 0.
-96.9211 -1734.49 0.
-489.656 -1741.13 0.
-347.48 -1408.5 0.
-205.304 -1075.87 0.
-57.6433 -1092.16 0.
-123.661 -1248.21 0.
-221.238 -1405.73 0.
-250.948 -1476.6 0.
-280.658 -1547.47 0.
-250.463 -1545.68 0.
-201.159 -1429.94 0.
-151.853 -1314.19 0.
146.324 -1182.9 0.
106.177 -1277.52 0.
66.029 -1372.14 0.
-184.513 -1641.9 0.
-280.496 -1864.15 0.
149.928 -1859.95 0.
107.693 -1769.88 0.
162.782 -1638.02 0.
-607.512 -1798.08 0.
-394.361 -1301.37 0.
-181.21 -804.655 0.
152.578 -684.183 0.
-142.457 -1372.65 0.
-437.493 -2061.11 0.
-55.0442 -1969.54 0.
32.3021 -1763.01 0.
119.648 -1556.48 0.
-454.031 -1679.52 0.
-392.634 -1534.96 0.
2.29016 -1287.14 0.
-98.2161 -1522.64 0.
-198.722 -1758.13 0.
-220.243 -1848.5 0.
-151.809 -1686.42 0.
-83.3743 -1524.34 0.
-189.306 -1483.56 0.
-159.241 -1412.73 0.
-129.176 -1341.9 0.
87.7306 -1257.2 0.
71.9201 -1290.16 0.
-144.664 -1410.34 0.
-324.124 -1608.61 0.
-388.236 -1757.43 0.
-332.153 -1785.91 0.
-250.79 -1596.64 0.
-169.426 -1407.37 0.
152.714 -1184.82 0.
159.992 -1168.85 0.
167.269 -1152.88 0.
-19.2912 -1152.4 0.
39.7933 -1016.29 0.
98.8777 -880.171 0.
116.827 -1018.79 0.
25.5702 -1230.62 0.
-249.942 -1496.4 0.
-215.31 -1413.65 0.
-180.677 -1330.89 0.
144.89 -1175.8 0.
102.25 -1274.05 0.
59.6091 -1372.31 0.
-27.4115 -1321.4 0.
83.8549 -1061.93 0.
195.121 -802.461 0.
129.8 -912.391 0.
49.6625 -1100.12 0.
374.688 -961.558 0.
79.2215 -1113.82 0.
36.9314 -1214.56 0.
21.8607 -1293.5 0.
1.54395 -1341.09 0.
-18.7725 -1388.68 0.
-290.996 -1501.6 0.
-260.694 -1432.03 0.
-230.392 -1362.45 0.
-404.761 -1414.32 0.
-402.14 -1408.24 0.
-399.519 -1402.15 0.
-183.635 -1534.21 0.
-319.932 -1851.47 0.
-168.539 -2009.51 0.
-83.5641 -1811.25 0.
1.41032 -1612.99 0.
-435.816 -1711.81 0.
-470.109 -1792.16 0.
-504.401 -1872.52 0.
-141.257 -1765.24 0.
-159.261 -1808 0.
-177.265 -1850.75 0.
-386.408 -1877.84 0.
-338.509 -1766.06 0.
-134.62 -1587.34 0.
-143.563 -1682.69 0.
-193.683 -1800 0.
-598.296 -2063.33 0.
-625.675 -2123.59 0.
-653.054 -2183.85 0.
-126.667 -1892.5 0.
-13.2681 -1630.56 0.
100.131 -1368.61 0.
-555.033 -1687.26 0.
-640.972 -1887.24 0.
-726.912 -2087.22 0.
-376.425 -2024.44 0.
-416.999 -2118.81 0.
-517.816 -2220.88 0.
-462.759 -2089.55 0.
-407.703 -1958.21 0.
-338.481 -1902.54 0.
-416.759 -2082.84 0.
-495.037 -2263.13 0.
-307.411 -2120.06 0.
-184.818 -1834.28 0.
-62.2242 -1548.5 0.
-178.363 -1654.75 0.
-251.404 -1828.04 0.
-1843.04 -2652.37 0.
99.0625 -1592.35 0.
219.243 -1313.18 0.
-515.349 -1560.83 0.
-787.787 -2194.9 0.
-1060.22 -2828.97 0.
-687.594 -2774.35 0.
-472.102 -2270.75 0.
-256.61 -1767.16 0.
8.71875 -1645.77 0.
-89.5936 -1876.38 0.
-187.906 -2106.99 0.
-765.668 -2390.61 0.
-776.371 -2416.26 0.
-363.59 -2231.18 0.
-265.99 -2002.54 0.
-168.39 -1773.91 0.
-248.227 -1716.06 0.
-296.21 -1830.25 0.
-344.193 -1944.44 0.
-315.951 -1927.3 0.
-279.357 -1843.08 0.
-242.762 -1758.87 0.
-158.745 -1748.86 0.
-180.84 -1803.26 0.
-304.349 -1901.69 0.
-583.35 -2061.77 0.
-605.268 -2111.69 0.
-353.763 -2026.64 0.
-335.874 -1984.03 0.
-317.984 -1941.42 0.
-52.8768 -1807.08 0.
-50.9844 -1803.49 0.
-49.092 -1799.91 0.
-465.599 -1966.36 0.
-457.505 -1947.52 0.
-449.411 -1928.69 0.
-202.105 -1805.98 0.
-194.233 -1790.93 0.
-453.144 -1880.66 0.
-396.538 -1750.22 0.
-339.932 -1619.78 0.
-21.1096 -1412.55 0.
-22.2103 -1416.67 0.
-23.311 -1420.79 0.
-45.5164 -1485.2 0.
-91.9904 -1593.59 0.
-138.464 -1701.98 0.
-11.53 -1472.47 0.
114.025 -1180.27 0.
-154.893 -1154.67 0.
279.402 -996.17 0.
236.885 -1096.79 0.
-25.5235 -1282.94 0.
-46.1247 -1330.05 0.
-66.7256 -1377.15 0.
-238.27 -1446.58 0.
-207.878 -1376.85 0.
-177.487 -1307.11 0.
-353.217 -1361.97 0.
-350.722 -1355.7 0.
-348.227 -1349.42 0.
-265.593 -1538.18 0.
-402.04 -1855.19 0.
-67.7136 -1934.99 0.
17.2775 -1736.6 0.
102.268 -1538.21 0.
-396.27 -1663.55 0.
-430.565 -1743.92 0.
-464.861 -1824.3 0.
-375.939 -1833.85 0.
-393.991 -1876.46 0.
-412.042 -1919.07 0.
-387.493 -1848.94 0.
-339.922 -1737.06 0.
-154.936 -1566.22 0.
-232.467 -1690.03 0.
-282.336 -1807.63 0.
-525.198 -1999.43 0.
-552.543 -2060.01 0.
-579.888 -2120.6 0.
-157.971 -1876.2 0.
-44.8344 -1614.21 0.
68.3025 -1352.22 0.
-611.684 -1679.47 0.
-698.116 -1879.4 0.
-784.547 -2079.32 0.
-134.478 -1888.82 0.
-175.247 -1983.15 0.
-324.891 -2107.38 0.
-270.1 -1976.36 0.
-215.309 -1845.34 0.
-344.113 -1874.16 0.
-422.108 -2054.94 0.
-500.104 -2235.73 0.
-426.016 -2138.93 0.
-303.294 -1853.24 0.
-180.572 -1567.54 0.
-199.956 -1632.82 0.
-272.953 -1806.11 0.
-661.995 -2115.12 0.
51.4285 -1581.04 0.
171.136 -1301.42 0.
-381.111 -1472.76 0.
-653.733 -2106.68 0.
-926.354 -2740.6 0.
-665.609 -2732.53 0.
-450.006 -2229.33 0.
-234.403 -1726.12 0.
-229.229 -1716.34 0.
-328.011 -1946.52 0.
-426.792 -2176.7 0.
-503.305 -2246.97 0.
-514.266 -2272.59 0.
-369.234 -2203.13 0.
-271.973 -1973.97 0.
-174.712 -1744.8 0.
-473.15 -1782.47 0.
-521.304 -1896.08 0.
-569.458 -2009.7 0.
-189.684 -1843.1 0.
-153.083 -1758.64 0.
-116.482 -1674.19 0.
-265.66 -1763.15 0.
-287.568 -1817.68 0.
-685.407 -2033.75 0.
-427.777 -1964.19 0.
-449.366 -2014.3 0.
-333.118 -1985.95 0.
-315.134 -1943.31 0.
-297.151 -1900.67 0.
-84.5691 -1790.51 0.
-82.7828 -1787.01 0.
-80.9964 -1783.52 0.
-368.823 -1891.53 0.
-360.904 -1872.43 0.
-352.985 -1853.32 0.
-210.309 -1779.48 0.
-202.829 -1763.83 0.
-489.597 -1864.9 0.
-433.123 -1734.29 0.
-376.648 -1603.68 0.
-164.411 -1442.72 0.
-165.88 -1446.64 0.
-167.348 -1450.56 0.
-109.461 -1481 0.
-156.08 -1589.19 0.
-202.7 -1697.38 0.
160.165 -1367.97 0.
285.835 -1075.11 0.
-454.945 -819.719 0.
592.218 -621.372 0.
1120.39 611.817 0.
374.666 -224.523 0.
192.277 -650.76 0.
347.102 -290.026 0.
439.962 62.0599 0.
452.655 91.2479 0.
482.456 159.284 0.
254.109 -9.12294 0.
499.31 561.35 0.
381.068 283.896 0.
80.21 -545.97 0.
-167.696 -1126.09 0.
1141.93 734.109 0.
1096.13 623.801 0.
905.656 175.918 0.
465.315 304.82 0.
341.822 16.0055 0.
252.054 -194.171 0.
234.863 66.285 0.
213.248 15.5952 0.
-563.588 -1797.12 0.
-30.1332 -983.018 0.
373.648 -43.1929 0.
-89.527 -321.837 0.
243.211 -382.539 0.
-247.093 -1530.62 0.
127.835 -579.48 0.
494.127 273.582 0.
659.479 657.822 0.
760.485 359.062 0.
510.058 -224.769 0.
620.166 32.789 0.
77.1617 62.8242 0.
237.86 439.327 0.
-137.375 -434.061 0.
1305.14 1048.3 0.
675.121 -421.802 0.
437.969 -661.61 0.
605.24 -273.518 0.
386.885 -784.887 0.
-208.126 -1513.99 0.
601.082 372.894 0.
357.885 -195.962 0.
-83.944 -1084.81 0.
27.3359 -825.263 0.
194.047 -436.437 0.
505.659 79.4103 0.
685.66 499.424 0.
-2902.31 -1219.34 0.
643.984 -62.3781 0.
547.499 -290.117 0.
471.977 298.951 0.
471.452 295.141 0.
221.284 -290.523 0.
681.109 400.089 0.
469.403 -94.3133 0.
876.851 856.345 0.
-285.072 -1356.2 0.
25.1256 -633.358 0.
356.957 139.258 0.
608.388 -127.269 0.
707.217 108.147 0.
638.45 198.257 0.
566.553 29.4275 0.
596.284 97.9143 0.
-364.922 -1075.32 0.
283.896 439.558 0.
310.597 502.708 0.
920.215 539.735 0.
770.549 189.126 0.
508.154 -424.758 0.
153.09 -559.239 0.
792.871 933.822 0.
73.9136 396.949 0.
495.516 -74.6894 0.
846.909 744.129 0.
500.81 -44.8751 0.
405.995 -267.283 0.
311.569 -488.82 0.
413.163 -545.248 0.
367.759 -648.34 0.
546.477 -228.384 0.
292.477 -500.99 0.
121.081 -900.391 0.
690.141 427.472 0.
538.456 22.8349 0.
716.214 440.948 0.
315.395 112.884 0.
369.314 238.732 0.
606.146 791.001 0.
222.791 -235.409 0.
287.983 -82.5825 0.
274.718 -113.424 0.
-70.2962 -1238.76 0.
267.732 -450.52 0.
88.1355 -869.894 0.
485.519 -896.055 0.
433.835 -1015.06 0.
-295.834 -1009.02 0.
546.237 -802.006 0.
483.304 -947.517 0.
-173.097 -1307.26 0.
-135.868 -1219.44 0.
-98.6381 -1131.63 0.
-115.526 -1114.87 0.
-136.237 -1163.77 0.
-156.949 -1212.68 0.
-169.797 -1285.34 0.
-209.989 -1379.91 0.
-250.18 -1474.48 0.
-278.316 -1502.15 0.
-284.753 -1517 0.
136.195 -1351.23 0.
111.49 -1410.49 0.
86.7853 -1469.75 0.
-323.572 -1684.29 0.
-328.978 -1697.63 0.
-334.384 -1710.96 0.
-472.386 -1682.58 0.
-380.796 -1469.37 0.
-289.205 -1256.15 0.
-131.665 -1306.14 0.
-238.781 -1558.71 0.
-73.7009 -1694.78 0.
-534.018 -1896.38 0.
-531.562 -1892.83 0.
-406.7 -1840.91 0.
-418.807 -1871.79 0.
-430.914 -1902.68 0.
-274.617 -1840.15 0.
-263.4 -1813.17 0.
-252.184 -1786.19 0.
-575.191 -2010.12 0.
-649.752 -2184.1 0.
-724.312 -2358.08 0.
-171.827 -1933.78 0.
-50.7104 -1649.86 0.
-28.4969 -1452.55 0.
-129.636 -1689.18 0.
-230.775 -1925.81 0.
-384.172 -2054.8 0.
-277.798 -1806.59 0.
-171.424 -1558.39 0.
-217.148 -1592.6 0.
-317.856 -1829.08 0.
-418.563 -2065.57 0.
-405.684 -2019.97 0.
-347.497 -1883.99 0.
-900.908 -2010.17 0.
-34.3566 -1783.4 0.
-110.046 -1960.7 0.
-741.24 -2325.44 0.
-697.979 -2224 0.
-654.719 -2122.57 0.
-203.889 -1842.86 0.
-154.38 -1727.7 0.
-104.871 -1612.55 0.
-367.96 -1777.72 0.
-433.067 -1932.59 0.
-498.175 -2087.45 0.
-261.141 -1898.32 0.
-204.865 -1764.69 0.
-213.523 -1693.29 0.
-302.117 -1900.77 0.
-390.712 -2108.25 0.
-745.688 -2308.62 0.
-655.326 -2095.51 0.
-564.965 -1882.4 0.
-56.1655 -1660.72 0.
-122.587 -1815.33 0.
-189.009 -1969.94 0.
-434.697 -2033.77 0.
-388.223 -1924.76 0.
-387.24 -1836.11 0.
-419.671 -1734.91 0.
-357.92 -1593.32 0.
-123.945 -1437.77 0.
-192.524 -1597.89 0.
-261.102 -1758.01 0.
-245.812 -1803.8 0.
-231.155 -1766.43 0.
-216.499 -1729.06 0.
-118.24 -1652.52 0.
-98.4695 -1606.01 0.
-78.6993 -1559.49 0.
-276.803 -1526.74 0.
-212.494 -1374.37 0.
-228.013 -1265.65 0.
-212.257 -1229.69 0.
-196.5 -1193.73 0.
-29.2282 -1111 0.
-31.172 -1117.53 0.
-33.1158 -1124.06 0.
-114.903 -1139.01 0.
-93.7338 -1091.1 0.
-72.5639 -1043.19 0.
402.024 -749.531 0.
453.836 -626.54 0.
13.1449 -848.65 0.
600.786 -748.295 0.
537.817 -893.959 0.
-259.411 -1313.45 0.
-222.717 -1225.12 0.
-186.023 -1136.78 0.
-161.517 -1102.65 0.
-182.118 -1151.52 0.
-202.719 -1200.39 0.
-3.12364 -1183.19 0.
-43.3846 -1277.5 0.
-83.6457 -1371.82 0.
-200.798 -1437.88 0.
-207.482 -1452.88 0.
14.5475 -1371.45 0.
-10.3557 -1430.62 0.
-35.2591 -1489.78 0.
-229.681 -1612.9 0.
-235.281 -1626.2 0.
-240.881 -1639.5 0.
-401.636 -1619.72 0.
-309.582 -1406.72 0.
-217.527 -1193.72 0.
-69.2566 -1248.54 0.
-176.704 -1500.69 0.
119.15 -1580.2 0.
-674.147 -1925.4 0.
-671.479 -1922.01 0.
-380.529 -1797.1 0.
-392.329 -1828.36 0.
-404.13 -1859.61 0.
-371.431 -1848.92 0.
-360.147 -1822.3 0.
-348.863 -1795.68 0.
-268.65 -1846.73 0.
-342.879 -2020.82 0.
-417.109 -2194.91 0.
-398.192 -1998.96 0.
-277.264 -1715.01 0.
-167.726 -1480.54 0.
-269.356 -1716.7 0.
-370.986 -1952.85 0.
-299.726 -1988.41 0.
-193.54 -1740 0.
-87.3529 -1491.59 0.
-98.0895 -1510.52 0.
-198.457 -1747.23 0.
-298.824 -1983.94 0.
-401.89 -1986.31 0.
-343.635 -1850.59 0.
-2101.2 -2492.28 0.
55.0311 -1713.01 0.
-20.8743 -1890.52 0.
-834.56 -2334.5 0.
-791.585 -2233.01 0.
-748.611 -2131.52 0.
-92.5903 -1762.99 0.
-42.9276 -1648 0.
6.73485 -1533 0.
-232.792 -1689.59 0.
-297.938 -1844.43 0.
-363.085 -1999.26 0.
-379.028 -1916.86 0.
-322.498 -1783.44 0.
-245.124 -1674.49 0.
-334.28 -1881.77 0.
-423.436 -2089.04 0.
-549.6 -2193.98 0.
-459.207 -1980.92 0.
-368.814 -1767.86 0.
-82.6054 -1640.56 0.
-148.758 -1795.11 0.
-214.911 -1949.66 0.
-364.17 -1971.14 0.
-317.613 -1862.08 0.
-336.695 -1783.98 0.
-653.556 -1804.53 0.
-592.011 -1662.99 0.
-139.549 -1413.85 0.
-208.544 -1573.5 0.
-277.54 -1733.16 0.
-377.311 -1829.27 0.
-362.597 -1791.99 0.
-347.883 -1754.7 0.
0.0935145 -1570.07 0.
19.8966 -1523.64 0.
39.6994 -1477.21 0.
-444.657 -1567.09 0.
-380.175 -1414.54 0.
-152.857 -1202.29 0.
-137.141 -1166.33 0.
-121.426 -1130.36 0.
138.771 -1007.19 0.
137.419 -1014.29 0.
136.067 -1021.4 0.
-205.068 -1145.63 0.
-183.577 -1097.99 0.
-162.085 -1050.35 0.
239.456 -787.615 0.
291.21 -664.334 0.
51.1138 -1125.08 0.
385.033 -962.603 0.
402.85 -922.621 0.
-294.087 -1201.68 0.
-304.396 -1229.23 0.
-314.705 -1256.77 0.
-255.102 -1237.96 0.
-247.879 -1219.66 0.
-240.656 -1201.36 0.
-16.9257 -1204.18 0.
-103.167 -1404.5 0.
-189.408 -1604.82 0.
-137.699 -1494.61 0.
-72.4203 -1342.57 0.
-32.5554 -1231.8 0.
-123.856 -1443.61 0.
-215.156 -1655.41 0.
-232.441 -1724.25 0.
-143.631 -1515.65 0.
-54.8197 -1307.06 0.
-289.305 -1454.13 0.
-410.742 -1737.87 0.
-532.179 -2021.61 0.
-311.373 -1771.48 0.
-165.5 -1430.53 0.
298.355 -953.323 0.
-445.533 -1311.71 0.
-469.713 -1368.87 0.
-231.026 -1336.65 0.
-293.972 -1480.39 0.
-356.918 -1624.14 0.
-351.419 -1672.52 0.
-333.236 -1631.31 0.
-315.053 -1590.1 0.
-5.48669 -1494.77 0.
-43.472 -1583.01 0.
-81.4573 -1671.26 0.
-376.868 -1829.11 0.
-392.811 -1864.86 0.
-401.349 -1892.6 0.
-379.607 -1843.66 0.
-357.864 -1794.73 0.
-134.124 -1685.55 0.
-161.638 -1748.92 0.
-189.153 -1812.29 0.
-245.134 -1892.85 0.
-275.901 -1963.34 0.
-306.668 -2033.84 0.
-375.072 -1921.31 0.
-268.182 -1671.35 0.
-3404.31 -2811.98 0.
284.681 -1378.11 0.
208.632 -1557.32 0.
-736.993 -2058.31 0.
-700.579 -1975.86 0.
-664.164 -1893.41 0.
-67.6682 -1652.33 0.
-132.837 -1800.12 0.
-198.005 -1947.91 0.
-269.08 -1932.29 0.
-205.386 -1780.26 0.
-141.693 -1628.24 0.
-367.377 -1687.26 0.
-353.641 -1653.92 0.
-204.47 -1567.89 0.
-215.648 -1592.35 0.
-226.826 -1616.81 0.
-268.944 -1693.14 0.
-341.001 -1861 0.
-413.058 -2028.86 0.
-247.991 -1934.3 0.
-174.164 -1762.5 0.
-100.338 -1590.71 0.
-125.464 -1506.87 0.
-78.6269 -1402.05 0.
-312.953 -1421.45 0.
-675.03 -1588.58 0.
-681.316 -1603.24 0.
-103.948 -1352.76 0.
-88.2169 -1313.32 0.
-72.4862 -1273.88 0.
-272.748 -1389.15 0.
-324.006 -1510.77 0.
-375.263 -1632.39 0.
-7.48944 -1397.32 0.
74.444 -1207.45 0.
156.378 -1017.58 0.
-264.907 -1265.34 0.
-309.165 -1370.28 0.
-204.358 -1378.35 0.
-151.697 -1257.41 0.
-99.0366 -1136.47 0.
107.783 -964.22 0.
146.302 -875.302 0.
184.823 -786.385 0.
-145.376 -915.729 0.
-163.585 -955.294 0.
-181.795 -994.86 0.
-11.812 -1105.47 0.
-128.421 -1378.79 0.
166.25 -1046.45 0.
62.5046 -1069.5 0.
79.8693 -1029.3 0.
-368.528 -1203.67 0.
-379.434 -1230.74 0.
-390.339 -1257.8 0.
-263.618 -1209.35 0.
-256.337 -1191.27 0.
-249.057 -1173.19 0.
-159.271 -1234.82 0.
-245.579 -1435.13 0.
-331.888 -1635.45 0.
28.0248 -1392.64 0.
93.292 -1240.52 0.
-142.747 -1247.42 0.
-234.195 -1459.09 0.
-325.643 -1670.76 0.
-183.812 -1672.24 0.
-95.146 -1463.46 0.
-6.48002 -1254.68 0.
-231.337 -1399.33 0.
-353.202 -1682.63 0.
-475.067 -1965.93 0.
-384.87 -1771.83 0.
-239.188 -1430.87 0.
-400.604 -1221.65 0.
-353.079 -1240.84 0.
-376.822 -1298.4 0.
-348.513 -1354.97 0.
-411.471 -1498.87 0.
-474.429 -1642.77 0.
-355.237 -1640.94 0.
-337.357 -1599.65 0.
-319.476 -1558.37 0.
1.50488 -1460.97 0.
-36.9519 -1549.06 0.
-75.4086 -1637.16 0.
-245.979 -1741.97 0.
-261.45 -1777.78 0.
-360.23 -1843.36 0.
-338.891 -1793.94 0.
-317.552 -1744.51 0.
-92.7528 -1637.15 0.
-120.415 -1700.5 0.
-148.078 -1763.86 0.
-293.245 -1882.01 0.
-323.855 -1952.91 0.
-354.464 -2023.82 0.
-351.919 -1878.76 0.
-244.484 -1629.39 0.
720.158 -1012.63 0.
440.039 -1279.34 0.
364.025 -1458.59 0.
-654.793 -1992.54 0.
-618.863 -1909.8 0.
-582.932 -1827.07 0.
-211.375 -1682.93 0.
-277.041 -1830.66 0.
-342.707 -1978.38 0.
-215.603 -1879.76 0.
-152.333 -1727.32 0.
-89.0642 -1574.87 0.
-424.867 -1679.56 0.
-411.37 -1646.12 0.
-152.456 -1514.45 0.
-163.341 -1539.18 0.
-174.226 -1563.91 0.
-266.051 -1659.82 0.
-338.031 -1827.82 0.
-410.011 -1995.82 0.
-286.003 -1920.35 0.
-212.058 -1748.52 0.
-138.112 -1576.7 0.
-63.0674 -1448.07 0.
-16.7533 -1342.84 0.
-300.674 -1385.91 0.
-685.474 -1563.22 0.
-691.735 -1578.25 0.
-43.7693 -1295.78 0.
-27.7392 -1256.43 0.
-11.7091 -1217.08 0.
-307.762 -1371.95 0.
-359.133 -1493.57 0.
-410.505 -1615.18 0.
-287.524 -1486.68 0.
-205.868 -1296.7 0.
-124.212 -1106.72 0.
56.201 -1096.37 0.
11.5311 -1200.89 0.
-187.645 -1341.19 0.
-134.767 -1220.29 0.
-81.8883 -1099.39 0.
-151.013 -1043.17 0.
-111.844 -954.968 0.
-72.6739 -866.764 0.
-128.017 -876.781 0.
-146.168 -916.413 0.
-164.319 -956.046 0.
-101.062 -1112.05 0.
-217.988 -1385.44 0.
1167.06 1106.06 0.
68.3208 -403.671 0.
-121.015 -849.049 0.
-120.877 -455.733 0.
-189.039 -616.183 0.
538.982 1081.98 0.
510.458 647.653 0.
262.569 67.5455 0.
538.843 710.015 0.
-292.007 -1242.29 0.
-22.5136 -614.595 0.
357.712 271.981 0.
600.384 -339.177 0.
814.977 163.232 0.
444.593 365.937 0.
86.9012 -468.889 0.
151.519 -318.064 0.
130.912 -995.752 0.
449.1 -255.124 0.
427.261 -307.819 0.
228.397 -407.89 0.
271.848 -307.206 0.
682.226 649.884 0.
172.346 -305.848 0.
274.134 -69.8769 0.
-366.021 -970.985 0.
71.0962 -403.351 0.
612.617 858.372 0.
157.873 88.3591 0.
-54.2211 -406.128 0.
-419.454 -1257.77 0.
312.385 -40.3129 0.
118.752 -494.295 0.
258.815 -169.585 0.
748.766 307.832 0.
499.626 -274.129 0.
512.388 -245.107 0.
371.922 -511.017 0.
415.278 -410.239 0.
344.103 -252.786 0.
216.261 -551.597 0.
-16.4933 -1095.33 0.
763.224 315.741 0.
497.033 -306.805 0.
620.9 -19.2595 0.
369.172 -206.761 0.
24.1111 -1011.63 0.
513.85 131.155 0.
539.016 192.475 0.
960.458 1177.5 0.
-3040.49 -500.028 0.
1279.07 410.202 0.
1406.06 706.562 0.
345.363 216.111 0.
332.362 183.286 0.
38.9508 -503.587 0.
72.8974 -710.848 0.
412.521 78.2781 0.
107.314 -636.786 0.
315.766 -696.67 0.
622.696 15.89 0.
652.928 82.5602 0.
-44.7963 -649.705 0.
-37.2721 -635.27 0.
502.603 -52.4886 0.
604.4 183.003 0.
406.051 -281.691 0.
318.32 -271.403 0.
248.168 -435.357 0.
265.121 -396.07 0.
288.099 -480.805 0.
281.854 -493.69 0.
559.393 155.875 0.
520.119 -182.448 0.
344.697 -590.259 0.
380.877 326.744 0.
-344.098 -719.804 0.
59.4032 224.647 0.
379.998 -387.509 0.
116.95 -1001.31 0.
331.459 -501.056 0.
619.731 877.956 0.
502.421 605.963 0.
218.878 -53.4036 0.
-22.8474 -302.476 0.
-83.0783 -441.983 0.
107.185 2.74105 0.
419.619 -826.987 0.
430.926 -799.199 0.
745.671 830.939 0.
529.575 330.409 0.
6.07562 -887.62 0.
68.8524 -27.3407 0.
304.299 525.319 0.
157.903 187.758 0.
-56.2322 -706.644 0.
65.2369 -424.91 0.
552.855 712.105 0.
472.437 420.651 0.
604.927 730.816 0.
94.3289 -822.946 0.
-194.985 -1017.82 0.
-244.766 -1136.37 0.
-278.061 -1214.11 0.
-244.431 -1136.3 0.
-210.8 -1058.48 0.
-128.783 -1032.01 0.
-183.389 -1160.23 0.
-237.993 -1288.45 0.
-414.45 -1401.28 0.
-414.851 -1402.79 0.
-415.253 -1404.29 0.
83.6741 -1252.19 0.
47.5379 -1336.52 0.
-284.209 -1530.83 0.
-234.651 -1416.05 0.
-185.092 -1301.27 0.
16.3162 -1150.01 0.
17.4588 -1149.48 0.
18.6014 -1148.95 0.
-89.9996 -1256.69 0.
-150.406 -1399.69 0.
-210.812 -1542.7 0.
-586.697 -1709.81 0.
-572.626 -1678.62 0.
-383.953 -1572.57 0.
-416.107 -1513.47 0.
-373.903 -1414.65 0.
-342.7 -1317.22 0.
-302.167 -1223.76 0.
-261.635 -1130.3 0.
-268.6 -1189.33 0.
-388.315 -1470.58 0.
-508.029 -1751.82 0.
-213.348 -1662.08 0.
-179.392 -1585.14 0.
-145.436 -1508.19 0.
-71.108 -1529.97 0.
-104.816 -1609.13 0.
-98.8072 -1669.59 0.
-116.064 -1710.73 0.
-133.32 -1751.88 0.
-310.117 -1854.23 0.
-318.009 -1872.36 0.
-325.901 -1890.49 0.
-292.963 -1870.51 0.
-282.162 -1846.55 0.
-271.362 -1822.59 0.
-289.562 -1847.77 0.
-304.683 -1883.22 0.
-1490.34 -2421.71 0.
242.523 -1724.93 0.
217.749 -1781.78 0.
-632.149 -2145.25 0.
-546.569 -1945.88 0.
-460.988 -1746.51 0.
-280.407 -1646.24 0.
-354.749 -1820.01 0.
-429.09 -1993.78 0.
-192.123 -1828.93 0.
-106.861 -1633.26 0.
-21.5986 -1437.59 0.
-270.533 -1584.35 0.
-301.885 -1659.19 0.
-320.952 -1712.31 0.
-295.732 -1655.03 0.
-270.513 -1597.76 0.
-183.391 -1560.81 0.
-227.839 -1664.29 0.
-272.286 -1767.77 0.
-389.8 -1888.28 0.
-417.835 -1952.26 0.
-445.869 -2016.24 0.
-300.02 -1924.42 0.
-274.579 -1862.8 0.
-284.135 -1811.57 0.
-534.435 -1771.66 0.
-458.78 -1592.07 0.
-180.112 -1362.27 0.
-178.51 -1359.19 0.
-176.907 -1356.12 0.
-384.526 -1383.66 0.
-315.277 -1219.06 0.
-246.027 -1054.46 0.
-278.604 -1073.63 0.
-316.177 -1159.81 0.
-353.749 -1246 0.
70.2482 -934.553 0.
144.451 -758.898 0.
214.572 -629.14 0.
129.411 -824.475 0.
44.2517 -1019.81 0.
-502.576 -1339.58 0.
-481.152 -1286.03 0.
-459.728 -1232.47 0.
-186.817 -1124.87 0.
-209.261 -1177.63 0.
-231.704 -1230.39 0.
-406.9 -1261.17 0.
-370.539 -1176.28 0.
-190.368 -913.442 0.
-178.512 -979.461 0.
-228.563 -1097.99 0.
-55.7771 -1087.18 0.
-22.457 -1009.06 0.
10.8637 -930.928 0.
-14.2512 -952.03 0.
-69.1173 -1080 0.
-123.983 -1207.97 0.
-464.876 -1392.17 0.
-465.332 -1393.74 0.
-465.788 -1395.31 0.
-53.7111 -1279.51 0.
-89.6428 -1364.14 0.
-163.721 -1446.63 0.
-114.156 -1331.81 0.
-64.5906 -1216.98 0.
-26.4488 -1136.77 0.
-25.4793 -1135.77 0.
-24.51 -1134.78 0.
-17.6331 -1195.13 0.
-78.1693 -1338.22 0.
-138.706 -1481.32 0.
-761.505 -1753.26 0.
-747.748 -1722.11 0.
-209.192 -1466.49 0.
-413.505 -1480.59 0.
-371.593 -1381.92 0.
-198.1 -1225.5 0.
-157.755 -1132.01 0.
-117.41 -1038.53 0.
-359.262 -1195.08 0.
-478.452 -1476.76 0.
-597.642 -1758.43 0.
-339.889 -1683.02 0.
-306.2 -1605.93 0.
-272.511 -1528.84 0.
-61.9483 -1495.94 0.
-95.9094 -1574.69 0.
119.036 -1545.03 0.
101.964 -1586.09 0.
84.8913 -1627.16 0.
-472.529 -1892.5 0.
-480.658 -1910.37 0.
-488.787 -1928.24 0.
-213.968 -1805.79 0.
-203.31 -1781.58 0.
-192.653 -1757.37 0.
-214.939 -1784.18 0.
-229.953 -1819.62 0.
-770.256 -2081.2 0.
110.253 -1749.92 0.
85.7308 -1806.83 0.
-573.47 -2088.76 0.
-488.043 -1889.79 0.
-402.616 -1690.82 0.
-205.769 -1582.25 0.
-280.408 -1756.1 0.
-355.048 -1929.95 0.
-203.954 -1802.97 0.
-118.927 -1607.19 0.
-33.9003 -1411.42 0.
-41.128 -1454.8 0.
-72.723 -1529.7 0.
-440.939 -1731.78 0.
-415.243 -1675 0.
-389.546 -1618.21 0.
-108.142 -1496.64 0.
-152.349 -1600.31 0.
-196.555 -1703.99 0.
-464.779 -1889.88 0.
-492.332 -1954.02 0.
-519.884 -2018.15 0.
-375.773 -1925.29 0.
-349.963 -1864.05 0.
85.7916 -1621.13 0.
-199.423 -1596.9 0.
-123.397 -1417.84 0.
-337.783 -1398.45 0.
-336.429 -1395.12 0.
-335.074 -1391.78 0.
-412.661 -1364.84 0.
-343.121 -1200.42 0.
-273.582 -1036.01 0.
-170.721 -995.837 0.
-208.253 -1082 0.
-245.785 -1168.16 0.
-285.454 -1055.77 0.
-211.212 -880.165 0.
346.659 -541.298 0.
261.79 -736.686 0.
176.921 -932.074 0.
-496.009 -1304.08 0.
-474.409 -1250.78 0.
-452.809 -1197.49 0.
-111.937 -1061.86 0.
-134.493 -1114.76 0.
-157.05 -1167.66 0.
-583.883 -1304.72 0.
-547.338 -1220.29 0.
-360.021 -1169.54 0.
-164.988 -989.087 0.
-84.9316 -800.385 0.
250.771 -558.971 0.
183.418 -715.548 0.
116.066 -872.126 0.
-40.2 -1008.56 0.
-34.0172 -994.37 0.
-27.8348 -980.178 0.
-308.416 -1125.13 0.
-329.408 -1174.2 0.
-350.4 -1223.26 0.
-95.4361 -1197.29 0.
-142.57 -1306.78 0.
-106.658 -1356.74 0.
-50.0514 -1222.19 0.
6.55473 -1087.64 0.
-82.9757 -1113.51 0.
-182.549 -1343.14 0.
-282.122 -1572.76 0.
-163.872 -1493.14 0.
-52.8931 -1233.14 0.
58.0855 -973.146 0.
-670.302 -1324.76 0.
-728.244 -1460.28 0.
54.9562 -1235.05 0.
-282.257 -1387.11 0.
-291.472 -1408.45 0.
-291.638 -1420.32 0.
-268.961 -1367.92 0.
-246.285 -1315.52 0.
-472.109 -1452.55 0.
-552.127 -1637.4 0.
-632.145 -1822.26 0.
-405.732 -1714.02 0.
-352.156 -1590.05 0.
-298.58 -1466.09 0.
-46.518 -1450.68 0.
-111.873 -1602.95 0.
98.7719 -1606.35 0.
179.329 -1417.89 0.
259.885 -1229.43 0.
-210.451 -1350.2 0.
-246.325 -1434.15 0.
-282.199 -1518.09 0.
-176.688 -1515.74 0.
-187.56 -1540.52 0.
-198.431 -1565.3 0.
-32.581 -1506.03 0.
-34.656 -1510.97 0.
-2309.1 -2488.42 0.
247.326 -1324.7 0.
282.864 -1241.45 0.
-300.488 -1475.6 0.
-389.965 -1685.38 0.
-479.441 -1895.15 0.
-341.94 -1838.76 0.
-234.943 -1589.09 0.
-127.946 -1339.42 0.
61.078 -1254.15 0.
10.747 -1371.03 0.
-39.5841 -1487.92 0.
-9.25312 -1533 0.
-37.3674 -1595.96 0.
-459.474 -1805.88 0.
-388.069 -1637.94 0.
-316.665 -1470.01 0.
-15.5614 -1249.75 0.
-7.03623 -1229.27 0.
1.48907 -1208.79 0.
-293.761 -1282.1 0.
-258.552 -1199.15 0.
-223.344 -1116.19 0.
-115.469 -1205.29 0.
-216.747 -1442.1 0.
158.391 -1480.86 0.
-126.451 -1437.76 0.
-38.6976 -1235.07 0.
-365.8 -1226.21 0.
-331.498 -1146.31 0.
-297.197 -1066.42 0.
-165.367 -1024.64 0.
-214.576 -1139.16 0.
-263.786 -1253.67 0.
-217.337 -1268.5 0.
-225.555 -1289.38 0.
-233.772 -1310.26 0.
-559.048 -1474.83 0.
-568.107 -1498.02 0.
-15.2307 -1257.27 0.
50.3966 -1106.29 0.
116.024 -955.303 0.
-314.085 -1076.81 0.
-330.023 -1116.67 0.
-345.96 -1156.54 0.
-109.638 -1008.96 0.
-56.3845 -885.056 0.
-3.13093 -761.149 0.
-400.692 -800.674 0.
-325.661 -626.792 0.
-211.781 -1079.21 0.
-105.829 -932.723 0.
-25.9049 -743.886 0.
263.355 -522.324 0.
196.121 -678.914 0.
128.887 -835.504 0.
-121.696 -1010.78 0.
-115.056 -996.913 0.
-108.416 -983.046 0.
-125.994 -1016.51 0.
-146.909 -1065.63 0.
-167.823 -1114.75 0.
-113.636 -1171.98 0.
-160.762 -1281.76 0.
-145.296 -1342.09 0.
-89.185 -1207.36 0.
-33.0737 -1072.64 0.
-170.191 -1119.53 0.
-269.387 -1349.5 0.
-368.583 -1579.47 0.
-247.012 -1496.59 0.
-135.982 -1236.69 0.
-24.9515 -976.786 0.
-680.016 -1296.53 0.
-737.793 -1432.28 0.
-22.1927 -1236.48 0.
-22.3276 -1244.52 0.
-31.5811 -1265.68 0.
-431.968 -1448.86 0.
-409.149 -1396.45 0.
-386.33 -1344.05 0.
-361.131 -1374.64 0.
-441.232 -1559.45 0.
-521.333 -1744.25 0.
-376.208 -1668.82 0.
-322.633 -1544.78 0.
-269.058 -1420.75 0.
-37.7968 -1416.39 0.
-103.265 -1568.24 0.
-69.5393 -1647.94 0.
10.8235 -1459.05 0.
91.186 -1270.15 0.
63.1518 -1202.34 0.
27.2034 -1286.05 0.
-8.74432 -1369.75 0.
-439.436 -1596.13 0.
-449.968 -1621.09 0.
-460.5 -1646.06 0.
72.2761 -1429.37 0.
70.2994 -1434.33 0.
-1535.58 -2125.08 0.
309.651 -1265.86 0.
344.885 -1182.47 0.
-305.853 -1447.25 0.
-395.364 -1656.88 0.
-484.874 -1866.52 0.
-444.935 -1852.51 0.
-338.084 -1602.64 0.
-231.232 -1352.76 0.
177.428 -1174 0.
127.554 -1291.46 0.
77.68 -1408.92 0.
-47.6296 -1516.83 0.
-75.7789 -1580.07 0.
-282.099 -1697.13 0.
-210.124 -1529.59 0.
-138.15 -1362.06 0.
-93.995 -1251.42 0.
-85.255 -1231.24 0.
-76.5149 -1211.06 0.
-403.069 -1297.56 0.
-367.935 -1214.35 0.
-332.8 -1131.15 0.
-127.674 -1179.93 0.
-229.076 -1416.61 0.
-171.695 -1589.28 0.
-415.263 -1528.58 0.
-327.727 -1326.04 0.
-421.603 -1219.15 0.
-387.234 -1139.45 0.
-352.864 -1059.76 0.
150.455 -857.645 0.
101.13 -972.264 0.
51.8048 -1086.88 0.
-119.159 -1194.15 0.
-127.132 -1215.46 0.
-135.105 -1236.76 0.
-399.962 -1375.96 0.
-408.876 -1399.23 0.
-242.202 -1323.24 0.
-176.327 -1172.13 0.
-110.451 -1021.03 0.
-69.9703 -940.266 0.
-85.9219 -980.134 0.
-101.873 -1020 0.
-200.606 -1017.01 0.
-147.391 -893.155 0.
-94.1753 -769.297 0.
-261.786 -710.599 0.
-187.036 -537.556 0.
374.45 60.9359 0.
553.318 524.025 0.
129.764 -465.538 0.
703.925 511.362 0.
295.745 -441.251 0.
503.839 44.7117 0.
256.028 54.4941 0.
650.005 975.612 0.
339.859 253.591 0.
416.927 -71.0878 0.
711.675 617.635 0.
484.672 89.5226 0.
401.38 98.858 0.
800.57 1030.54 0.
962.492 1357.2 0.
433.182 119.781 0.
296.826 -200.248 0.
-78.5735 -711.243 0.
364.609 322.845 0.
148.591 -181.299 0.
-69.6699 -883.702 0.
213.701 -222.183 0.
463.332 360.552 0.
-237.908 -226.308 0.
273.725 965.256 0.
563.41 194.342 0.
533.846 -410.821 0.
571.421 -322.834 0.
-686.652 -1759.34 0.
-31.9986 -229.087 0.
-66.6413 -306.928 0.
-89.7306 -916.323 0.
519.221 505.525 0.
639.44 787.247 0.
319.663 -70.9327 0.
279.068 -164.867 0.
427.134 181.219 0.
719.46 370.965 0.
609.744 114.667 0.
475.901 -26.1132 0.
436.853 -113.441 0.
324.426 -371.879 0.
561.471 -533.51 0.
809.705 46.5229 0.
876.449 203.047 0.
-64.3435 -191.339 0.
-316.233 -778.185 0.
-177.626 -454.11 0.
739.236 -37.3312 0.
953.993 463.241 0.
-1110.22 -719.538 0.
1140.91 581.694 0.
647.338 -570.709 0.
-289.405 -1367.9 0.
82.2891 -500.389 0.
238.354 -136.15 0.
311.775 137.685 0.
608.259 830.029 0.
214.209 -88.7928 0.
736.712 -67.7718 0.
482.69 -660.867 0.
954.567 439.681 0.
414.261 -332.978 0.
532.392 -58.607 0.
741.023 377.2 0.
491.219 -202.593 0.
686.068 255.212 0.
358.102 -19.8901 0.
776.824 958.955 0.
490.066 291.877 0.
-82.3257 -313.648 0.
84.654 78.6924 0.
97.8159 112.062 0.
-115.924 -1106.11 0.
-173.093 -1241.57 0.
468.218 763.985 0.
-72.2272 -146.698 0.
-11.4741 -6.31641 0.
292.199 591.015 0.
-99.5364 -325.53 0.
285.344 569.623 0.
716.016 -112.024 0.
675.767 -206.551 0.
629.124 -315.679 0.
44.3422 -967.906 0.
237.455 -517.585 0.
114.374 -804.498 0.
244.803 -150.047 0.
60.7244 -580.549 0.
144.805 36.8802 0.
117.309 -25.9131 0.
-312.649 -1028.17 0.
334.919 -435.279 0.
800.272 649.939 0.
442.132 -186.666 0.
104.373 -96.2735 0.
-172.559 -742.064 0.
196.016 117.345 0.
-133.667 -662.805 0.
156.472 14.2338 0.
-129.444 -1014.52 0.
-40.6633 -847.856 0.
15.8077 -717.673 0.
169.317 -578.287 0.
138.31 -652.131 0.
107.303 -725.975 0.
-159.1 -899.608 0.
-189.623 -969.148 0.
-220.146 -1038.69 0.
124.085 -941.89 0.
97.9453 -1003.44 0.
71.8058 -1064.98 0.
-254.172 -1119.86 0.
-196.44 -985.439 0.
90.2552 -768.23 0.
75.7969 -806.04 0.
61.3385 -843.851 0.
-162.102 -968.932 0.
-183.591 -1019.42 0.
-205.08 -1069.91 0.
-295.257 -1138.56 0.
-305.713 -1163.07 0.
-316.168 -1187.59 0.
-464.632 -1284.81 0.
-487.243 -1337.03 0.
261.635 -1058.96 0.
-148.12 -1230.66 0.
-140.933 -1214.43 0.
-190.889 -1233.89 0.
-226.077 -1315 0.
-261.265 -1396.12 0.
-261.124 -1385.79 0.
-206.284 -1256.85 0.
-151.444 -1127.91 0.
-237.623 -1306.48 0.
-379.043 -1636.04 0.
-520.464 -1965.6 0.
-203.162 -1729.83 0.
-124.131 -1545.75 0.
-209.968 -1463.08 0.
-278.237 -1624.85 0.
-346.507 -1786.62 0.
-48.6788 -1686.02 0.
51.6653 -1453.09 0.
152.009 -1220.15 0.
-313.938 -1381.03 0.
-356.997 -1482.98 0.
-400.055 -1584.94 0.
15.3227 -1478.68 0.
-19.2365 -1560.3 0.
821.397 -1268.52 0.
129.146 -1584.58 0.
118.748 -1608.77 0.
-445.402 -1837.58 0.
-378.524 -1682.89 0.
-311.646 -1528.19 0.
-375.337 -1524.84 0.
-422.508 -1634.99 0.
-469.679 -1745.14 0.
114.979 -1408.59 0.
204.328 -1197.56 0.
293.677 -986.526 0.
-89.3268 -1271.99 0.
-170.613 -1463.09 0.
-212.089 -1618.77 0.
-214.002 -1620.23 0.
-215.916 -1621.68 0.
-258.487 -1563.71 0.
-147.097 -1302.45 0.
-35.7079 -1041.19 0.
-185.33 -1116.41 0.
-280.42 -1339.21 0.
-375.51 -1562.01 0.
-366.004 -1425.52 0.
-249.867 -1156.55 0.
-141.969 -889.216 0.
-421.863 -1140.4 0.
-490.566 -1301.05 0.
-457.083 -1383.5 0.
-436.928 -1340.81 0.
-416.773 -1298.12 0.
59.5079 -1064.14 0.
69.0431 -1043 0.
78.5787 -1021.86 0.
17.0798 -1125.9 0.
-43.4624 -1266.61 0.
-104.005 -1407.33 0.
-311.088 -1317.08 0.
-202.585 -1064.14 0.
-296.432 -928.872 0.
-306.825 -951.725 0.
-317.218 -974.578 0.
55.2144 -806.228 0.
83.1039 -740.56 0.
110.993 -674.892 0.
-212.928 -762.52 0.
-185.07 -697.238 0.
-157.213 -631.956 0.
-79.5283 -657.675 0.
-126.711 -768.814 0.
-167.814 -1004.07 0.
-31.5156 -813.657 0.
25.1451 -683.393 0.
103.976 -574.147 0.
73.5046 -648.317 0.
43.033 -722.486 0.
-150.867 -864.35 0.
-181.151 -933.96 0.
-211.436 -1003.57 0.
240.198 -860.621 0.
214.31 -922.423 0.
188.422 -984.225 0.
-401.655 -1150.99 0.
-344.034 -1016.81 0.
160.059 -706.741 0.
144.946 -743.933 0.
129.834 -781.126 0.
-111.843 -916.485 0.
-133.423 -966.869 0.
-155.003 -1017.25 0.
-421.423 -1162.18 0.
-431.936 -1186.66 0.
-442.449 -1211.14 0.
-169.602 -1127.2 0.
-192.824 -1178.98 0.
1079.13 -676.139 0.
-538.946 -1369.02 0.
-531.704 -1353.06 0.
159.797 -1051.02 0.
125.279 -1132.72 0.
90.7605 -1214.43 0.
-210.434 -1331.97 0.
-155.074 -1203.37 0.
-99.7145 -1074.76 0.
-254.022 -1280.51 0.
-395.351 -1610.09 0.
-536.68 -1939.67 0.
-215.672 -1704.34 0.
-137.06 -1519.74 0.
-274.93 -1460.22 0.
-343.452 -1621.31 0.
-411.975 -1782.4 0.
-177.767 -1710.94 0.
-77.1727 -1478.2 0.
23.4216 -1245.45 0.
26.0614 -1204.1 0.
-17.0511 -1306.16 0.
-60.1631 -1408.22 0.
-95.9247 -1495.64 0.
-130.631 -1577.2 0.
-308.739 -1720.98 0.
41.8887 -1590.36 0.
31.5979 -1614.73 0.
-372.614 -1775.13 0.
-305.401 -1620.94 0.
-238.189 -1466.75 0.
-327.909 -1473.59 0.
-375.487 -1583.27 0.
-423.066 -1692.94 0.
70.7311 -1397.18 0.
160.155 -1186.56 0.
249.579 -975.93 0.
-195.924 -1285.81 0.
-276.865 -1476.93 0.
-315.204 -1630.53 0.
-316.782 -1632.24 0.
-318.36 -1633.94 0.
-186.223 -1501.66 0.
-74.6983 -1240.52 0.
36.8262 -979.378 0.
128.011 -950.451 0.
33.2505 -1173.7 0.
-61.5106 -1396.95 0.
-484.996 -1445.07 0.
-368.829 -1176.49 0.
-387.339 -962.797 0.
-311.706 -1061.69 0.
-380.494 -1222.48 0.
-323.942 -1295.56 0.
-303.815 -1252.91 0.
-283.687 -1210.26 0.
-229.873 -1157.14 0.
-220.031 -1136.3 0.
-210.189 -1115.46 0.
81.4732 -1066.47 0.
21.4643 -1207.95 0.
-38.5446 -1349.42 0.
-363.794 -1308.52 0.
-255.423 -1055.49 0.
-316.931 -906.25 0.
-327.305 -928.789 0.
-337.679 -951.328 0.
-75.819 -831.731 0.
-48.314 -765.508 0.
-20.8092 -699.285 0.
-237.203 -742.968 0.
-209.479 -677.731 0.
-181.754 -612.495 0.
2.01755 -590.515 0.
-44.9669 -702.046 0.
-134.944 -771.947 0.
-95.2486 -772.881 0.
-80.1189 -735.086 0.
79.8476 -644.711 0.
70.0709 -664.746 0.
60.2937 -684.781 0.
-101.873 -818.394 0.
-170.685 -978.615 0.
-239.497 -1138.84 0.
124.383 -927.662 0.
204.849 -739.391 0.
285.314 -551.119 0.
-269.931 -888.225 0.
-340.07 -1051.07 0.
-10.0029 -1027.9 0.
1.65042 -998.779 0.
13.304 -969.653 0.
-168.03 -1023.01 0.
-156.398 -993.808 0.
-144.766 -964.605 0.
-324.084 -1053.91 0.
-347.716 -1109.52 0.
-371.349 -1165.13 0.
-135.833 -1091.77 0.
-141.47 -1106.02 0.
1236.65 -526.87 0.
-510.547 -1247.92 0.
-502.467 -1226.2 0.
242.176 -909.026 0.
209.011 -983.847 0.
175.847 -1058.67 0.
-215.312 -1271.22 0.
-230.483 -1304.18 0.
-245.653 -1337.15 0.
-215.641 -1274.81 0.
-165.228 -1158.39 0.
-114.815 -1041.96 0.
20.1476 -1044.7 0.
-24.7952 -1150.86 0.
-209.58 -1302.4 0.
-179.775 -1232.63 0.
-149.971 -1162.86 0.
48.5835 -1074.43 0.
-11.6448 -1212.9 0.
-71.8729 -1351.37 0.
0.64874 -1335.94 0.
37.8182 -1248.16 0.
74.9874 -1160.37 0.
5.4895 -1192.36 0.
-8.72047 -1224.91 0.
-114.233 -1298.31 0.
191.609 -1161.68 0.
194.696 -1154.75 0.
-179.588 -1294.79 0.
-147.536 -1219.13 0.
-115.485 -1143.47 0.
-130.944 -1142.28 0.
-155.859 -1204.05 0.
-180.775 -1265.83 0.
9.65209 -1290.07 0.
-59.2438 -1450.89 0.
-128.14 -1611.72 0.
-290.195 -1526.24 0.
-190.719 -1294.05 0.
-157.37 -1127.03 0.
-216.154 -1263.41 0.
-274.939 -1399.79 0.
-129.944 -1375.17 0.
-78.5147 -1255.78 0.
-27.0854 -1136.38 0.
152.013 -972.225 0.
192.455 -874.204 0.
232.897 -776.183 0.
-313.538 -965.129 0.
-293.908 -920.361 0.
-102.758 -804.205 0.
-235.757 -995.57 0.
-306.612 -1161.04 0.
-166.34 -1188.98 0.
-144.18 -1131.86 0.
-122.022 -1074.74 0.
-288.739 -1099.37 0.
-262.648 -1035.63 0.
-236.557 -971.902 0.
116.434 -770.633 0.
143.575 -706.794 0.
170.716 -642.955 0.
-211.007 -929.317 0.
-284.799 -1100.86 0.
-418.481 -1251.1 0.
-288.72 -949.963 0.
-158.958 -648.827 0.
-30.618 -435.561 0.
-39.639 -456.879 0.
-48.6602 -478.197 0.
-219.062 -664.083 0.
-317.131 -894.707 0.
-415.199 -1125.33 0.
-153.236 -1084.62 0.
-169.869 -1124.19 0.
-251.777 -789.446 0.
-271.427 -818.991 0.
-256.349 -780.866 0.
180.592 -568.459 0.
171.276 -588.7 0.
161.959 -608.94 0.
-6.38821 -746.746 0.
-75.09 -907.101 0.
-143.792 -1067.46 0.
-174.391 -1023.45 0.
-93.6759 -835.305 0.
-12.9608 -647.16 0.
-34.6416 -756.67 0.
-104.593 -919.85 0.
-133.507 -1048.03 0.
-121.75 -1019.01 0.
-109.993 -989.978 0.
-215.298 -1012.27 0.
-203.775 -982.945 0.
-192.252 -953.623 0.
-51.224 -905.384 0.
-74.6328 -961.3 0.
-98.0415 -1017.22 0.
-349.897 -1150.82 0.
-355.466 -1165.2 0.
487.147 -815.807 0.
-143.984 -1061.05 0.
-135.955 -1039.33 0.
-27.8568 -992.287 0.
-60.8494 -1067.34 0.
-93.8421 -1142.38 0.
-311.863 -1281 0.
-326.719 -1314.04 0.
-341.575 -1347.08 0.
-73.2722 -1181.26 0.
-22.7692 -1064.93 0.
27.7338 -948.593 0.
-45.6623 -1042.28 0.
-90.6101 -1148.25 0.
-120.224 -1231.55 0.
-90.1125 -1162.15 0.
-60.0015 -1092.74 0.
94.312 -1024.72 0.
34.37 -1163.56 0.
-25.5718 -1302.41 0.
-247.627 -1409.63 0.
-210.372 -1322.37 0.
-173.117 -1235.11 0.
69.9875 -1133.34 0.
55.8438 -1166.15 0.
-336.582 -1362.03 0.
240.235 -1108.8 0.
242.744 -1101.6 0.
-259.785 -1297.68 0.
-227.793 -1222.02 0.
-195.8 -1146.37 0.
-10.8481 -1059.51 0.
-35.6652 -1121.33 0.
-60.4827 -1183.16 0.
-169.274 -1335.17 0.
-238.018 -1496.2 0.
-306.762 -1657.23 0.
-124.308 -1423.22 0.
-24.7459 -1190.9 0.
-165.691 -1099.58 0.
-224.52 -1235.78 0.
-283.349 -1371.98 0.
-165.434 -1360.76 0.
-113.929 -1241.39 0.
-62.4237 -1122.03 0.
-54.0215 -1027.79 0.
-13.5204 -930.023 0.
26.9805 -832.258 0.
-237.205 -900.562 0.
-217.893 -855.732 0.
383.226 -564.034 0.
-194.791 -946.39 0.
-265.507 -1111.78 0.
-3.97784 -1088.82 0.
18.9228 -1032.56 0.
41.8231 -976.305 0.
-180.291 -1021.12 0.
-154.038 -957.494 0.
-127.784 -893.87 0.
-149.94 -852.639 0.
-122.342 -789.303 0.
-94.7443 -725.968 0.
-146.191 -869.515 0.
-219.819 -1041.05 0.
-243.813 -1145.26 0.
-114.121 -843.486 0.
15.5721 -541.71 0.
-171.217 -465.175 0.
-180.445 -486.228 0.
-189.673 -507.281 0.
-199.1 -624 0.
-297.377 -854.662 0.
-395.655 -1085.32 0.
-52.9427 -1010.9 0.
-69.8435 -1050.57 0.
-294.767 -627.89 0.
29.7263 251.956 0.
-322.335 -571.99 0.
300.185 -452.405 0.
516.174 54.5701 0.
733.203 563.648 0.
-77.4292 -1061.3 0.
642.68 616.102 0.
616.687 552.692 0.
307.985 706.171 0.
-218.534 -521.952 0.
-456.514 -1076.92 0.
350.044 -281.725 0.
328.361 -334.055 0.
256.607 135.277 0.
214.55 37.3588 0.
-99.2737 -694.671 0.
-168.189 -774.386 0.
95.4735 -159.107 0.
165.931 5.18246 0.
554.411 27.1699 0.
564.275 49.03 0.
761.888 508.948 0.
-184.509 -324.85 0.
-379.765 -781.995 0.
8.91417 -899.129 0.
46.0475 -1287.55 0.
604.672 15.6033 0.
351.923 444.593 0.
-6.17256 -390.799 0.
-24.9086 -434.174 0.
-59.9991 -474.203 0.
-8.78272 -355.302 0.
121.166 -52.7704 0.
377.939 -369.863 0.
-45.3913 -1356.78 0.
582.971 109.709 0.
297.258 -87.427 0.
105.777 -534.111 0.
622.45 362.63 0.
488.822 48.9799 0.
412.794 -130.221 0.
508.075 -122.315 0.
647.032 201.518 0.
680.518 279.536 0.
55.6481 -192.303 0.
-200.275 -790.626 0.
-406.037 -1271.57 0.
436.1 -365.4 0.
705.431 262.212 0.
-607.274 -871.918 0.
575.445 -393.071 0.
568.414 -410.46 0.
130.058 -201.275 0.
16.9942 -463.604 0.
303.622 206.89 0.
334.39 -456.071 0.
353.85 -408.723 0.
440.384 -204.73 0.
-297.105 -1260.72 0.
-252.471 -1154.18 0.
23.6625 -507.69 0.
431.349 -417.868 0.
280.324 -768.818 0.
231.756 -122.921 0.
-5.4691 -673.372 0.
39.5383 -565.551 0.
338.239 -91.8642 0.
483.671 247.145 0.
176.035 -471.245 0.
178.663 -57.6996 0.
232.937 70.8475 0.
226.399 56.8089 0.
322.18 288.824 0.
65.3696 -309.253 0.
261.442 -542.468 0.
210.971 -56.296 0.
-226.881 -1073.19 0.
660.216 180.672 0.
308.304 -638.72 0.
531.69 -115.737 0.
110.575 -513.269 0.
403.214 166.782 0.
248.239 -197.523 0.
-240.039 -521.148 0.
-248.317 -539.822 0.
98.2295 269.389 0.
144.02 -286.939 0.
-186.606 -1056.72 0.
267.541 -253.255 0.
513.679 321.74 0.
451.597 177.098 0.
-278.95 -422.034 0.
32.73 308.728 0.
112.108 497.369 0.
79.1721 18.0376 0.
-259.085 -772.211 0.
295.208 521.854 0.
307.429 -324.874 0.
365.966 -191.586 0.
120.059 -400.807 0.
-339.912 -657.544 0.
-407.173 -815.794 0.
333.758 -600.03 0.
343.071 -575.82 0.
352.385 -551.609 0.
-9.01023 -645.746 0.
47.6162 -515.794 0.
104.243 -385.84 0.
-49.8304 -433.96 0.
-59.9018 -455.819 0.
-69.9733 -477.679 0.
152.03 -502.347 0.
75.4717 -679.808 0.
-285.029 -973.207 0.
-298.542 -1006.33 0.
-312.053 -1039.45 0.
-297.992 -1071.1 0.
-335.157 -1158.14 0.
-372.321 -1245.19 0.
36.5896 -1031.71 0.
103.009 -876.694 0.
169.429 -721.677 0.
-331.987 -1018.37 0.
-406.675 -1194.59 0.
428.551 -980.465 0.
5.53195 -1239.11 0.
-33.1641 -1329.39 0.
-465.369 -1527.06 0.
-353.654 -1268.05 0.
-241.939 -1009.04 0.
-411.294 -1047.25 0.
-509.732 -1278.15 0.
-608.171 -1509.05 0.
-85.6946 -1305.57 0.
-57.3274 -1236.28 0.
-28.9607 -1167 0.
-125.9 -1213.2 0.
-132.767 -1229.04 0.
116.536 -1135.73 0.
121.229 -1126.61 0.
125.921 -1117.48 0.
-222.24 -1300.16 0.
-282.484 -1441.47 0.
-342.728 -1582.79 0.
-405.947 -1589.81 0.
-337.555 -1433.18 0.
-269.164 -1276.55 0.
84.0365 -1116.3 0.
71.0912 -1145.59 0.
440.673 -1011.55 0.
66.4098 -1064.75 0.
122.457 -934.043 0.
86.3661 -901.63 0.
3.46606 -1094.02 0.
-79.4337 -1286.41 0.
-127.547 -1334 0.
-58.4942 -1171.94 0.
10.5589 -1009.89 0.
-153.848 -1043.76 0.
-159.667 -1055.53 0.
-165.487 -1067.3 0.
84.8126 -915.106 0.
110.606 -854.324 0.
-86.2063 -907.662 0.
-144.469 -1043.08 0.
-202.732 -1178.49 0.
-185.884 -1253.62 0.
-199.918 -1284.98 0.
-213.952 -1316.35 0.
-177.799 -1278.76 0.
-147.351 -1206.07 0.
-116.902 -1133.37 0.
-237.275 -1146.59 0.
-220.02 -1105.93 0.
438.733 -792.826 0.
-378.675 -1187.14 0.
-403.5 -1242.19 0.
-34.776 -1104.16 0.
-1.54048 -1025.4 0.
31.6956 -946.641 0.
-163.155 -976.801 0.
-140.61 -924.797 0.
-118.065 -872.794 0.
-367.445 -1018.47 0.
-408.558 -1114.85 0.
-449.67 -1211.23 0.
-330.457 -1092.39 0.
-284.56 -984.983 0.
90.7097 -736.551 0.
121.6 -664.204 0.
152.491 -591.856 0.
-210.045 -756.468 0.
-281.8 -924.004 0.
-353.557 -1091.54 0.
-291.697 -1010.37 0.
-184.041 -758.675 0.
-76.3857 -506.977 0.
270.329 -310.715 0.
269.108 -313.482 0.
524.445 -200.188 0.
-299.399 -608.539 0.
-366.795 -766.86 0.
470.245 -509.896 0.
479.652 -485.723 0.
489.058 -461.55 0.
-128.056 -664.344 0.
-71.3873 -534.66 0.
-14.7187 -404.976 0.
125.991 -328.248 0.
115.419 -349.398 0.
104.847 -370.548 0.
37.8804 -520.732 0.
-38.877 -697.925 0.
-349.405 -970.192 0.
-363.488 -1003.04 0.
-377.571 -1035.88 0.
-283.218 -1034.03 0.
-320.438 -1121.21 0.
-357.658 -1208.39 0.
-26.4603 -1026.98 0.
40.0318 -872.158 0.
106.524 -717.335 0.
-130.757 -900.491 0.
-204.865 -1077.21 0.
369.254 -975.554 0.
-54.9858 -1232.87 0.
-93.086 -1323.53 0.
-413.018 -1473.25 0.
-301.446 -1214.1 0.
-189.874 -954.945 0.
-524.545 -1063.14 0.
-622.635 -1294.5 0.
-720.725 -1525.86 0.
-147.09 -1299.83 0.
-118.32 -1231.23 0.
-89.5506 -1162.63 0.
-35.6203 -1143.04 0.
-42.7187 -1158.48 0.
299.438 -1026.98 0.
303.958 -1017.74 0.
308.477 -1008.51 0.
-482.929 -1381.59 0.
-542.939 -1523.05 0.
-602.949 -1664.51 0.
-221.624 -1479.53 0.
-153.107 -1323.3 0.
-84.591 -1167.07 0.
65.3414 -1091.7 0.
52.4694 -1121.19 0.
-419.493 -1348.26 0.
-189.338 -1142.82 0.
-133.528 -1011.97 0.
419.946 -728.068 0.
336.866 -920.43 0.
253.787 -1112.79 0.
-216.043 -1340.33 0.
-146.842 -1178.41 0.
-77.6416 -1016.49 0.
-75.9114 -979.413 0.
-81.8583 -990.934 0.
-87.8056 -1002.46 0.
-63.2634 -947.188 0.
-37.7114 -886.167 0.
-44.5383 -859.057 0.
-102.662 -994.425 0.
-160.785 -1129.79 0.
-202.235 -1229.46 0.
-216.025 -1261.03 0.
-229.816 -1292.61 0.
46.9828 -1150.62 0.
77.2169 -1077.79 0.
107.451 -1004.96 0.
-151.361 -1078.59 0.
-133.793 -1038.05 0.
653.606 -668.772 0.
-491.148 -1204.11 0.
-515.318 -1259.73 0.
-195.82 -1140.05 0.
-162.339 -1061.53 0.
-128.858 -983.017 0.
-238.989 -978.958 0.
-216.886 -926.463 0.
-194.784 -873.967 0.
-243.404 -933.385 0.
-284.396 -1029.81 0.
-325.388 -1126.24 0.
-469.687 -1120.25 0.
-423.458 -1012.87 0.
140.308 -683.359 0.
171.337 -611.102 0.
202.365 -538.845 0.
70.4071 -605.027 0.
-1.63031 -772.458 0.
-73.6679 -939.889 0.
-189.386 -935.397 0.
-82.0617 -683.531 0.
25.2624 -431.665 0.
232.862 -295.143 0.
230.552 -297.126 0.
483.541 48.1574 0.
-69.0859 -389.721 0.
-151.234 -579.095 0.
358.851 -495.751 0.
318.147 -593.215 0.
277.443 -690.68 0.
-226.523 -897.636 0.
-152.325 -723.41 0.
-78.1268 -549.184 0.
119.388 -511.004 0.
38.6296 -701.737 0.
-42.1283 -892.47 0.
-154.695 -868.947 0.
-95.6644 -731.83 0.
-185.288 -668.716 0.
-202.305 -707.549 0.
-219.32 -746.383 0.
-214.711 -747.977 0.
-183.173 -677.2 0.
-151.635 -606.424 0.
166.635 -446.752 0.
165.638 -450.22 0.
164.641 -453.688 0.
11.6015 -678.578 0.
-98.6121 -932.079 0.
4.10592 -1093.83 0.
-4.16276 -986.055 0.
55.2934 -849.206 0.
-95.5995 -852.383 0.
-141.29 -958.133 0.
-186.98 -1063.88 0.
-593.221 -1227.35 0.
-533.371 -1084.46 0.
-473.521 -941.575 0.
82.8547 -713.263 0.
49.0285 -792.511 0.
15.2023 -871.759 0.
-15.8537 -1024.96 0.
-95.4679 -1212.71 0.
210.404 -1199.29 0.
310.531 -964.558 0.
410.658 -729.826 0.
-283.9 -920.644 0.
-311.901 -986.185 0.
-339.902 -1051.73 0.
27.349 -957.523 0.
-7.70277 -1037.59 0.
-42.7543 -1117.66 0.
45.6315 -1029.22 0.
90.3785 -923.651 0.
84.1386 -839.467 0.
-232.125 -1132.96 0.
-314.321 -1326.66 0.
192.82 -1214.16 0.
243.48 -1097.95 0.
294.141 -981.74 0.
-172.141 -1137.7 0.
-183.48 -1164.65 0.
-194.819 -1191.61 0.
-77.9123 -1050.89 0.
-1.3637 -875.312 0.
75.185 -699.735 0.
-70.5115 -1009.55 0.
-222.979 -1366.49 0.
-375.866 -1651.45 0.
-216.321 -1277.47 0.
-56.7757 -903.481 0.
15.1365 -720.588 0.
-64.4936 -905.742 0.
-144.124 -1090.9 0.
55.4741 -1101.91 0.
29.0833 -1165.43 0.
2.69239 -1228.94 0.
-208.992 -1137.58 0.
-79.9344 -835.436 0.
-851.262 -918.051 0.
-363.298 -872.202 0.
-449.363 -1071.94 0.
-244.955 -1087.74 0.
-185.342 -948.85 0.
-125.729 -809.957 0.
-156.402 -787.126 0.
-192.4 -874.587 0.
-228.398 -962.048 0.
-185.733 -896.375 0.
-127.38 -758.494 0.
-69.0266 -620.613 0.
-278.12 -655.917 0.
-257.902 -608.965 0.
183.213 -416.328 0.
77.8665 -661.76 0.
-27.4798 -907.191 0.
-38.8483 -995.231 0.
29.8364 -835.012 0.
98.5208 -674.794 0.
-36.2565 -712.142 0.
-73.7399 -800.946 0.
-111.223 -889.75 0.
-51.0605 -861.323 0.
-34.6735 -825.183 0.
-395.243 -299.352 0.
248.856 -222.364 0.
167.096 -412.249 0.
-23.8389 -628.1 0.
-64.4495 -725.716 0.
-105.06 -823.332 0.
-68.971 -796.255 0.
5.70627 -622.735 0.
80.3835 -449.215 0.
146.111 -469.215 0.
65.2386 -659.94 0.
-15.6341 -850.666 0.
-101.134 -814.341 0.
-41.7246 -677.377 0.
-5.04747 -560.406 0.
-22.5833 -599.07 0.
-40.1186 -637.734 0.
-333.638 -768.137 0.
-302.544 -696.967 0.
-271.45 -625.797 0.
126.696 -433.664 0.
125.62 -437.228 0.
124.544 -440.793 0.
-47.6674 -672.396 0.
-157.892 -925.971 0.
-577.675 -1311.38 0.
-38.4108 -968.732 0.
20.9197 -831.621 0.
5.33519 -777.589 0.
-39.9504 -883.603 0.
-85.2362 -989.617 0.
-439.073 -1130.28 0.
-379.125 -987.709 0.
-319.177 -845.142 0.
122.897 -663.781 0.
88.9195 -743.011 0.
54.9415 -822.24 0.
-152.911 -1054.07 0.
-232.79 -1241.2 0.
12.4719 -1252.16 0.
113.415 -1018.1 0.
214.358 -784.032 0.
19.4865 -759.24 0.
-8.38429 -825.118 0.
-36.255 -890.995 0.
-66.1611 -965.143 0.
-100.734 -1046 0.
-135.307 -1126.86 0.
-24.0018 -1027.55 0.
20.584 -921.77 0.
42.8047 -825.421 0.
-49.6534 -1023.57 0.
-131.729 -1217.15 0.
-162.922 -1335.41 0.
-112.886 -1218.63 0.
-62.8484 -1101.85 0.
-156.26 -1099.98 0.
-167.683 -1127.04 0.
-179.107 -1154.1 0.
-53.3539 -1010.3 0.
22.8789 -834.451 0.
99.1116 -658.606 0.
167.749 -875.691 0.
15.1767 -1232.77 0.
-372.701 -1620.09 0.
-213.439 -1245.81 0.
-54.1783 -871.534 0.
54.0702 -672.758 0.
-25.5549 -857.767 0.
-105.18 -1042.78 0.
-172.094 -1168.77 0.
-198.52 -1232.06 0.
-224.947 -1295.34 0.
-342.377 -1163.32 0.
-213.458 -861.28 0.
-882.242 -900.286 0.
-247.26 -791.511 0.
-333.172 -991.41 0.
-225.888 -1048.2 0.
-166.679 -908.722 0.
-107.471 -769.243 0.
-38.2243 -704.943 0.
-74.4013 -792.171 0.
-110.578 -879.399 0.
-171.677 -858.869 0.
-113.606 -720.835 0.
-55.5338 -582.801 0.
-122.655 -558.967 0.
-102.728 -511.906 0.
-0.919805 -462.954 0.
-105.962 -708.672 0.
-211.003 -954.39 0.
-146.458 -1010.25 0.
-78.3349 -849.372 0.
-10.212 -688.495 0.
35.1104 -651.534 0.
-2.32138 -740.24 0.
-39.753 -828.945 0.
-82.8001 -843.13 0.
-66.5739 -806.575 0.
-206.074 423.772 0.
810.349 526.31 0.
197.007 -904.611 0.
-465.581 -908.105 0.
-7.31547 161.928 0.
-235.982 -370.909 0.
173.815 -499.888 0.
104.653 -661.476 0.
603.375 501.966 0.
716.061 844.891 0.
554.868 469.05 0.
457.158 241.122 0.
199.612 -198.166 0.
122.386 -380.009 0.
520.001 358.466 0.
632.171 622.137 0.
260.982 -241.785 0.
-458.146 -802.254 0.
111.97 528.794 0.
-27.7956 203.766 0.
261.056 -16.9326 0.
521.177 588.567 0.
621.452 820.94 0.
-119.24 -696.674 0.
-24.1441 -473.462 0.
193.139 -894.424 0.
247.602 -202.068 0.
9.24367 -756.681 0.
347.939 -143.116 0.
584.383 407.638 0.
555.554 339.689 0.
196.545 92.4716 0.
114.949 -98.3887 0.
177.577 47.3919 0.
414.592 -30.1428 0.
203.815 -521.421 0.
140.879 -667.578 0.
70.5887 -248.161 0.
33.6367 -335.793 0.
259.06 -275.19 0.
-14.038 -913.12 0.
-87.4728 -1085.25 0.
326.717 -593.534 0.
599.033 42.0328 0.
578.597 -5.40922 0.
382.406 294.751 0.
324.259 160.566 0.
350.946 224.269 0.
534.345 432.914 0.
531.497 428.113 0.
-1005.5 -915.006 0.
345.684 -410.732 0.
361.909 -374.98 0.
-167.201 -624.315 0.
58.9709 -97.0314 0.
281.774 422.106 0.
278.043 -92.11 0.
121.482 -456.476 0.
381.475 151.223 0.
740.15 823.767 0.
651.632 617.48 0.
461.968 175.293 0.
620.981 -248.731 0.
730.156 4.77302 0.
-122.229 -1003.52 0.
-8.76986 -739.033 0.
166.005 -331.687 0.
240.712 -280.452 0.
438.866 181.356 0.
557.298 457.347 0.
-17.6173 -341.734 0.
172.368 100.762 0.
103.251 -61.9506 0.
-106.17 -331.459 0.
-43.6706 -185.193 0.
-675.101 -1345.59 0.
174.97 3.52683 0.
348.148 408.073 0.
404.13 418.581 0.
573.253 812.259 0.
360.861 315.702 0.
356.936 24.5165 0.
282.575 -147.04 0.
617.892 638.032 0.
390.603 453.669 0.
207.944 28.1864 0.
182.022 -31.5209 0.
562.405 773.891 0.
724.011 1154.71 0.
-539.195 -1339.8 0.
160.83 294.049 0.
-64.4833 -231.932 0.
213.274 69.3563 0.
123.066 -141.635 0.
194.431 23.7863 0.
258.914 -236.153 0.
475.482 271.168 0.
420.603 144.195 0.
768.096 1228.37 0.
-43.7481 -670.443 0.
-449.493 -481.3 0.
520.294 -210.772 0.
426.225 -430.112 0.
-271.491 -853.146 0.
-201.085 -689.731 0.
-130.678 -526.315 0.
-3.45507 -501.912 0.
-136.399 -810.157 0.
-269.342 -1118.4 0.
-113.286 -1040.19 0.
-29.7642 -845.53 0.
53.7579 -650.866 0.
61.4195 -521.343 0.
126.086 -372.975 0.
146.986 -258.028 0.
152.41 -248.151 0.
157.835 -238.273 0.
-211.774 -412.687 0.
-246.997 -493.49 0.
-282.219 -574.293 0.
-28.7014 -559.95 0.
-94.0992 -712.791 0.
-159.497 -865.633 0.
-36.1998 -756.896 0.
25.5866 -613.601 0.
-210.354 -597.934 0.
-31.0782 -641.164 0.
-93.8683 -786.981 0.
-81.2465 -891.099 0.
-136.898 -1018.94 0.
-192.55 -1146.77 0.
-214.984 -1186.31 0.
-171.769 -1087.03 0.
-128.553 -987.736 0.
46.7523 -851.975 0.
68.3328 -803.046 0.
89.9135 -754.118 0.
-219.25 -819.466 0.
-179.363 -727.938 0.
225.39 -522.942 0.
60.1714 -906.689 0.
-105.047 -1290.44 0.
-209.504 -1501.63 0.
-141.266 -1342.33 0.
-73.0275 -1183.04 0.
-215.47 -1160.04 0.
-191.554 -1103.75 0.
-167.638 -1047.45 0.
-132.43 -1099.36 0.
-182.299 -1219.19 0.
1303.19 -682.671 0.
107.48 -1060.99 0.
177.859 -896.492 0.
-243.271 -949.597 0.
-191.76 -828.376 0.
-140.249 -707.156 0.
128.188 -618.701 0.
34.1692 -837.262 0.
-59.8492 -1055.82 0.
-122.875 -1197.4 0.
-164.056 -1294.49 0.
-205.237 -1391.58 0.
190.802 -1092.18 0.
271.013 -905.538 0.
-176.162 -958.743 0.
-172.795 -953.089 0.
-169.428 -947.436 0.
-32.642 -898.207 0.
-48.4173 -935.264 0.
-64.1927 -972.322 0.
-365.96 -985.529 0.
-248.929 -708.526 0.
-131.899 -431.523 0.
-307.336 -746.816 0.
-503.211 -1202.5 0.
-315.335 -1487.99 0.
-271.226 -1049.01 0.
-50.6787 -533.239 0.
99.9538 -200.829 0.
-25.4811 -495.595 0.
-150.916 -790.361 0.
-5.37678 -803.237 0.
62.6703 -644.127 0.
130.718 -485.018 0.
-104.989 -507.994 0.
-78.1114 -448.653 0.
-51.2343 -389.311 0.
-98.9805 -581.386 0.
-200.866 -817.224 0.
-279.364 -1005.43 0.
-233.21 -896.471 0.
-187.057 -787.507 0.
-116.975 -680.643 0.
-82.651 -602.238 0.
-48.3269 -523.832 0.
38.8726 -458.586 0.
40.0296 -456.144 0.
41.1869 -453.702 0.
318.14 -294.105 0.
346.268 -232.309 0.
-203.733 -347.596 0.
568.318 -160.435 0.
474.152 -379.731 0.
-44.1576 -723.459 0.
26.7912 -560.529 0.
97.7397 -397.598 0.
-204.82 -556.17 0.
-337.4 -864.559 0.
-469.981 -1172.95 0.
-121.958 -1011.97 0.
-38.3894 -817.289 0.
45.1787 -622.607 0.
81.4157 -481.189 0.
146.381 -333.268 0.
32.1069 -274.508 0.
37.5722 -264.9 0.
43.0376 -255.291 0.
-94.6669 -330.55 0.
-129.998 -411.457 0.
-165.33 -492.364 0.
-85.3522 -553.052 0.
-150.553 -705.998 0.
-215.753 -858.943 0.
115.213 -661.298 0.
177.067 -517.721 0.
-879.171 -853.566 0.
-128.33 -650.78 0.
-190.765 -796.833 0.
-199.128 -911.174 0.
-254.841 -1038.99 0.
-310.554 -1166.81 0.
-34.8686 -1077.5 0.
8.50391 -978.048 0.
51.877 -878.596 0.
45.9249 -820.846 0.
67.5404 -772.074 0.
89.1561 -723.303 0.
-254.126 -803.336 0.
-214.206 -711.791 0.
331.243 -445.098 0.
166.56 -829.454 0.
1.87661 -1213.81 0.
-377.87 -1542.16 0.
-309.251 -1383.39 0.
-240.632 -1224.63 0.
-170.572 -1108.93 0.
-146.28 -1053.2 0.
-121.988 -997.477 0.
-126.467 -1065.75 0.
-176.084 -1185.64 0.
-1502.96 -1852.42 0.
173.562 -1000.07 0.
244.388 -835.938 0.
-148.602 -878.345 0.
-97.1321 -757.237 0.
-45.6622 -636.128 0.
241.048 -539.032 0.
147.277 -757.788 0.
53.5064 -976.544 0.
-104.405 -1157.8 0.
-145.432 -1254.92 0.
-186.459 -1352.03 0.
120.746 -1090.09 0.
201.144 -903.608 0.
-249.079 -959.018 0.
-246.17 -953.201 0.
-243.261 -947.383 0.
-24.7013 -864.044 0.
-40.6997 -900.901 0.
-56.6983 -937.758 0.
-439.977 -986.698 0.
-323.497 -709.508 0.
-207.018 -432.319 0.
-321.419 -722.611 0.
-517.647 -1177.92 0.
66.6221 -1293.42 0.
-248.478 -1007.04 0.
-28.1602 -490.834 0.
67.2088 -185.409 0.
-58.2212 -479.802 0.
-183.651 -774.196 0.
0.945636 -769.282 0.
69.6267 -610.516 0.
138.308 -451.749 0.
-190.411 -514.129 0.
-163.435 -454.851 0.
-136.459 -395.573 0.
-178.178 -583.358 0.
-279.643 -819.549 0.
-124.905 -906.093 0.
-78.3151 -797.45 0.
-31.7251 -688.808 0.
-110.578 -647.515 0.
-76.3441 -568.937 0.
-42.1104 -490.36 0.
-96.0123 -484.093 0.
-94.6871 -482.02 0.
-93.3617 -479.946 0.
581.07 -152.08 0.
609.427 -90.2884 0.
-197.745 -691.89 0.
428.057 -325.595 0.
492.633 -176.42 0.
262.137 -180.387 0.
259.176 -186.568 0.
256.214 -192.749 0.
-140.392 -327.194 0.
-93.3115 -219.247 0.
-46.2302 -111.3 0.
187.762 -51.8326 0.
131.208 -184.436 0.
74.654 -317.04 0.
-45.0723 -554.302 0.
-147.544 -793.251 0.
-314.255 -1023.32 0.
-233.483 -835.619 0.
-152.711 -647.918 0.
-120.505 -555.705 0.
-155.292 -638.656 0.
-190.078 -721.608 0.
-200.974 -842.53 0.
-276.885 -1021.42 0.
-352.796 -1200.32 0.
-51.8903 -1005.24 0.
14.0051 -853.874 0.
-435.387 -921.983 0.
-187.752 -768.72 0.
-163.115 -707.218 0.
-127.401 -658.333 0.
-146.08 -704.544 0.
-164.759 -750.755 0.
209.19 -587.34 0.
241.035 -512.521 0.
272.881 -437.702 0.
147.635 -459.287 0.
158.078 -434.607 0.
168.521 -409.927 0.
-173.453 -691.416 0.
-254.869 -881.826 0.
204.745 -809.421 0.
267.792 -663.156 0.
330.84 -516.891 0.
-41.6704 -578.046 0.
-10.3088 -504.262 0.
21.0529 -430.479 0.
17.869 -512.124 0.
-84.1524 -749.26 0.
-186.174 -986.396 0.
31.2298 -823.403 0.
110.546 -638.449 0.
-1072.91 -995.04 0.
436.23 -414.34 0.
401.055 -495.464 0.
-75.5714 -757.91 0.
-97.7357 -812.995 0.
-119.9 -868.081 0.
174.75 -725.616 0.
222.805 -614.806 0.
270.86 -503.995 0.
102.683 -570.153 0.
83.9304 -612.915 0.
65.1784 -655.677 0.
343.248 -442.469 0.
401.069 -305.599 0.
22.2988 -379.807 0.
-13.3092 -461.406 0.
-48.9176 -543.005 0.
75.1953 -488.944 0.
145.072 -325.115 0.
214.949 -161.286 0.
-176.529 -312.993 0.
-221.43 -423.303 0.
-266.332 -533.614 0.
-240.808 -568.178 0.
-255.737 -604.551 0.
559.161 -285.521 0.
-141.967 -606.452 0.
-150.843 -629.694 0.
-110.956 -613.033 0.
-81.5342 -543.855 0.
-52.1123 -474.677 0.
158.546 -380.134 0.
125.494 -457.013 0.
92.4433 -533.891 0.
-241.434 -648.696 0.
-204.143 -558.325 0.
-166.851 -467.954 0.
-156.993 -440.768 0.
-149.032 -422.463 0.
80.6667 -321.691 0.
34.2904 -430.345 0.
-12.0857 -538.998 0.
-57.006 -575.565 0.
1.82483 -438.138 0.
60.6558 -300.711 0.
-75.6389 -318.468 0.
-81.5062 -331.6 0.
-87.3732 -344.732 0.
511.291 -198.498 0.
439.037 -364.832 0.
-367.126 -733.428 0.
233.804 -376.996 0.
298.491 -228.024 0.
241.656 -157.463 0.
238.959 -163.834 0.
236.261 -170.204 0.
11.6614 -230.271 0.
58.652 -122.146 0.
105.643 -14.0204 0.
-18.3263 -108.996 0.
-74.6258 -241.803 0.
-130.926 -374.61 0.
-264.261 -616.781 0.
-366.759 -855.803 0.
-236.017 -958.158 0.
-155.372 -770.374 0.
-74.7269 -582.59 0.
-22.7589 -482.248 0.
-57.5216 -565.31 0.
-92.2842 -648.372 0.
-85.2631 -760.118 0.
-161.159 -939.061 0.
-237.055 -1118 0.
-218.473 -1045.68 0.
-152.448 -894.434 0.
100.153 -661.166 0.
-71.4034 -687.131 0.
-46.2866 -626.049 0.
-63.03 -598.02 0.
-81.5571 -644.371 0.
-100.084 -690.723 0.
145.681 -583.68 0.
177.451 -508.968 0.
209.222 -434.258 0.
42.0646 -473.296 0.
52.5514 -448.8 0.
63.038 -424.304 0.
-20.1179 -593.561 0.
-101.495 -783.997 0.
206.349 -777.664 0.
269.307 -631.258 0.
332.265 -484.852 0.
-33.8578 -543.688 0.
-2.30418 -470.143 0.
29.2496 -396.598 0.
-169.802 -560.677 0.
-271.793 -797.854 0.
-373.785 -1035.03 0.
204.214 -718.657 0.
283.352 -533.362 0.
-392.132 -671.46 0.
404.592 -395.848 0.
369.191 -477.053 0.
-77.0664 -728.782 0.
-99.8341 -783.674 0.
-122.602 -838.566 0.
124.303 -715.311 0.
172.445 -604.565 0.
220.587 -493.818 0.
3.57144 -580.511 0.
-14.576 -623.575 0.
-32.7231 -666.639 0.
321.93 -420.415 0.
380.343 -283.991 0.
177.883 -280.371 0.
142.315 -361.999 0.
106.745 -443.628 0.
-52.7454 -512.474 0.
16.4305 -348.131 0.
85.6063 -183.789 0.
-120.877 -258.358 0.
-166.38 -368.262 0.
-211.883 -478.166 0.
-149.572 -498.598 0.
-164.655 -534.79 0.
16.3201 -487.521 0.
-296.164 -641.376 0.
-305.194 -664.556 0.
-36.3668 -550.044 0.
-6.76914 -480.92 0.
22.8288 -411.797 0.
155.465 -349.069 0.
122.94 -426.125 0.
90.4147 -503.182 0.
-117.043 -564.99 0.
-79.4809 -474.499 0.
-41.9182 -384.009 0.
-144.038 -402.995 0.
-136.385 -384.197 0.
-145.998 -387.42 0.
-192.229 -495.968 0.
-238.46 -604.517 0.
25.3639 -510.287 0.
84.2496 -372.843 0.
143.135 -235.399 0.
-44.735 -273.868 0.
-50.1651 -287.443 0.
-55.5949 -301.018 0.
171.854 -313.243 0.
101.088 -480.907 0.
424.316 731.433 0.
403.684 422.572 0.
535.545 728.743 0.
237.293 -99.8447 0.
125.859 -356.921 0.
86.8476 -445.297 0.
229.62 16.9628 0.
389.136 390.932 0.
25.4565 -455.918 0.
-163.356 -22.8503 0.
-137.79 34.3399 0.
10.9059 379.09 0.
-202.351 -16.6042 0.
-393.961 -463.685 0.
409.475 430.274 0.
457.347 541.28 0.
14.0381 -493.39 0.
214.267 -83.6624 0.
98.2972 -354.649 0.
215.69 -81.7752 0.
203.226 -272.029 0.
202.772 -275.593 0.
729.003 949.743 0.
88.5813 22.2345 0.
-81.5215 -375.156 0.
-137.603 434.597 0.
388.555 193.281 0.
112.324 -450.518 0.
-320.844 -1294.02 0.
-214.558 -1046.78 0.
-17.3778 -587.098 0.
198.791 -310.427 0.
420.875 207.802 0.
261.019 -164.572 0.
98.4073 -112.993 0.
138.171 -19.6347 0.
-225.33 -866.706 0.
271.384 -178.899 0.
24.1689 -753.525 0.
55.1721 -1099.64 0.
383.519 -333.467 0.
750.594 523.169 0.
398.335 479.799 0.
213.054 47.7298 0.
201.066 20.1979 0.
-139.005 -98.2377 0.
-101.62 -10.6501 0.
-744.247 -1509.7 0.
315.127 -763.638 0.
465.156 -412.666 0.
568.834 -211.995 0.
587.55 132.256 0.
587.825 133.366 0.
24.8625 -462.034 0.
44.6753 -415.501 0.
26.8635 -456.255 0.
191.381 -434.009 0.
348.707 -68.9886 0.
512.227 310.516 0.
30.5345 -296.359 0.
-117.382 -643.209 0.
51.9123 -250.145 0.
133.046 -794.704 0.
420.262 -125.135 0.
563.767 363.403 0.
352.666 -130.225 0.
268.864 -326.699 0.
-186.258 -546.047 0.
-124.652 -401.327 0.
-70.0667 -272.753 0.
-53.5226 -172.836 0.
-49.6207 -166.157 0.
140.049 274.518 0.
239.793 264.198 0.
173.731 112.661 0.
276.06 -155.637 0.
0.808962 373.595 0.
-324.937 -387.441 0.
22.8016 -516.877 0.
-115.056 -839.328 0.
39.6405 -479.117 0.
258.511 -72.033 0.
597.659 718.972 0.
252.959 -85.8503 0.
3.36194 -489.379 0.
199.082 -33.1001 0.
-29.8326 -567.668 0.
83.3082 137.613 0.
26.29 4.78566 0.
-211.317 -73.5811 0.
-221.063 -97.1061 0.
-426.783 -578.04 0.
-6.5637 -719.548 0.
425.329 288.465 0.
503.025 470.194 0.
102.918 46.0357 0.
-61.2918 -337.824 0.
516.53 1009.21 0.
44.7069 60.0435 0.
302.688 664.593 0.
-455.087 -452.967 0.
-2.37524 -183.378 0.
20.0126 -129.469 0.
185.709 -36.7934 0.
146.328 -127.396 0.
106.946 -217.998 0.
40.8863 -311.023 0.
12.7663 -376.207 0.
-15.3537 -441.39 0.
-314.76 -508.451 0.
-253.142 -364.132 0.
-191.524 -219.813 0.
-347.623 -259.099 0.
-339.716 -239.841 0.
215.461 -17.7554 0.
81.4302 -332.176 0.
-52.6007 -646.598 0.
-49.801 -748.896 0.
60.1295 -491.944 0.
170.06 -234.992 0.
163.062 -232.049 0.
77.1033 -432.289 0.
-8.85566 -632.529 0.
-288.039 -820.597 0.
-303.875 -858.085 0.
128.038 -702.821 0.
-35.7938 -800.029 0.
-54.3523 -843.269 0.
-128.057 -866.087 0.
-28.4527 -632.009 0.
71.1512 -397.932 0.
140.875 -353.047 0.
28.0069 -617.304 0.
-84.8612 -881.562 0.
-217.491 -944.523 0.
-164.772 -820.252 0.
-112.052 -695.982 0.
25.3492 -636.657 0.
18.6365 -650.057 0.
122.284 -616.447 0.
117.519 -624.284 0.
112.754 -632.121 0.
-152.869 -730.062 0.
-122.268 -658.507 0.
-91.6673 -586.953 0.
-68.5966 -557.412 0.
-72.6387 -568.021 0.
-76.6806 -578.63 0.
276.266 -461.273 0.
254.077 -514.21 0.
-885.555 -1046.18 0.
161.444 -584.398 0.
169.373 -567.895 0.
-63.0492 -697.996 0.
-154.583 -911.481 0.
-246.116 -1124.97 0.
-65.4689 -1089.41 0.
0.0233387 -936.355 0.
65.5157 -783.305 0.
-225.546 -797.155 0.
-171.764 -668.911 0.
-117.982 -540.668 0.
329.563 -426.286 0.
278.589 -546.153 0.
-10.8903 -738.683 0.
72.8666 -547.042 0.
156.624 -355.4 0.
-132.945 -406.537 0.
-180.85 -518.941 0.
-228.756 -631.345 0.
-171.095 -634.665 0.
-152.711 -593.968 0.
-134.326 -553.272 0.
-148.592 -507.03 0.
-120.331 -441.517 0.
89.7105 -299.754 0.
-301.573 -488.425 0.
-312.253 -514.848 0.
23.1195 -399.08 0.
-0.544576 -453.869 0.
-24.2088 -508.659 0.
34.5991 -501.761 0.
45.348 -473.709 0.
56.0969 -445.658 0.
38.807 -496.841 0.
-5.31673 -599.983 0.
-49.4405 -703.126 0.
-344.906 -727.276 0.
-279.515 -575.41 0.
-261.932 -448.112 0.
-218.143 -346.004 0.
-174.355 -243.896 0.
110.716 -115.894 0.
30.2148 -302.999 0.
-50.2869 -490.104 0.
-67.9342 -548.57 0.
-53.5533 -515.509 0.
-39.1724 -482.447 0.
-360.077 -493.673 0.
-280.907 -303.751 0.
241.583 -123.78 0.
-167.326 -222.046 0.
-145.007 -168.151 0.
105.983 -39.6476 0.
66.663 -130.411 0.
27.3428 -221.174 0.
0.44787 -297.037 0.
-27.6486 -362.416 0.
-55.745 -427.796 0.
-228.784 -439.659 0.
-167.148 -295.629 0.
-105.511 -151.599 0.
-383.89 -242.903 0.
-376.245 -223.475 0.
231.72 20.4786 0.
97.9643 -294.351 0.
-35.7922 -609.181 0.
-6.11638 -697.491 0.
103.847 -440.531 0.
213.81 -183.572 0.
106.416 -224.768 0.
20.8848 -425.359 0.
-64.6464 -625.949 0.
-288.47 -789.17 0.
-303.694 -826.792 0.
-331.803 -869.135 0.
-21.3312 -762.789 0.
-39.6987 -805.872 0.
-98.4889 -821.017 0.
1.12067 -586.992 0.
100.73 -352.967 0.
107.419 -335.877 0.
-5.30418 -600.25 0.
-118.028 -864.623 0.
-149.618 -885.106 0.
-97.1536 -760.622 0.
-44.6891 -636.138 0.
-19.4572 -623.387 0.
-26.2606 -636.724 0.
-38.5615 -654.742 0.
-43.6259 -662.382 0.
-48.6904 -670.022 0.
-176.485 -708.439 0.
-145.913 -636.804 0.
-115.341 -565.17 0.
283.488 -375.085 0.
279.094 -385.282 0.
274.7 -395.479 0.
82.7323 -513.488 0.
60.3482 -566.256 0.
-972.339 -1051.67 0.
34.9405 -607.257 0.
42.8867 -591.131 0.
-32.9014 -653.099 0.
-124.01 -867.209 0.
-215.119 -1081.32 0.
-15.7456 -1036.57 0.
49.9834 -883.86 0.
115.713 -731.146 0.
-263.24 -781.363 0.
-208.968 -653.335 0.
-154.697 -525.307 0.
391.791 -368.249 0.
341.26 -488.635 0.
-117.671 -750.87 0.
-33.9912 -559.452 0.
49.6887 -368.033 0.
-117.108 -368.542 0.
-165.12 -480.938 0.
-213.131 -593.333 0.
-57.1229 -553.938 0.
-38.6894 -513.222 0.
-20.256 -472.507 0.
-206.072 -501.125 0.
-177.84 -435.32 0.
-698.305 -607.037 0.
-200.29 -414.058 0.
-210.682 -440.625 0.
-24.7076 -387.065 0.
-47.8451 -442.21 0.
-70.9829 -497.356 0.
0.829399 -482.939 0.
11.5953 -454.751 0.
22.3613 -426.563 0.
102.874 -438.998 0.
58.4264 -541.432 0.
13.9785 -643.865 0.
-396.386 -718.13 0.
-330.657 -566.34 0.
-115.984 -354.717 0.
-72.0648 -252.761 0.
-28.1454 -150.805 0.
-45.0612 -150.635 0.
-125.805 -337.598 0.
-206.549 -524.561 0.
51.8762 -465.958 0.
66.1738 -432.704 0.
80.4712 -399.45 0.
-550.183 -545.236 0.
-471.588 -355.042 0.
743.996 -240.121 0.
-303.27 -570.04 0.
-215.249 -366.756 0.
47.7947 -111.968 0.
84.7782 -23.6205 0.
121.761 64.7266 0.
143.217 73.2318 0.
89.9942 -48.6639 0.
36.771 -170.559 0.
-167.9 -234.258 0.
-121.349 -125.75 0.
-74.7994 -17.2417 0.
-351.741 -132.15 0.
-356.633 -144.003 0.
252.279 97.3524 0.
195.237 -35.2091 0.
138.195 -167.77 0.
192.57 -287.315 0.
84.8723 -539.538 0.
-22.826 -791.761 0.
-195.797 -875.478 0.
-115.647 -690.414 0.
-35.4966 -505.35 0.
-163.432 -505.539 0.
-152.024 -475.869 0.
185.924 -306.59 0.
127.148 -357.126 0.
113.659 -385.172 0.
32.9231 -433.206 0.
26.2443 -449.176 0.
19.5658 -465.147 0.
25.826 -437.115 0.
69.225 -334.988 0.
112.624 -232.861 0.
62.5642 -399.082 0.
-73.2326 -717.381 0.
-209.03 -1035.68 0.
-184.428 -886.201 0.
-82.5058 -654.108 0.
-6.74508 -452.426 0.
9.20363 -419.668 0.
25.1527 -386.911 0.
-81.1968 -458.347 0.
-153.942 -628.04 0.
-226.687 -797.733 0.
319.66 -492.603 0.
444.864 -200.043 0.
570.067 92.5173 0.
190.311 -32.1371 0.
179.857 -55.621 0.
839.443 205.977 0.
207.446 -173.196 0.
150.252 -305.995 0.
45.9968 -424.014 0.
74.808 -357.078 0.
103.619 -290.141 0.
345.677 -213.949 0.
281.156 -365.678 0.
216.635 -517.406 0.
-264.105 -727.708 0.
-236.336 -664.663 0.
-208.566 -601.619 0.
385.987 -179.783 0.
479.558 41.9169 0.
184.46 43.7634 0.
39.876 -290.76 0.
-104.708 -625.283 0.
-263.155 -826.187 0.
-182.745 -639.338 0.
-102.336 -452.489 0.
63.7989 -307.385 0.
66.2328 -300.585 0.
68.6666 -293.784 0.
-171.324 -422.1 0.
-185.723 -452.552 0.
123.468 -337.287 0.
-161.757 -469.625 0.
-167.008 -481.187 0.
-112.57 -461.647 0.
-101.46 -433.559 0.
-90.3501 -405.471 0.
58.8263 -315.868 0.
72.1429 -283.426 0.
85.4596 -250.985 0.
172.933 -209.652 0.
164.721 -227.122 0.
156.508 -244.591 0.
-306.175 -390.738 0.
-274.097 -314.345 0.
53.3976 -131.53 0.
-1.01076 -255.322 0.
-55.419 -379.115 0.
-174.219 -478.246 0.
-142.397 -404.65 0.
-110.575 -331.054 0.
181.979 -89.6874 0.
264.964 105.146 0.
347.948 299.98 0.
-372.277 -171.936 0.
-504.052 -483.583 0.
-976.259 -947.09 0.
-73.3791 -440.634 0.
14.5959 -236.859 0.
94.3964 -59.6293 0.
131.485 28.4393 0.
168.574 116.508 0.
175.072 118.788 0.
121.904 -3.32948 0.
68.7347 -125.446 0.
-289.8 -255.526 0.
-243.38 -146.862 0.
-196.96 -38.1989 0.
-323.017 -88.3588 0.
-327.89 -100.232 0.
237.69 120.896 0.
180.494 -11.4173 0.
123.298 -143.73 0.
229.627 -240.022 0.
121.832 -491.973 0.
14.0365 -743.923 0.
-161.704 -830.266 0.
-81.5182 -645.173 0.
-1.33216 -460.08 0.
-128.064 -459.931 0.
-116.455 -430.11 0.
124.51 -301.758 0.
85.4297 -342.345 0.
72.3189 -370.637 0.
-46.6208 -437.028 0.
-53.623 -452.683 0.
-60.6249 -468.339 0.
-0.304922 -417.135 0.
43.1949 -315.079 0.
86.6945 -213.023 0.
36.0393 -379.402 0.
-99.9678 -697.537 0.
-235.975 -1015.67 0.
-227.195 -873.253 0.
-125.501 -641.34 0.
78.6836 -383.918 0.
94.2552 -350.882 0.
109.827 -317.846 0.
-51.907 -414.415 0.
-125.003 -583.836 0.
-198.099 -753.256 0.
196.021 -515.016 0.
321.411 -222.63 0.
446.801 69.756 0.
173.665 -7.62606 0.
163.377 -31.4412 0.
-1404.79 -723.601 0.
338.451 -85.1505 0.
281.606 -218.229 0.
-4.58042 -412.708 0.
24.601 -346.141 0.
53.7826 -279.574 0.
351.341 -179.898 0.
286.618 -331.473 0.
221.895 -483.048 0.
-242.545 -686.589 0.
-214.969 -623.327 0.
-187.394 -560.066 0.
148.296 -250.914 0.
241.663 -29.3506 0.
222.635 92.3783 0.
78.1699 -242.774 0.
-66.2946 -577.925 0.
-113.972 -730.543 0.
-33.4116 -543.877 0.
47.1491 -357.211 0.
13.3149 -298.152 0.
16.2702 -291.692 0.
19.2254 -285.232 0.
-74.2628 -347.866 0.
-88.2732 -378.431 0.
457.391 -163.707 0.
-86.0475 -406.598 0.
-91.4207 -417.762 0.
-170.002 -454.694 0.
-158.878 -426.473 0.
-147.755 -398.251 0.
93.5322 -270.403 0.
106.864 -237.939 0.
120.195 -205.475 0.
69.7597 -223.213 0.
61.3761 -240.682 0.
52.9924 -258.15 0.
-352.312 -378.839 0.
-320.003 -302.715 0.
116.927 -72.2313 0.
62.6709 -196.211 0.
8.41483 -320.191 0.
43.734 -353.617 0.
75.4959 -279.879 0.
107.257 -206.141 0.
15.6704 -129.363 0.
98.2909 65.7751 0.
180.911 260.913 0.
-114.253 -31.0829 0.
-247.026 -341.617 0.
-55.5137 246.863 0.
239.469 -109.863 0.
342.617 131.646 0.
27.164 -265.381 0.
118.346 -51.632 0.
476.835 784.483 0.
137.411 -4.7559 0.
118.308 -49.4337 0.
-106.088 -572.567 0.
-391.287 -229.149 0.
-145.115 342.822 0.
-189.298 237.425 0.
-362.803 -206.129 0.
-643.867 -859.918 0.
98.5484 -154.052 0.
385.601 518.758 0.
149.569 -28.8216 0.
50.8802 -689.568 0.
787.453 1025.92 0.
602.617 592.075 0.
268.858 136.097 0.
37.1439 -405.854 0.
426.439 500.32 0.
369.474 666.263 0.
119.624 84.3513 0.
-1061.28 -1539.72 0.
49.2871 -319.738 0.
117.79 -161.89 0.
15.708 -110.301 0.
147.962 198.876 0.
34.8993 -64.1315 0.
152.084 20.8482 0.
239.924 224.492 0.
184.427 93.6802 0.
110.255 -129.792 0.
238.481 171.409 0.
320.502 364.791 0.
151.088 120.977 0.
111.031 26.873 0.
187.943 -264.893 0.
254.57 -109.359 0.
371.014 162.449 0.
153.582 45.6561 0.
-6.23868 -325.21 0.
50.6781 -190.322 0.
455.393 356.119 0.
356.939 125.567 0.
346.263 99.8305 0.
224.319 164.976 0.
162.968 20.9619 0.
-422.57 -547.438 0.
266.061 -456.341 0.
180.94 -655.379 0.
-382.609 -1167.26 0.
-272.687 -911.858 0.
49.3678 -161.605 0.
643.929 521.642 0.
519.329 231.898 0.
234.164 -432.489 0.
-235.325 -682.038 0.
-122.042 -417.644 0.
-58.0842 -268.351 0.
202.069 361.884 0.
96.5209 113.94 0.
91.2131 -253.164 0.
-26.1264 -526.515 0.
-117.217 -738.494 0.
49.3947 -605.761 0.
-42.9097 -824.722 0.
162.643 -348.492 0.
43.7834 -108.044 0.
146.541 131.297 0.
125.138 80.8187 0.
371.778 546.438 0.
264.273 294.896 0.
94.9474 136.531 0.
74.74 -152.213 0.
-121.619 -607.597 0.
-141.966 -237.455 0.
136.555 411.434 0.
18.0592 133.988 0.
296.519 162.078 0.
138.751 -203.585 0.
193.792 -73.0367 0.
220.074 361.395 0.
244.864 417.572 0.
68.6381 4.29232 0.
-355.029 -265.573 0.
-438.342 -459.943 0.
-85.1047 -629.983 0.
130.69 -127.374 0.
555.867 864.071 0.
485.999 297.332 0.
275.096 -196.264 0.
291.03 -160.675 0.
-85.608 -14.8473 0.
-226.204 -342.086 0.
47.1596 294.539 0.
231.945 316.04 0.
393.686 688.258 0.
-124.244 199.945 0.
418.562 320.647 0.
351.814 166.19 0.
105.756 -90.5349 0.
-24.8486 -395.412 0.
-155.453 -700.289 0.
-206.056 -727.601 0.
-46.5689 -357.095 0.
112.918 13.4126 0.
-209.374 -111.851 0.
-280.184 -278.204 0.
-350.993 -444.557 0.
-480.569 -499.858 0.
-469.884 -473.703 0.
3.70719 -236.328 0.
57.8221 -109.242 0.
111.937 17.8448 0.
348.815 136.665 0.
269.494 -50.7523 0.
190.174 -238.17 0.
26.2913 -344.397 0.
56.0924 -272.562 0.
85.8933 -200.726 0.
-12.0973 -213.32 0.
0.32586 -185.674 0.
-288.851 -287.605 0.
-52.7496 -171.574 0.
-43.6574 -152.995 0.
241.297 -50.8656 0.
173.825 -210.84 0.
106.354 -370.814 0.
-137.261 -571.422 0.
-162.382 -633.871 0.
-187.503 -696.319 0.
-235.583 -702.601 0.
-209.57 -643.987 0.
-183.556 -585.373 0.
12.0412 -348.103 0.
100.742 -139.627 0.
289.918 83.3783 0.
245.199 -19.7002 0.
200.481 -122.779 0.
18.8934 -246.492 0.
35.8801 -207.112 0.
52.867 -167.733 0.
140.331 -190.197 0.
70.0627 -354.417 0.
-0.205458 -518.637 0.
29.0559 -590.345 0.
-5.53935 -671.972 0.
553.47 -499.219 0.
104.956 -519.294 0.
195.042 -308.218 0.
0.146507 -275.515 0.
-45.0019 -379.023 0.
-90.1503 -482.53 0.
155.064 -420.901 0.
157.505 -413.862 0.
159.947 -406.823 0.
-59.7715 -525.749 0.
-81.2443 -574.32 0.
-102.717 -622.89 0.
-347.798 -663.751 0.
-306.361 -570.364 0.
196.729 -283.184 0.
221.927 -224.668 0.
247.126 -166.152 0.
128.142 -199.589 0.
101.258 -263.797 0.
74.3752 -328.006 0.
-80.6698 -422.853 0.
-82.478 -425.12 0.
-84.286 -427.388 0.
-71.0284 -308.713 0.
1.55807 -140.842 0.
47.299 13.0908 0.
1.80305 -118.212 0.
-54.6616 -252.923 0.
-95.42 -357.844 0.
-107.301 -388.156 0.
-119.183 -418.469 0.
-25.6199 -381.632 0.
-14.8103 -355.504 0.
-4.00061 -329.375 0.
-117.661 -329.378 0.
-83.7199 -249.714 0.
-49.7786 -170.049 0.
-195.22 -286.481 0.
-233.069 -374.537 0.
11.7448 -327.532 0.
40.1257 -264.377 0.
68.506 -201.221 0.
181.112 -128.461 0.
164.985 -166.129 0.
148.857 -203.795 0.
-96.3688 -378.091 0.
-147.077 -499.14 0.
-197.786 -620.191 0.
-175.987 -386.704 0.
-11.8966 -7.9005 0.
-257.714 173.91 0.
426.301 356.39 0.
359.932 201.703 0.
125.843 -51.4868 0.
-5.15163 -356.099 0.
-136.146 -660.711 0.
-227.928 -705.613 0.
-68.4246 -335.215 0.
91.0791 35.1847 0.
-32.2415 -5.30179 0.
-103.317 -171.615 0.
-174.392 -337.929 0.
-455.499 -456.767 0.
-444.555 -431.113 0.
-49.8874 -227.217 0.
4.36575 -100.304 0.
58.6188 26.6095 0.
296.755 144.542 0.
217.015 -42.417 0.
137.275 -229.376 0.
-6.01614 -326.505 0.
24.018 -254.783 0.
54.0521 -183.06 0.
-1.12837 -178.196 0.
11.2414 -150.395 0.
-37.8388 -148.933 0.
-237.404 -219.095 0.
-228.572 -200.07 0.
505.41 92.3427 0.
437.787 -67.4764 0.
370.165 -227.296 0.
-166.877 -552.172 0.
-191.443 -615.158 0.
-216.009 -678.146 0.
-339.725 -715.871 0.
-313.044 -657.895 0.
-286.362 -599.919 0.
105.119 -276.455 0.
194.317 -68.383 0.
245.21 96.575 0.
200.76 -6.46613 0.
156.309 -109.507 0.
26.426 -212.243 0.
43.2647 -172.768 0.
60.1035 -133.292 0.
60.053 -192.614 0.
-10.2886 -356.896 0.
-80.6301 -521.177 0.
209.454 -481.517 0.
174.94 -563.262 0.
-755.932 -1027.94 0.
-51.5993 -553.949 0.
38.4454 -342.921 0.
17.4884 -236.828 0.
-27.5931 -340.417 0.
-72.6745 -444.005 0.
66.7298 -427.238 0.
69.3174 -420.011 0.
71.9052 -412.784 0.
91.5504 -429.107 0.
69.7167 -477.286 0.
47.883 -525.464 0.
-467.775 -683.829 0.
-426.915 -589.733 0.
359.542 -181.99 0.
384.581 -123.415 0.
409.619 -64.8399 0.
22.8823 -214.662 0.
-4.34328 -278.661 0.
-31.5688 -342.661 0.
-52.4754 -380.314 0.
-54.1838 -382.43 0.
-55.8921 -384.546 0.
-154.885 -313.822 0.
-82.2184 -145.827 0.
-211.668 -67.0695 0.
-84.3692 -122.84 0.
-140.705 -257.466 0.
41.6003 -268.939 0.
29.5669 -298.836 0.
17.5335 -328.734 0.
-116.281 -389.483 0.
-105.379 -363.279 0.
-94.4769 -337.074 0.
-155.537 -315.642 0.
-121.799 -235.9 0.
-88.0602 -156.157 0.
27.3143 -158.338 0.
-10.6379 -246.628 0.
-8.95266 -305.422 0.
18.7584 -241.767 0.
46.4689 -178.111 0.
47.8154 -155.747 0.
31.2477 -192.98 0.
14.6798 -230.212 0.
97.6324 -263.047 0.
46.7233 -384.026 0.
-4.18619 -505.006 0.
-285.729 -402.685 0.
-122.216 -23.4475 0.
246.132 -257.851 0.
97.0229 -391.721 0.
58.6062 -480.716 0.
-106.513 -571.235 0.
-11.0955 -347.715 0.
84.3225 -124.196 0.
68.3404 -80.4564 0.
8.88676 -217.983 0.
-50.567 -355.509 0.
-122.701 -391.496 0.
-98.7578 -335.176 0.
-74.8146 -278.856 0.
-277.343 -178.362 0.
-166.375 81.1145 0.
130.697 379.318 0.
44.6117 178.665 0.
-41.4739 -21.9871 0.
183.271 6.36727 0.
248.369 159.679 0.
313.466 312.99 0.
234.476 259.209 0.
164.166 94.3094 0.
93.856 -70.5905 0.
-48.2046 -174.147 0.
-58.9827 -197.867 0.
501.574 22.0074 0.
-406.145 -493.227 0.
-472.34 -647.779 0.
365.759 -393.063 0.
347.369 -436.217 0.
328.979 -479.372 0.
-221.328 -643.491 0.
-108.116 -377.723 0.
5.09587 -111.955 0.
-154.511 -166.544 0.
-200.948 -276.149 0.
-247.385 -385.753 0.
130.834 -223.896 0.
138.563 -206.411 0.
111.701 -208.18 0.
99.0605 -236.788 0.
86.4197 -265.396 0.
-13.2778 -292.417 0.
32.9312 -184.787 0.
79.1402 -77.1568 0.
27.5572 -146.629 0.
-50.9858 -330.4 0.
-129.529 -514.171 0.
309.25 -307.563 0.
344.355 -224.669 0.
-889.771 -684.822 0.
93.6122 -200.034 0.
126.816 -122.775 0.
42.1623 -127.879 0.
1.54746 -221.8 0.
-39.0673 -315.721 0.
54.009 -318.435 0.
53.3921 -320.268 0.
52.7751 -322.1 0.
271.757 -44.7972 0.
416.699 291.748 0.
561.642 628.293 0.
-110.632 180.741 0.
-222.583 -81.4989 0.
403.877 -2.72746 0.
399.756 -12.5462 0.
395.635 -22.3649 0.
-27.7201 -198.077 0.
-4.53016 -144.782 0.
18.6598 -91.4871 0.
131.668 4.17133 0.
157.982 66.3262 0.
184.296 128.481 0.
-86.4562 -100.334 0.
-171.469 -295.359 0.
-875.027 -753.529 0.
-205.568 -373.437 0.
-157.659 -258.497 0.
150.254 -51.3979 0.
157.116 -32.1273 0.
163.978 -12.8573 0.
-0.542785 -89.8684 0.
-21.4194 -138.885 0.
-42.2957 -187.902 0.
-155.484 -275.541 0.
-176.677 -325.289 0.
-197.869 -375.036 0.
26.9022 -243.955 0.
51.6629 -185.88 0.
29.781 -157.251 0.
9.61625 -204.729 0.
-10.5481 -252.206 0.
-18.9092 -227.013 0.
66.7441 -27.8825 0.
152.398 171.248 0.
274.1 188.453 0.
174.917 -42.5932 0.
75.7335 -273.639 0.
-290.401 -445.095 0.
-266.893 -391.705 0.
-460.4 -532.51 0.
103.501 -358.199 0.
65.3552 -447.308 0.
-119.922 -545.419 0.
-24.4985 -321.786 0.
70.925 -98.153 0.
190.808 3.28731 0.
131.311 -134.345 0.
71.8143 -271.976 0.
-82.8821 -343.101 0.
-58.6434 -287.086 0.
-34.4049 -231.072 0.
-121.681 -78.8439 0.
-10.0975 180.244 0.
24.4007 364.551 0.
-61.5414 163.758 0.
-147.483 -37.0355 0.
132.298 17.1167 0.
197.447 170.393 0.
262.595 323.668 0.
277.774 308.79 0.
207.112 144.17 0.
136.449 -20.4506 0.
-160.403 -192.012 0.
-171.141 -215.815 0.
-34.5985 -176.819 0.
-313.433 -421.576 0.
-379.822 -575.943 0.
295.567 -392.918 0.
277.125 -435.831 0.
258.682 -478.744 0.
-200.643 -602.11 0.
-86.9969 -336.772 0.
26.6493 -71.4342 0.
-138.981 -128.771 0.
-185.181 -238.559 0.
-231.381 -348.347 0.
73.0835 -217.316 0.
81.2331 -200.216 0.
183.373 -145.064 0.
170.889 -173.636 0.
158.405 -202.207 0.
-2.0991 -256.848 0.
44.2334 -149.194 0.
90.5657 -41.5404 0.
13.459 -121.085 0.
-64.791 -305.102 0.
-143.041 -489.119 0.
225.902 -311.197 0.
261.192 -228.362 0.
-703.957 -573.613 0.
270.219 -92.9183 0.
303.324 -15.4619 0.
2.47691 -113.814 0.
-38.1189 -207.665 0.
-78.7147 -301.515 0.
34.1944 -294.944 0.
33.8751 -296.941 0.
33.5557 -298.939 0.
187.599 -49.3163 0.
332.31 287.573 0.
477.021 624.463 0.
20.957 269.117 0.
-91.1722 7.03664 0.
187.952 -64.4076 0.
184.096 -74.636 0.
180.24 -84.8643 0.
-27.6351 -164.963 0.
-3.97895 -112.257 0.
19.6772 -59.552 0.
184.035 58.5565 0.
210.337 120.339 0.
236.639 182.122 0.
-24.27 -41.4543 0.
-109.095 -236.839 0.
-15.2932 -354.575 0.
-115.018 -303.858 0.
-67.3243 -188.835 0.
66.8653 -55.0413 0.
73.8368 -36.0115 0.
80.8083 -16.9822 0.
87.8066 -21.3215 0.
66.9978 -70.3711 0.
46.1893 -119.421 0.
-122.971 -230.451 0.
-144.016 -280.288 0.
-165.061 -330.124 0.
-75.5215 -256.201 0.
-50.8014 -198.294 0.
25.9961 -126.681 0.
6.25569 -174.539 0.
-13.4843 -222.398 0.
60.9064 -161.578 0.
146.934 37.3468 0.
232.962 236.272 0.
74.9745 135.487 0.
-24.0671 -95.651 0.
-123.109 -326.789 0.
-122.988 -341.168 0.
-99.7894 -287.441 0.
196.541 652.423 0.
195.704 -123.165 0.
43.6828 -480.499 0.
202.16 267.513 0.
174.436 201.757 0.
368.082 652.582 0.
360.37 190.747 0.
231.92 -107.318 0.
223.818 -125.326 0.
-130.995 -500.271 0.
-133.55 -505.634 0.
182.023 231.542 0.
145.87 273.751 0.
126.934 232.457 0.
-164.049 153.774 0.
44.4633 639.567 0.
-142.062 203.922 0.
-300.681 -864.569 0.
-186.159 -599.048 0.
19.8068 -120.558 0.
254.261 204.465 0.
245.29 182.818 0.
-52.514 -512.729 0.
-242.625 -135.77 0.
-137.657 107.791 0.
-67.358 137.643 0.
9.20716 182.927 0.
-305.42 -550.409 0.
442.446 110.925 0.
619.76 522.924 0.
469.51 170.927 0.
95.6642 80.1964 0.
162.171 237.47 0.
-12.9364 -168.926 0.
85.9098 390.584 0.
52.3347 310.85 0.
-110.679 -70.8953 0.
-203.701 -718.471 0.
-229.75 -783.792 0.
79.7001 -485.514 0.
133.631 -361.769 0.
140.222 -348.483 0.
-62.291 -383.059 0.
53.1812 -116.219 0.
-67.2906 -399.706 0.
-173.805 -507.987 0.
31.587 -27.0658 0.
175.689 311.081 0.
383.937 245.991 0.
77.5934 -471.824 0.
-265.281 -193.438 0.
339.497 -232.388 0.
159.205 -655.006 0.
-157.154 -372.737 0.
-143.434 -340.397 0.
-98.1017 -234.396 0.
106.389 -65.4905 0.
324.072 441.473 0.
186.571 119.817 0.
-267.109 -910.718 0.
-511.742 -1480.84 0.
251.475 300.468 0.
-63.2652 -145.79 0.
-193.092 -445.442 0.
-136.719 -380.798 0.
-116.665 -332.623 0.
28.7475 8.37389 0.
96.2333 152.62 0.
39.1358 17.3492 0.
-134.352 -389.114 0.
-7.43946 -461.075 0.
-79.0538 -630.835 0.
207.231 34.8931 0.
150.014 286.117 0.
65.2972 90.1801 0.
-195.707 -457.237 0.
286.314 486.634 0.
26.8908 -113.018 0.
-74.9035 -200.499 0.
146.847 321.044 0.
-498.665 -1181.36 0.
135.07 -51.1472 0.
546.165 906.468 0.
151 -17.0546 0.
-273.622 -611.255 0.
46.0875 132.59 0.
513.075 1220.08 0.
73.7623 317.91 0.
44.5587 247.429 0.
-9.40414 -172.196 0.
-206.321 -630.45 0.
-153.93 -507.332 0.
141.857 -98.0236 0.
211.036 63.6439 0.
61.3912 -284.913 0.
-376.555 -505.247 0.
-192.987 -75.6683 0.
-233.095 -167.63 0.
146.894 3.24946 0.
-97.8983 -565.457 0.
-173.107 93.5427 0.
-128.251 93.7424 0.
-141.058 64.02 0.
-39.7465 54.0423 0.
-125.34 -146.804 0.
-210.934 -347.651 0.
228.942 -198.444 0.
289.394 -57.208 0.
349.847 84.0283 0.
-25.3057 93.9001 0.
80.735 344.665 0.
186.775 595.429 0.
72.5188 273.629 0.
-107.989 -144.538 0.
87.4016 -354.518 0.
140.186 -231.148 0.
192.97 -107.778 0.
-63.115 -148.681 0.
-59.6511 -140.691 0.
-56.1872 -132.701 0.
187.002 29.0642 0.
237.782 145.435 0.
288.562 261.806 0.
-295.418 55.9056 0.
-278.721 94.7957 0.
310.158 378.434 0.
233.133 374.681 0.
245.377 404.409 0.
263.307 402.385 0.
198.341 250.784 0.
133.375 99.1842 0.
129.246 5.60066 0.
99.5921 -61.4551 0.
69.9386 -128.511 0.
-87.7575 -163.662 0.
-49.2592 -71.0716 0.
-10.7611 21.5181 0.
-60.2546 -66.1216 0.
-105.34 -169.766 0.
53.1128 -175.834 0.
55.8245 -170.354 0.
58.5362 -164.873 0.
94.9892 -167.431 0.
65.7834 -236.802 0.
36.5775 -306.173 0.
147.228 -261.588 0.
169.448 -209.065 0.
191.668 -156.542 0.
381.025 53.365 0.
463.491 243.695 0.
-2313.19 -790.425 0.
401.138 249.865 0.
336.262 98.5596 0.
-134.448 -170.559 0.
-72.0988 -26.8151 0.
-9.74893 116.929 0.
214.429 273.399 0.
210.15 264.092 0.
205.871 254.784 0.
-78.8427 135.491 0.
-75.5324 143.854 0.
-72.2218 152.217 0.
58.9507 154.258 0.
26.0755 80.3559 0.
6.09546 9.32976 0.
-46.5523 -109.829 0.
-99.1996 -228.987 0.
61.3543 -205.918 0.
92.9375 -128.779 0.
124.521 -51.6403 0.
285.496 47.6965 0.
286.976 49.7646 0.
288.456 51.8325 0.
-52.3395 -155.998 0.
-91.9358 -247.032 0.
401.831 -104.752 0.
-128.66 -330.41 0.
-126.166 -325.708 0.
8.19542 -257.786 0.
22.725 -225.243 0.
37.254 -192.7 0.
-54.1598 -155.772 0.
20.5299 19.3446 0.
95.2193 194.462 0.
183.311 284.32 0.
186.177 291.874 0.
189.043 299.43 0.
-10.0963 68.8307 0.
-97.2604 -135.323 0.
100.947 -193.512 0.
132.391 -118.706 0.
163.835 -43.8991 0.
63.8372 -47.5089 0.
65.2039 -43.0192 0.
66.5708 -38.5297 0.
-234.311 -77.992 0.
-152.59 113.093 0.
-70.869 304.177 0.
299.214 266.95 0.
140.871 -99.4503 0.
-721.084 -110.634 0.
-619.517 -84.709 0.
-632.506 -114.166 0.
-209.414 11.4715 0.
-295.248 -188.611 0.
-381.083 -388.694 0.
294.779 -139.203 0.
354.705 2.44666 0.
414.631 144.097 0.
-191.117 53.5816 0.
-85.4297 304.465 0.
20.2572 555.348 0.
-1.51848 272.753 0.
-181.878 -145.326 0.
680.106 -67.6898 0.
733.121 55.3948 0.
786.134 178.479 0.
-132.736 -148.149 0.
-129.444 -139.814 0.
-126.153 -131.479 0.
212.755 71.5078 0.
263.472 188.223 0.
314.189 304.939 0.
-445.31 22.8646 0.
-428.862 62.0651 0.
-491.477 66.7889 0.
428.185 490.129 0.
439.713 520.418 0.
-95.6043 277.94 0.
-161.322 126.97 0.
-227.038 -23.9992 0.
224.977 76.2811 0.
195.588 8.80141 0.
166.199 -58.6782 0.
6.20092 -90.4967 0.
45.5565 0.776968 0.
84.912 92.0505 0.
-215.071 -99.2568 0.
-259.45 -203.299 0.
-131.033 -223.125 0.
-128.208 -217.353 0.
-125.383 -211.582 0.
192.222 -94.3279 0.
162.898 -163.359 0.
133.573 -232.389 0.
434.781 -107.396 0.
456.674 -53.8637 0.
478.566 -0.331021 0.
497.245 134.268 0.
579.592 325.04 0.
-600.883 -24.8819 0.
237.345 211.669 0.
172.38 60.6639 0.
-196.729 -166.295 0.
-134.128 -22.6404 0.
-71.5262 121.014 0.
186.642 292.881 0.
182.567 283.721 0.
178.493 274.56 0.
-383.329 36.0153 0.
-380.219 44.5634 0.
-377.109 53.1115 0.
66.3934 189.348 0.
33.2201 115.543 0.
-4.54732 36.9111 0.
-57.4999 -82.093 0.
-110.452 -201.097 0.
223.333 -105.063 0.
254.776 -28.0504 0.
286.22 48.9616 0.
399.002 127.712 0.
399.706 130.025 0.
400.411 132.338 0.
-54.0468 -124.195 0.
-94.4691 -214.747 0.
-440.295 -433.344 0.
-188.941 -326.508 0.
-186.811 -322.126 0.
163.092 -159.046 0.
178.16 -127.079 0.
193.228 -95.113 0.
-215.556 -193.314 0.
-141.451 -17.7258 0.
-67.3461 157.863 0.
285.643 358.46 0.
288.201 366.234 0.
290.759 374.008 0.
36.797 121.331 0.
-50.6648 -82.6964 0.
260.93 -93.7482 0.
292.633 -18.8393 0.
324.337 56.0699 0.
-43.8111 -63.189 0.
-42.2621 -58.7015 0.
-40.7129 -54.2141 0.
-270.032 -60.8481 0.
-188.257 130.509 0.
-106.483 321.866 0.
370.49 326.454 0.
211.415 -39.0091 0.
