# vtk DataFile Version 2.0
test grain
ASCII
DATASET UNSTRUCTURED_GRID
POINTS 5000 float
0.499924 0.00100075 0.
0.501925 0.00100078 0.
0.503926 0.00100085 0.
0.505927 0.00100089 0.
0.507927 0.00100078 0.
0.509927 0.00100067 0.
0.511928 0.00100051 0.
0.513929 0.00100028 0.
0.515931 0.00100005 0.
0.517932 0.001 0.
0.519934 0.00100007 0.
0.521935 0.00100014 0.
0.523937 0.00100012 0.
0.525938 0.00100009 0.
0.52794 0.00100009 0.
0.52994 0.00100037 0.
0.531941 0.00100066 0.
0.533941 0.00100076 0.
0.535942 0.00100045 0.
0.537943 0.00100014 0.
0.539944 0.001 0.
0.541946 0.00100003 0.
0.543947 0.00100005 0.
0.545948 0.00100009 0.
0.54795 0.00100014 0.
0.549952 0.00100018 0.
0.551951 0.0010005 0.
0.553951 0.00100083 0.
0.555951 0.00100103 0.
0.557951 0.00100073 0.
0.559951 0.00100043 0.
0.561952 0.00100028 0.
0.563953 0.00100031 0.
0.565953 0.00100034 0.
0.567954 0.00100027 0.
0.569954 0.00100014 0.
0.571955 0.00100002 0.
0.573955 0.00100001 0.
0.575956 0.00100001 0.
0.577957 0.00100005 0.
0.579956 0.00100041 0.
0.581955 0.00100077 0.
0.583953 0.0010011 0.
0.585951 0.00100138 0.
0.587948 0.00100165 0.
0.589944 0.0010014 0.
0.591939 0.0010007 0.
0.593933 0.00100001 0.
0.595951 0.00100077 0.
0.597975 0.00100198 0.
0.6 0.0010032 0.
0.602025 0.00100202 0.
0.604049 0.00100083 0.
0.606067 0.001 0.
0.608063 0.00100029 0.
0.610059 0.00100058 0.
0.612056 0.00100074 0.
0.614054 0.00100074 0.
0.616051 0.00100075 0.
0.61805 0.00100086 0.
0.620048 0.00100103 0.
0.622047 0.00100119 0.
0.624046 0.00100105 0.
0.626044 0.00100088 0.
0.628043 0.00100069 0.
0.630043 0.0010004 0.
0.632044 0.0010001 0.
0.634045 0.000999991 0.
0.636046 0.0010002 0.
0.638048 0.00100042 0.
0.640049 0.00100049 0.
0.64205 0.00100046 0.
0.644051 0.00100043 0.
0.64605 0.00100065 0.
0.648049 0.00100093 0.
0.650048 0.00100119 0.
0.652049 0.00100077 0.
0.654049 0.00100034 0.
0.65605 0.00100002 0.
0.658051 0.00100001 0.
0.660052 0.001 0.
0.662054 0.00100001 0.
0.664056 0.00100004 0.
0.666058 0.00100006 0.
0.66806 0.0010003 0.
0.670062 0.00100063 0.
0.672064 0.00100096 0.
0.674064 0.00100072 0.
0.676064 0.00100044 0.
0.678064 0.00100021 0.
0.680064 0.00100034 0.
0.682065 0.00100047 0.
0.684066 0.00100055 0.
0.686067 0.00100056 0.
0.688069 0.00100056 0.
0.69007 0.00100059 0.
0.692071 0.00100065 0.
0.694072 0.00100072 0.
0.696073 0.0010007 0.
0.698074 0.00100067 0.
0.499925 0.00300225 0.
0.501926 0.00300232 0.
0.503926 0.00300255 0.
0.505927 0.00300268 0.
0.507927 0.00300235 0.
0.509927 0.00300201 0.
0.511928 0.00300154 0.
0.51393 0.00300084 0.
0.515931 0.00300014 0.
0.517932 0.00300001 0.
0.519934 0.00300022 0.
0.521936 0.00300042 0.
0.523937 0.00300037 0.
0.525938 0.00300028 0.
0.527939 0.00300027 0.
0.52994 0.00300112 0.
0.531941 0.00300197 0.
0.533941 0.00300227 0.
0.535942 0.00300134 0.
0.537943 0.00300041 0.
0.539945 0.00300001 0.
0.541947 0.00300008 0.
0.543949 0.00300016 0.
0.54595 0.00300028 0.
0.547952 0.00300041 0.
0.549953 0.00300055 0.
0.551952 0.00300151 0.
0.553952 0.00300249 0.
0.555952 0.00300308 0.
0.557952 0.00300219 0.
0.559952 0.00300129 0.
0.561952 0.00300083 0.
0.563953 0.00300093 0.
0.565953 0.00300103 0.
0.567954 0.00300081 0.
0.569955 0.00300043 0.
0.571955 0.00300005 0.
0.573956 0.00300002 0.
0.575957 0.00300003 0.
0.577958 0.00300016 0.
0.579958 0.00300124 0.
0.581957 0.00300232 0.
0.583956 0.00300331 0.
0.585953 0.00300414 0.
0.587951 0.00300496 0.
0.589948 0.00300419 0.
0.591945 0.0030021 0.
0.593942 0.00300002 0.
0.595958 0.00300232 0.
0.597979 0.00300596 0.
0.6 0.0030096 0.
0.602021 0.00300605 0.
0.604042 0.00300251 0.
0.606058 0.003 0.
0.608056 0.00300087 0.
0.610054 0.00300173 0.
0.612052 0.00300221 0.
0.61405 0.00300223 0.
0.616049 0.00300224 0.
0.618047 0.00300258 0.
0.620047 0.00300308 0.
0.622046 0.00300358 0.
0.624045 0.00300316 0.
0.626043 0.00300265 0.
0.628042 0.00300208 0.
0.630043 0.0030012 0.
0.632043 0.00300031 0.
0.634044 0.00299997 0.
0.636046 0.00300061 0.
0.638048 0.00300125 0.
0.640049 0.00300146 0.
0.64205 0.00300138 0.
0.644051 0.00300129 0.
0.646051 0.00300195 0.
0.64805 0.00300279 0.
0.650048 0.00300358 0.
0.652048 0.0030023 0.
0.654047 0.00300103 0.
0.656048 0.00300006 0.
0.65805 0.00300003 0.
0.660053 0.003 0.
0.662056 0.00300002 0.
0.664058 0.00300011 0.
0.66606 0.00300019 0.
0.668061 0.0030009 0.
0.670062 0.00300189 0.
0.672063 0.00300287 0.
0.674063 0.00300215 0.
0.676063 0.0030013 0.
0.678063 0.00300063 0.
0.680064 0.00300102 0.
0.682065 0.00300141 0.
0.684066 0.00300166 0.
0.686067 0.00300166 0.
0.688069 0.00300167 0.
0.69007 0.00300178 0.
0.692071 0.00300196 0.
0.694072 0.00300215 0.
0.696072 0.00300211 0.
0.698073 0.00300202 0.
0.499926 0.00500374 0.
0.501926 0.00500386 0.
0.503926 0.00500424 0.
0.505926 0.00500448 0.
0.507927 0.00500392 0.
0.509928 0.00500335 0.
0.511928 0.00500256 0.
0.51393 0.0050014 0.
0.515931 0.00500023 0.
0.517933 0.00500001 0.
0.519935 0.00500035 0.
0.521937 0.0050007 0.
0.523938 0.00500062 0.
0.525938 0.00500046 0.
0.527939 0.00500045 0.
0.529939 0.00500186 0.
0.53194 0.00500328 0.
0.533941 0.00500378 0.
0.535942 0.00500223 0.
0.537943 0.00500068 0.
0.539945 0.00500002 0.
0.541948 0.00500014 0.
0.543952 0.00500026 0.
0.545953 0.00500047 0.
0.547953 0.00500069 0.
0.549953 0.00500091 0.
0.551953 0.00500252 0.
0.553953 0.00500414 0.
0.555953 0.00500513 0.
0.557953 0.00500364 0.
0.559952 0.00500214 0.
0.561953 0.00500138 0.
0.563953 0.00500155 0.
0.565953 0.00500172 0.
0.567954 0.00500134 0.
0.569955 0.00500071 0.
0.571956 0.00500008 0.
0.573957 0.00500002 0.
0.575959 0.00500005 0.
0.57796 0.00500026 0.
0.57996 0.00500206 0.
0.581959 0.00500387 0.
0.583958 0.00500552 0.
0.585956 0.00500689 0.
0.587953 0.00500828 0.
0.589952 0.00500697 0.
0.591952 0.00500349 0.
0.593952 0.00500001 0.
0.595965 0.00500387 0.
0.597983 0.00500992 0.
0.6 0.00501598 0.
0.602018 0.00501007 0.
0.604036 0.00500418 0.
0.606049 0.005 0.
0.608049 0.00500144 0.
0.610049 0.00500288 0.
0.612049 0.00500368 0.
0.614047 0.00500371 0.
0.616046 0.00500373 0.
0.618045 0.00500429 0.
0.620045 0.00500512 0.
0.622045 0.00500596 0.
0.624044 0.00500526 0.
0.626043 0.00500441 0.
0.628041 0.00500347 0.
0.630042 0.005002 0.
0.632042 0.00500052 0.
0.634043 0.00499996 0.
0.636046 0.00500102 0.
0.638048 0.00500208 0.
0.640049 0.00500243 0.
0.642051 0.00500229 0.
0.644052 0.00500215 0.
0.646051 0.00500324 0.
0.64805 0.00500464 0.
0.650049 0.00500597 0.
0.652047 0.00500384 0.
0.654046 0.00500172 0.
0.656045 0.00500011 0.
0.65805 0.00500005 0.
0.660054 0.005 0.
0.662058 0.00500004 0.
0.66406 0.00500018 0.
0.666062 0.00500032 0.
0.668062 0.0050015 0.
0.670062 0.00500314 0.
0.672061 0.00500479 0.
0.674062 0.00500359 0.
0.676062 0.00500216 0.
0.678062 0.00500106 0.
0.680063 0.0050017 0.
0.682065 0.00500236 0.
0.684066 0.00500277 0.
0.686067 0.00500277 0.
0.688069 0.00500277 0.
0.69007 0.00500297 0.
0.69207 0.00500327 0.
0.694071 0.00500358 0.
0.696072 0.00500352 0.
0.698073 0.00500337 0.
0.499926 0.00700637 0.
0.501926 0.00700645 0.
0.503927 0.00700666 0.
0.505927 0.00700673 0.
0.507928 0.00700615 0.
0.509929 0.00700558 0.
0.51193 0.00700522 0.
0.513931 0.00700513 0.
0.515932 0.00700504 0.
0.517934 0.00700504 0.
0.519935 0.00700511 0.
0.521937 0.00700519 0.
0.523938 0.00700535 0.
0.525939 0.00700552 0.
0.52794 0.00700574 0.
0.52994 0.00700659 0.
0.531941 0.00700744 0.
0.533942 0.00700805 0.
0.535943 0.00700805 0.
0.537944 0.00700805 0.
0.539946 0.00700769 0.
0.541948 0.00700703 0.
0.54395 0.00700637 0.
0.545951 0.00700612 0.
0.547952 0.007006 0.
0.549953 0.00700589 0.
0.551953 0.00700702 0.
0.553954 0.00700819 0.
0.555954 0.00700905 0.
0.557954 0.00700872 0.
0.559954 0.00700838 0.
0.561955 0.00700808 0.
0.563955 0.00700782 0.
0.565956 0.00700755 0.
0.567956 0.00700798 0.
0.569957 0.00700882 0.
0.571958 0.00700965 0.
0.573959 0.00700977 0.
0.575959 0.00700977 0.
0.57796 0.00700981 0.
0.57996 0.00701006 0.
0.58196 0.00701031 0.
0.58396 0.00701061 0.
0.58596 0.00701103 0.
0.587959 0.00701147 0.
0.589959 0.00700987 0.
0.59196 0.00700662 0.
0.593961 0.00700338 0.
0.595972 0.00700791 0.
0.597986 0.00701475 0.
0.6 0.0070216 0.
0.602015 0.00701499 0.
0.604029 0.00700838 0.
0.60604 0.0070038 0.
0.608041 0.00700582 0.
0.610042 0.00700784 0.
0.612043 0.0070091 0.
0.614042 0.00700942 0.
0.616042 0.00700974 0.
0.618042 0.00700985 0.
0.620043 0.00700988 0.
0.622043 0.00700993 0.
0.624043 0.00700971 0.
0.626043 0.00700947 0.
0.628042 0.0070093 0.
0.630043 0.00700964 0.
0.632043 0.00700998 0.
0.634044 0.0070101 0.
0.636045 0.00700975 0.
0.638046 0.0070094 0.
0.640048 0.0070092 0.
0.642048 0.00700913 0.
0.644049 0.00700906 0.
0.646049 0.00700921 0.
0.648049 0.00700942 0.
0.650049 0.00700963 0.
0.652049 0.00700967 0.
0.654048 0.00700971 0.
0.656049 0.00700986 0.
0.658051 0.00701033 0.
0.660054 0.00701081 0.
0.662056 0.00701066 0.
0.664058 0.00700979 0.
0.666059 0.00700893 0.
0.66806 0.00700861 0.
0.67006 0.00700856 0.
0.67206 0.0070085 0.
0.674061 0.00700741 0.
0.676062 0.00700623 0.
0.678063 0.00700523 0.
0.680064 0.00700526 0.
0.682065 0.00700529 0.
0.684066 0.00700534 0.
0.686067 0.0070054 0.
0.688069 0.00700547 0.
0.690069 0.00700567 0.
0.69207 0.00700595 0.
0.694071 0.00700623 0.
0.696072 0.00700618 0.
0.698073 0.00700605 0.
0.499926 0.0090089 0.
0.501926 0.00900905 0.
0.503927 0.00900907 0.
0.505928 0.00900897 0.
0.507929 0.00900839 0.
0.50993 0.00900781 0.
0.511931 0.00900788 0.
0.513932 0.00900886 0.
0.515934 0.00900985 0.
0.517935 0.00901006 0.
0.519936 0.00900987 0.
0.521936 0.00900968 0.
0.523938 0.00901009 0.
0.525939 0.00901058 0.
0.527941 0.00901103 0.
0.529941 0.00901132 0.
0.531942 0.0090116 0.
0.533943 0.00901232 0.
0.535944 0.00901387 0.
0.537945 0.00901542 0.
0.539946 0.00901537 0.
0.541948 0.00901392 0.
0.543949 0.00901248 0.
0.54595 0.00901178 0.
0.547951 0.00901132 0.
0.549953 0.00901086 0.
0.551954 0.00901153 0.
0.553955 0.00901223 0.
0.555956 0.00901296 0.
0.557956 0.0090138 0.
0.559956 0.00901463 0.
0.561957 0.00901478 0.
0.563957 0.00901409 0.
0.565958 0.00901339 0.
0.567959 0.00901462 0.
0.569959 0.00901692 0.
0.57196 0.00901922 0.
0.57396 0.00901951 0.
0.57596 0.0090195 0.
0.57796 0.00901935 0.
0.579961 0.00901805 0.
0.581961 0.00901675 0.
0.583962 0.0090157 0.
0.585963 0.00901517 0.
0.587965 0.00901466 0.
0.589967 0.00901275 0.
0.591969 0.00900974 0.
0.593971 0.00900673 0.
0.595979 0.00901196 0.
0.59799 0.00901959 0.
0.6 0.00902722 0.
0.602011 0.0090199 0.
0.604022 0.00901259 0.
0.606031 0.00900759 0.
0.608033 0.00901019 0.
0.610035 0.00901279 0.
0.612037 0.0090145 0.
0.614037 0.00901512 0.
0.616038 0.00901574 0.
0.618039 0.0090154 0.
0.62004 0.00901464 0.
0.622041 0.00901389 0.
0.624042 0.00901416 0.
0.626043 0.00901453 0.
0.628043 0.00901513 0.
0.630044 0.00901728 0.
0.632044 0.00901943 0.
0.634045 0.00902023 0.
0.636045 0.00901848 0.
0.638045 0.00901672 0.
0.640046 0.00901597 0.
0.642046 0.00901597 0.
0.644047 0.00901597 0.
0.646048 0.00901518 0.
0.648049 0.00901421 0.
0.65005 0.00901328 0.
0.652051 0.00901548 0.
0.654051 0.00901769 0.
0.656052 0.00901962 0.
0.658053 0.00902061 0.
0.660053 0.00902161 0.
0.662054 0.00902129 0.
0.664055 0.00901941 0.
0.666056 0.00901754 0.
0.668057 0.00901572 0.
0.670059 0.00901397 0.
0.67206 0.00901222 0.
0.674061 0.00901123 0.
0.676062 0.0090103 0.
0.678064 0.0090094 0.
0.680065 0.0090088 0.
0.682065 0.00900821 0.
0.684066 0.00900792 0.
0.686067 0.00900804 0.
0.688068 0.00900818 0.
0.690069 0.00900838 0.
0.69207 0.00900863 0.
0.694071 0.00900888 0.
0.696072 0.00900884 0.
0.698073 0.00900874 0.
0.499926 0.011011 0.
0.501927 0.0110112 0.
0.503928 0.0110111 0.
0.505929 0.0110109 0.
0.50793 0.0110102 0.
0.509931 0.0110095 0.
0.511932 0.0110097 0.
0.513933 0.0110109 0.
0.515935 0.0110121 0.
0.517935 0.0110124 0.
0.519936 0.0110122 0.
0.521936 0.0110121 0.
0.523938 0.0110126 0.
0.52594 0.0110132 0.
0.527941 0.0110137 0.
0.529942 0.0110136 0.
0.531943 0.0110136 0.
0.533944 0.0110143 0.
0.535945 0.0110164 0.
0.537946 0.0110184 0.
0.539947 0.0110186 0.
0.541948 0.0110171 0.
0.543949 0.0110156 0.
0.54595 0.0110147 0.
0.547951 0.011014 0.
0.549953 0.0110133 0.
0.551954 0.0110138 0.
0.553956 0.0110144 0.
0.555957 0.0110152 0.
0.557958 0.0110163 0.
0.559958 0.0110175 0.
0.561959 0.0110179 0.
0.563959 0.0110172 0.
0.56596 0.0110166 0.
0.56796 0.011018 0.
0.569961 0.0110206 0.
0.571962 0.0110232 0.
0.573962 0.0110237 0.
0.575962 0.0110238 0.
0.577963 0.0110236 0.
0.579963 0.0110216 0.
0.581964 0.0110196 0.
0.583966 0.0110179 0.
0.585968 0.0110168 0.
0.58797 0.0110158 0.
0.589973 0.0110139 0.
0.591975 0.0110114 0.
0.593978 0.0110089 0.
0.595984 0.0110135 0.
0.597993 0.0110201 0.
0.6 0.0110266 0.
0.602009 0.0110203 0.
0.604017 0.011014 0.
0.606023 0.0110097 0.
0.608026 0.0110121 0.
0.610029 0.0110145 0.
0.612031 0.0110163 0.
0.614033 0.0110174 0.
0.616034 0.0110184 0.
0.618035 0.011018 0.
0.620037 0.011017 0.
0.622039 0.0110159 0.
0.62404 0.0110164 0.
0.626041 0.0110171 0.
0.628042 0.011018 0.
0.630043 0.0110208 0.
0.632043 0.0110236 0.
0.634044 0.0110247 0.
0.636044 0.0110225 0.
0.638044 0.0110204 0.
0.640044 0.0110194 0.
0.642045 0.0110193 0.
0.644045 0.0110192 0.
0.646046 0.0110182 0.
0.648048 0.0110169 0.
0.65005 0.0110157 0.
0.652051 0.0110187 0.
0.654052 0.0110216 0.
0.656052 0.0110241 0.
0.658052 0.0110251 0.
0.660053 0.0110262 0.
0.662053 0.0110257 0.
0.664054 0.0110235 0.
0.666055 0.0110213 0.
0.668057 0.011019 0.
0.670058 0.0110166 0.
0.672059 0.0110142 0.
0.674061 0.0110133 0.
0.676063 0.0110126 0.
0.678064 0.0110118 0.
0.680065 0.011011 0.
0.682065 0.0110102 0.
0.684066 0.0110097 0.
0.686067 0.0110098 0.
0.688068 0.0110099 0.
0.690069 0.0110101 0.
0.69207 0.0110104 0.
0.694071 0.0110108 0.
0.696072 0.0110108 0.
0.698073 0.0110108 0.
0.499927 0.0130127 0.
0.501928 0.013013 0.
0.503928 0.0130128 0.
0.505929 0.0130125 0.
0.50793 0.0130116 0.
0.509931 0.0130108 0.
0.511932 0.0130105 0.
0.513933 0.0130111 0.
0.515934 0.0130117 0.
0.517935 0.013012 0.
0.519936 0.0130122 0.
0.521937 0.0130124 0.
0.523938 0.0130128 0.
0.52594 0.0130133 0.
0.527942 0.0130137 0.
0.529943 0.0130136 0.
0.531944 0.0130135 0.
0.533945 0.0130139 0.
0.535946 0.0130155 0.
0.537947 0.0130172 0.
0.539948 0.0130175 0.
0.541949 0.0130166 0.
0.54395 0.0130157 0.
0.545951 0.0130149 0.
0.547952 0.013014 0.
0.549953 0.0130131 0.
0.551955 0.0130139 0.
0.553956 0.0130148 0.
0.555958 0.0130156 0.
0.557959 0.0130163 0.
0.55996 0.013017 0.
0.561961 0.0130174 0.
0.563961 0.0130173 0.
0.565961 0.0130172 0.
0.567962 0.0130183 0.
0.569963 0.01302 0.
0.571964 0.0130218 0.
0.573965 0.0130223 0.
0.575966 0.0130226 0.
0.577967 0.0130228 0.
0.579968 0.0130208 0.
0.581969 0.0130189 0.
0.583971 0.0130172 0.
0.585973 0.0130161 0.
0.587975 0.0130149 0.
0.589977 0.0130134 0.
0.59198 0.0130117 0.
0.593982 0.0130099 0.
0.595988 0.0130125 0.
0.597994 0.0130163 0.
0.6 0.0130201 0.
0.602007 0.0130164 0.
0.604013 0.0130127 0.
0.606019 0.0130102 0.
0.608021 0.0130116 0.
0.610024 0.013013 0.
0.612027 0.0130145 0.
0.614028 0.0130162 0.
0.61603 0.0130178 0.
0.618032 0.0130177 0.
0.620034 0.0130168 0.
0.622035 0.0130159 0.
0.624037 0.0130164 0.
0.626038 0.013017 0.
0.628039 0.0130179 0.
0.63004 0.0130202 0.
0.632041 0.0130226 0.
0.634041 0.0130235 0.
0.636042 0.013022 0.
0.638043 0.0130204 0.
0.640043 0.0130195 0.
0.642044 0.0130192 0.
0.644044 0.0130188 0.
0.646045 0.0130182 0.
0.648047 0.0130176 0.
0.650048 0.013017 0.
0.652049 0.0130192 0.
0.65405 0.0130214 0.
0.65605 0.0130233 0.
0.658051 0.0130239 0.
0.660052 0.0130246 0.
0.662053 0.0130241 0.
0.664054 0.0130222 0.
0.666056 0.0130203 0.
0.668057 0.0130183 0.
0.670059 0.0130163 0.
0.67206 0.0130143 0.
0.674061 0.0130136 0.
0.676062 0.013013 0.
0.678063 0.0130124 0.
0.680064 0.0130118 0.
0.682064 0.0130111 0.
0.684065 0.0130107 0.
0.686066 0.0130106 0.
0.688067 0.0130106 0.
0.690068 0.0130108 0.
0.692069 0.0130113 0.
0.69407 0.0130118 0.
0.696071 0.013012 0.
0.698071 0.013012 0.
0.499928 0.0150145 0.
0.501929 0.0150147 0.
0.503929 0.0150144 0.
0.505929 0.015014 0.
0.507931 0.015013 0.
0.509932 0.015012 0.
0.511933 0.0150114 0.
0.513933 0.0150114 0.
0.515934 0.0150113 0.
0.517935 0.0150116 0.
0.519936 0.0150121 0.
0.521937 0.0150127 0.
0.523939 0.0150131 0.
0.525941 0.0150134 0.
0.527942 0.0150137 0.
0.529944 0.0150135 0.
0.531945 0.0150134 0.
0.533946 0.0150135 0.
0.535947 0.0150147 0.
0.537948 0.0150159 0.
0.539949 0.0150163 0.
0.541951 0.0150161 0.
0.543952 0.0150159 0.
0.545953 0.015015 0.
0.547953 0.015014 0.
0.549954 0.015013 0.
0.551955 0.015014 0.
0.553957 0.0150152 0.
0.555959 0.0150161 0.
0.55796 0.0150163 0.
0.559961 0.0150166 0.
0.561962 0.0150169 0.
0.563962 0.0150173 0.
0.565963 0.0150177 0.
0.567963 0.0150185 0.
0.569964 0.0150194 0.
0.571965 0.0150203 0.
0.573967 0.0150209 0.
0.575969 0.0150215 0.
0.577971 0.0150219 0.
0.579973 0.01502 0.
0.581974 0.0150182 0.
0.583976 0.0150165 0.
0.585978 0.0150153 0.
0.58798 0.015014 0.
0.589982 0.0150129 0.
0.591984 0.0150119 0.
0.593986 0.0150109 0.
0.595991 0.0150115 0.
0.597996 0.0150125 0.
0.6 0.0150135 0.
0.602005 0.0150124 0.
0.604009 0.0150113 0.
0.606014 0.0150106 0.
0.608017 0.0150111 0.
0.61002 0.0150116 0.
0.612022 0.0150128 0.
0.614024 0.015015 0.
0.616026 0.0150172 0.
0.618028 0.0150174 0.
0.62003 0.0150167 0.
0.622032 0.0150159 0.
0.624033 0.0150164 0.
0.626034 0.015017 0.
0.628036 0.0150178 0.
0.630037 0.0150197 0.
0.632038 0.0150215 0.
0.634039 0.0150224 0.
0.636041 0.0150214 0.
0.638042 0.0150205 0.
0.640043 0.0150197 0.
0.642043 0.015019 0.
0.644043 0.0150183 0.
0.646044 0.0150182 0.
0.648045 0.0150182 0.
0.650046 0.0150182 0.
0.652047 0.0150198 0.
0.654048 0.0150213 0.
0.656048 0.0150225 0.
0.65805 0.0150228 0.
0.660051 0.0150231 0.
0.662053 0.0150225 0.
0.664054 0.0150209 0.
0.666056 0.0150193 0.
0.668058 0.0150177 0.
0.670059 0.0150161 0.
0.67206 0.0150145 0.
0.674061 0.0150139 0.
0.676062 0.0150134 0.
0.678063 0.015013 0.
0.680063 0.0150125 0.
0.682064 0.0150121 0.
0.684064 0.0150117 0.
0.686065 0.0150115 0.
0.688066 0.0150113 0.
0.690067 0.0150116 0.
0.692068 0.0150123 0.
0.694069 0.0150129 0.
0.696069 0.0150132 0.
0.69807 0.0150133 0.
0.499929 0.0170162 0.
0.501929 0.017016 0.
0.50393 0.0170158 0.
0.505931 0.0170154 0.
0.507932 0.0170145 0.
0.509932 0.0170136 0.
0.511933 0.017013 0.
0.513934 0.0170126 0.
0.515935 0.0170123 0.
0.517936 0.0170123 0.
0.519937 0.0170124 0.
0.521938 0.0170125 0.
0.52394 0.017013 0.
0.525941 0.0170134 0.
0.527943 0.0170138 0.
0.529944 0.0170142 0.
0.531945 0.0170146 0.
0.533946 0.0170149 0.
0.535948 0.0170153 0.
0.537949 0.0170156 0.
0.53995 0.0170157 0.
0.541952 0.0170155 0.
0.543953 0.0170154 0.
0.545954 0.017015 0.
0.547955 0.0170146 0.
0.549955 0.0170141 0.
0.551957 0.0170147 0.
0.553958 0.0170153 0.
0.555959 0.0170158 0.
0.55796 0.0170163 0.
0.559961 0.0170168 0.
0.561962 0.0170172 0.
0.563963 0.0170176 0.
0.565964 0.017018 0.
0.567965 0.0170188 0.
0.569966 0.0170197 0.
0.571967 0.0170207 0.
0.573969 0.017021 0.
0.575972 0.0170213 0.
0.577974 0.0170214 0.
0.579975 0.0170198 0.
0.581976 0.0170183 0.
0.583978 0.0170168 0.
0.58598 0.0170153 0.
0.587982 0.0170139 0.
0.589984 0.0170128 0.
0.591986 0.0170118 0.
0.593988 0.0170109 0.
0.595992 0.0170112 0.
0.597996 0.0170119 0.
0.600001 0.0170126 0.
0.602004 0.0170119 0.
0.604008 0.0170111 0.
0.606012 0.0170106 0.
0.608015 0.0170113 0.
0.610017 0.017012 0.
0.61202 0.017013 0.
0.614022 0.0170144 0.
0.616024 0.0170158 0.
0.618026 0.0170162 0.
0.620028 0.0170162 0.
0.62203 0.0170162 0.
0.624031 0.0170166 0.
0.626032 0.0170172 0.
0.628033 0.0170178 0.
0.630035 0.0170191 0.
0.632036 0.0170204 0.
0.634038 0.0170211 0.
0.636039 0.0170209 0.
0.63804 0.0170207 0.
0.640041 0.0170202 0.
0.642042 0.0170195 0.
0.644043 0.0170188 0.
0.646043 0.0170189 0.
0.648044 0.0170191 0.
0.650045 0.0170194 0.
0.652046 0.0170204 0.
0.654047 0.0170213 0.
0.656048 0.017022 0.
0.658049 0.0170222 0.
0.660051 0.0170224 0.
0.662052 0.017022 0.
0.664054 0.0170208 0.
0.666056 0.0170195 0.
0.668057 0.0170184 0.
0.670058 0.0170174 0.
0.672059 0.0170163 0.
0.67406 0.0170151 0.
0.676061 0.017014 0.
0.678062 0.0170129 0.
0.680062 0.0170129 0.
0.682063 0.0170129 0.
0.684064 0.0170127 0.
0.686064 0.0170124 0.
0.688065 0.0170121 0.
0.690066 0.0170125 0.
0.692066 0.0170133 0.
0.694067 0.0170141 0.
0.696068 0.0170145 0.
0.698069 0.0170149 0.
0.499929 0.0190179 0.
0.50193 0.0190174 0.
0.503931 0.0190172 0.
0.505932 0.0190168 0.
0.507933 0.0190161 0.
0.509933 0.0190153 0.
0.511934 0.0190145 0.
0.513935 0.0190139 0.
0.515936 0.0190133 0.
0.517937 0.0190129 0.
0.519938 0.0190127 0.
0.521939 0.0190124 0.
0.523941 0.0190129 0.
0.525942 0.0190134 0.
0.527944 0.019014 0.
0.529945 0.0190149 0.
0.531946 0.0190158 0.
0.533947 0.0190163 0.
0.535948 0.0190158 0.
0.537949 0.0190153 0.
0.539951 0.0190151 0.
0.541952 0.019015 0.
0.543954 0.0190149 0.
0.545955 0.019015 0.
0.547956 0.0190152 0.
0.549957 0.0190153 0.
0.551958 0.0190154 0.
0.553959 0.0190154 0.
0.555959 0.0190156 0.
0.55796 0.0190163 0.
0.559961 0.019017 0.
0.561963 0.0190176 0.
0.563964 0.019018 0.
0.565965 0.0190183 0.
0.567967 0.0190191 0.
0.569968 0.0190201 0.
0.571969 0.0190211 0.
0.573972 0.0190211 0.
0.575974 0.019021 0.
0.577976 0.0190209 0.
0.579977 0.0190196 0.
0.581979 0.0190183 0.
0.58398 0.019017 0.
0.585982 0.0190154 0.
0.587984 0.0190138 0.
0.589986 0.0190126 0.
0.591988 0.0190118 0.
0.59399 0.019011 0.
0.595994 0.019011 0.
0.597997 0.0190114 0.
0.600001 0.0190118 0.
0.602004 0.0190113 0.
0.604007 0.0190108 0.
0.60601 0.0190106 0.
0.608013 0.0190115 0.
0.610015 0.0190125 0.
0.612018 0.0190132 0.
0.61402 0.0190138 0.
0.616022 0.0190144 0.
0.618024 0.019015 0.
0.620026 0.0190157 0.
0.622028 0.0190164 0.
0.624029 0.0190169 0.
0.62603 0.0190173 0.
0.628031 0.0190178 0.
0.630033 0.0190185 0.
0.632035 0.0190192 0.
0.634036 0.0190199 0.
0.636038 0.0190204 0.
0.638039 0.0190209 0.
0.64004 0.0190207 0.
0.642041 0.0190199 0.
0.644042 0.0190192 0.
0.646043 0.0190195 0.
0.648043 0.0190201 0.
0.650044 0.0190206 0.
0.652045 0.019021 0.
0.654046 0.0190213 0.
0.656047 0.0190216 0.
0.658049 0.0190217 0.
0.66005 0.0190218 0.
0.662052 0.0190214 0.
0.664054 0.0190206 0.
0.666055 0.0190197 0.
0.668056 0.0190191 0.
0.670057 0.0190186 0.
0.672057 0.0190181 0.
0.674058 0.0190164 0.
0.676059 0.0190145 0.
0.67806 0.0190129 0.
0.680062 0.0190133 0.
0.682063 0.0190137 0.
0.684063 0.0190138 0.
0.686064 0.0190134 0.
0.688064 0.019013 0.
0.690064 0.0190134 0.
0.692065 0.0190143 0.
0.694066 0.0190153 0.
0.696067 0.0190159 0.
0.698067 0.0190164 0.
0.49993 0.0210191 0.
0.501931 0.0210183 0.
0.503932 0.021018 0.
0.505933 0.0210175 0.
0.507934 0.0210169 0.
0.509934 0.0210164 0.
0.511935 0.0210157 0.
0.513936 0.0210149 0.
0.515937 0.0210141 0.
0.517938 0.0210135 0.
0.519939 0.021013 0.
0.52194 0.0210125 0.
0.523942 0.0210129 0.
0.525943 0.0210134 0.
0.527945 0.021014 0.
0.529946 0.0210151 0.
0.531947 0.0210162 0.
0.533948 0.0210167 0.
0.535949 0.0210158 0.
0.53795 0.021015 0.
0.539952 0.0210146 0.
0.541953 0.0210146 0.
0.543955 0.0210146 0.
0.545956 0.021015 0.
0.547957 0.0210154 0.
0.549958 0.0210158 0.
0.551959 0.0210156 0.
0.55396 0.0210154 0.
0.555961 0.0210153 0.
0.557962 0.0210161 0.
0.559963 0.0210169 0.
0.561964 0.0210175 0.
0.563965 0.0210179 0.
0.565967 0.0210183 0.
0.567968 0.021019 0.
0.56997 0.02102 0.
0.571971 0.021021 0.
0.573973 0.0210208 0.
0.575975 0.0210206 0.
0.577978 0.0210203 0.
0.579979 0.0210192 0.
0.581981 0.0210182 0.
0.583982 0.0210169 0.
0.585984 0.0210152 0.
0.587986 0.0210135 0.
0.589988 0.0210122 0.
0.59199 0.0210114 0.
0.593992 0.0210105 0.
0.595994 0.0210105 0.
0.597998 0.0210108 0.
0.600001 0.021011 0.
0.602004 0.0210107 0.
0.604007 0.0210103 0.
0.606009 0.0210102 0.
0.608012 0.0210111 0.
0.610014 0.021012 0.
0.612016 0.0210126 0.
0.614018 0.021013 0.
0.61602 0.0210133 0.
0.618022 0.0210142 0.
0.620024 0.0210153 0.
0.622026 0.0210165 0.
0.624027 0.0210168 0.
0.626028 0.021017 0.
0.628029 0.0210173 0.
0.630031 0.0210178 0.
0.632033 0.0210183 0.
0.634035 0.0210189 0.
0.636036 0.0210197 0.
0.638037 0.0210205 0.
0.640038 0.0210205 0.
0.64204 0.02102 0.
0.644042 0.0210194 0.
0.646042 0.0210198 0.
0.648043 0.0210204 0.
0.650043 0.021021 0.
0.652044 0.0210209 0.
0.654045 0.0210208 0.
0.656047 0.0210208 0.
0.658048 0.0210209 0.
0.66005 0.021021 0.
0.662051 0.0210208 0.
0.664053 0.0210202 0.
0.666054 0.0210196 0.
0.668055 0.0210193 0.
0.670056 0.0210192 0.
0.672056 0.021019 0.
0.674057 0.0210171 0.
0.676058 0.0210149 0.
0.678059 0.0210132 0.
0.68006 0.0210137 0.
0.682062 0.0210142 0.
0.684062 0.0210144 0.
0.686063 0.0210142 0.
0.688063 0.0210139 0.
0.690063 0.0210143 0.
0.692064 0.0210152 0.
0.694065 0.0210161 0.
0.696066 0.0210168 0.
0.698067 0.0210176 0.
0.499931 0.0230196 0.
0.501932 0.0230188 0.
0.503933 0.0230181 0.
0.505934 0.0230175 0.
0.507935 0.0230172 0.
0.509936 0.0230169 0.
0.511937 0.0230164 0.
0.513938 0.0230156 0.
0.515939 0.0230147 0.
0.51794 0.0230141 0.
0.519941 0.0230135 0.
0.521941 0.0230129 0.
0.523943 0.0230131 0.
0.525944 0.0230135 0.
0.527945 0.0230139 0.
0.529946 0.0230147 0.
0.531948 0.0230156 0.
0.533949 0.023016 0.
0.53595 0.0230153 0.
0.537952 0.0230146 0.
0.539953 0.0230143 0.
0.541954 0.0230144 0.
0.543956 0.0230144 0.
0.545957 0.0230148 0.
0.547958 0.0230152 0.
0.549959 0.0230157 0.
0.55196 0.0230154 0.
0.553961 0.0230151 0.
0.555962 0.023015 0.
0.557963 0.0230157 0.
0.559965 0.0230165 0.
0.561966 0.0230171 0.
0.563967 0.0230175 0.
0.565968 0.0230179 0.
0.567969 0.0230185 0.
0.569971 0.0230194 0.
0.571973 0.0230202 0.
0.573975 0.0230201 0.
0.575977 0.0230199 0.
0.577979 0.0230196 0.
0.57998 0.0230186 0.
0.581982 0.0230177 0.
0.583984 0.0230165 0.
0.585985 0.0230147 0.
0.587987 0.023013 0.
0.589989 0.0230116 0.
0.591991 0.0230105 0.
0.593992 0.0230095 0.
0.595995 0.0230096 0.
0.597998 0.02301 0.
0.600001 0.0230104 0.
0.602003 0.02301 0.
0.604006 0.0230095 0.
0.606009 0.0230093 0.
0.608011 0.02301 0.
0.610013 0.0230106 0.
0.612015 0.0230113 0.
0.614017 0.0230119 0.
0.616019 0.0230126 0.
0.61802 0.0230137 0.
0.620022 0.023015 0.
0.622024 0.0230163 0.
0.624025 0.0230164 0.
0.626027 0.0230163 0.
0.628028 0.0230163 0.
0.63003 0.023017 0.
0.632031 0.0230176 0.
0.634032 0.0230183 0.
0.636034 0.0230189 0.
0.638035 0.0230196 0.
0.640037 0.0230198 0.
0.642038 0.0230197 0.
0.64404 0.0230195 0.
0.646041 0.0230198 0.
0.648042 0.0230202 0.
0.650043 0.0230205 0.
0.652044 0.0230202 0.
0.654045 0.0230199 0.
0.656046 0.0230197 0.
0.658047 0.0230198 0.
0.660048 0.02302 0.
0.66205 0.0230199 0.
0.664051 0.0230196 0.
0.666053 0.0230192 0.
0.668054 0.0230191 0.
0.670055 0.023019 0.
0.672056 0.023019 0.
0.674057 0.0230173 0.
0.676057 0.0230154 0.
0.678058 0.0230138 0.
0.680059 0.0230141 0.
0.68206 0.0230144 0.
0.684061 0.0230146 0.
0.686062 0.0230148 0.
0.688062 0.023015 0.
0.690063 0.0230154 0.
0.692064 0.023016 0.
0.694064 0.0230166 0.
0.696065 0.0230174 0.
0.698066 0.0230183 0.
0.499932 0.0250201 0.
0.501933 0.0250193 0.
0.503934 0.0250183 0.
0.505935 0.0250175 0.
0.507937 0.0250175 0.
0.509938 0.0250175 0.
0.511939 0.0250172 0.
0.51394 0.0250163 0.
0.51594 0.0250154 0.
0.517941 0.0250146 0.
0.519942 0.0250139 0.
0.521942 0.0250132 0.
0.523944 0.0250133 0.
0.525945 0.0250135 0.
0.527946 0.0250137 0.
0.529947 0.0250144 0.
0.531948 0.0250151 0.
0.53395 0.0250153 0.
0.535951 0.0250148 0.
0.537953 0.0250143 0.
0.539954 0.0250141 0.
0.541955 0.0250142 0.
0.543957 0.0250143 0.
0.545958 0.0250146 0.
0.547959 0.0250151 0.
0.549959 0.0250155 0.
0.551961 0.0250152 0.
0.553963 0.0250148 0.
0.555964 0.0250147 0.
0.557965 0.0250154 0.
0.559966 0.025016 0.
0.561968 0.0250166 0.
0.563968 0.025017 0.
0.565969 0.0250174 0.
0.567971 0.025018 0.
0.569973 0.0250188 0.
0.571975 0.0250195 0.
0.573976 0.0250194 0.
0.575978 0.0250191 0.
0.57798 0.0250189 0.
0.579982 0.0250181 0.
0.581984 0.0250173 0.
0.583985 0.0250161 0.
0.585987 0.0250143 0.
0.587988 0.0250124 0.
0.58999 0.025011 0.
0.591992 0.0250097 0.
0.593993 0.0250085 0.
0.595996 0.0250087 0.
0.597998 0.0250092 0.
0.6 0.0250098 0.
0.602003 0.0250093 0.
0.604006 0.0250088 0.
0.606008 0.0250085 0.
0.60801 0.0250089 0.
0.610012 0.0250093 0.
0.612014 0.02501 0.
0.614015 0.0250109 0.
0.616017 0.0250119 0.
0.618019 0.0250132 0.
0.62002 0.0250147 0.
0.622022 0.0250162 0.
0.624023 0.025016 0.
0.626025 0.0250156 0.
0.628027 0.0250154 0.
0.630028 0.0250161 0.
0.632029 0.0250169 0.
0.63403 0.0250176 0.
0.636032 0.0250182 0.
0.638033 0.0250187 0.
0.640035 0.0250191 0.
0.642037 0.0250193 0.
0.644039 0.0250196 0.
0.64604 0.0250198 0.
0.648041 0.0250199 0.
0.650043 0.0250201 0.
0.652043 0.0250195 0.
0.654044 0.0250189 0.
0.656045 0.0250185 0.
0.658046 0.0250188 0.
0.660047 0.0250191 0.
0.662049 0.0250191 0.
0.66405 0.0250189 0.
0.666051 0.0250187 0.
0.668053 0.0250188 0.
0.670054 0.0250189 0.
0.672055 0.025019 0.
0.674056 0.0250175 0.
0.676056 0.0250158 0.
0.678057 0.0250144 0.
0.680058 0.0250145 0.
0.682058 0.0250146 0.
0.684059 0.0250149 0.
0.686061 0.0250155 0.
0.688062 0.0250161 0.
0.690063 0.0250164 0.
0.692063 0.0250167 0.
0.694064 0.025017 0.
0.696065 0.0250179 0.
0.698066 0.025019 0.
0.499933 0.0270211 0.
0.501934 0.0270204 0.
0.503935 0.0270194 0.
0.505936 0.0270185 0.
0.507937 0.0270181 0.
0.509938 0.0270177 0.
0.511939 0.0270172 0.
0.51394 0.0270163 0.
0.515941 0.0270154 0.
0.517942 0.0270144 0.
0.519943 0.0270134 0.
0.521944 0.0270123 0.
0.523945 0.0270127 0.
0.525946 0.0270132 0.
0.527947 0.0270138 0.
0.529948 0.0270143 0.
0.53195 0.0270149 0.
0.533951 0.0270152 0.
0.535953 0.0270146 0.
0.537954 0.0270141 0.
0.539956 0.027014 0.
0.541957 0.0270141 0.
0.543958 0.0270143 0.
0.545959 0.0270143 0.
0.54796 0.0270143 0.
0.549961 0.0270143 0.
0.551963 0.0270143 0.
0.553964 0.0270143 0.
0.555965 0.0270144 0.
0.557967 0.0270149 0.
0.559968 0.0270154 0.
0.561969 0.0270159 0.
0.56397 0.0270162 0.
0.565971 0.0270166 0.
0.567973 0.0270172 0.
0.569975 0.0270178 0.
0.571977 0.0270184 0.
0.573978 0.0270184 0.
0.57598 0.0270183 0.
0.577981 0.027018 0.
0.579983 0.027017 0.
0.581985 0.027016 0.
0.583987 0.0270149 0.
0.585988 0.0270136 0.
0.58799 0.0270123 0.
0.589991 0.0270111 0.
0.591993 0.0270099 0.
0.593994 0.0270087 0.
0.595996 0.0270087 0.
0.597998 0.027009 0.
0.6 0.0270094 0.
0.602003 0.0270087 0.
0.604006 0.0270079 0.
0.606008 0.0270075 0.
0.60801 0.0270083 0.
0.610011 0.0270092 0.
0.612013 0.02701 0.
0.614014 0.0270107 0.
0.616016 0.0270115 0.
0.618017 0.0270126 0.
0.620019 0.0270139 0.
0.62202 0.0270152 0.
0.624022 0.027015 0.
0.626024 0.0270147 0.
0.628025 0.0270145 0.
0.630027 0.0270153 0.
0.632028 0.0270161 0.
0.634029 0.0270169 0.
0.63603 0.0270175 0.
0.638032 0.0270181 0.
0.640033 0.0270185 0.
0.642035 0.0270188 0.
0.644037 0.027019 0.
0.646038 0.0270192 0.
0.64804 0.0270192 0.
0.650041 0.0270193 0.
0.652042 0.0270188 0.
0.654043 0.0270184 0.
0.656044 0.0270181 0.
0.658045 0.0270184 0.
0.660046 0.0270186 0.
0.662047 0.0270187 0.
0.664048 0.0270187 0.
0.666049 0.0270187 0.
0.668051 0.0270187 0.
0.670052 0.0270186 0.
0.672053 0.0270186 0.
0.674054 0.0270173 0.
0.676055 0.027016 0.
0.678056 0.0270148 0.
0.680057 0.0270149 0.
0.682057 0.027015 0.
0.684058 0.0270153 0.
0.686059 0.0270159 0.
0.68806 0.0270166 0.
0.690061 0.0270173 0.
0.692062 0.027018 0.
0.694063 0.0270188 0.
0.696064 0.0270196 0.
0.698064 0.0270206 0.
0.499934 0.0290221 0.
0.501935 0.0290215 0.
0.503936 0.0290205 0.
0.505937 0.0290195 0.
0.507938 0.0290187 0.
0.509939 0.029018 0.
0.51194 0.0290172 0.
0.513941 0.0290163 0.
0.515942 0.0290154 0.
0.517943 0.0290142 0.
0.519944 0.0290128 0.
0.521945 0.0290114 0.
0.523946 0.029012 0.
0.525947 0.0290129 0.
0.527948 0.0290138 0.
0.52995 0.0290143 0.
0.531951 0.0290148 0.
0.533952 0.029015 0.
0.535954 0.0290145 0.
0.537956 0.029014 0.
0.539957 0.0290139 0.
0.541958 0.0290141 0.
0.543959 0.0290143 0.
0.54596 0.029014 0.
0.547962 0.0290136 0.
0.549963 0.0290132 0.
0.551964 0.0290135 0.
0.553966 0.0290138 0.
0.555967 0.0290142 0.
0.557968 0.0290145 0.
0.559969 0.0290148 0.
0.56197 0.0290151 0.
0.563972 0.0290155 0.
0.565974 0.0290158 0.
0.567975 0.0290163 0.
0.569977 0.0290168 0.
0.571978 0.0290174 0.
0.57398 0.0290174 0.
0.575981 0.0290174 0.
0.577982 0.0290172 0.
0.579984 0.029016 0.
0.581986 0.0290147 0.
0.583988 0.0290137 0.
0.58599 0.029013 0.
0.587991 0.0290123 0.
0.589993 0.0290113 0.
0.591994 0.02901 0.
0.593995 0.0290088 0.
0.595997 0.0290087 0.
0.597999 0.0290089 0.
0.6 0.029009 0.
0.602003 0.0290081 0.
0.604005 0.0290071 0.
0.606008 0.0290066 0.
0.608009 0.0290078 0.
0.610011 0.029009 0.
0.612012 0.02901 0.
0.614013 0.0290105 0.
0.616015 0.029011 0.
0.618016 0.0290119 0.
0.620018 0.029013 0.
0.622019 0.0290141 0.
0.624021 0.029014 0.
0.626022 0.0290137 0.
0.628024 0.0290136 0.
0.630025 0.0290145 0.
0.632027 0.0290153 0.
0.634028 0.0290161 0.
0.636029 0.0290168 0.
0.63803 0.0290174 0.
0.640032 0.0290179 0.
0.642033 0.0290182 0.
0.644035 0.0290185 0.
0.646036 0.0290185 0.
0.648038 0.0290185 0.
0.650039 0.0290185 0.
0.652041 0.0290182 0.
0.654042 0.0290179 0.
0.656043 0.0290177 0.
0.658043 0.0290179 0.
0.660044 0.0290181 0.
0.662045 0.0290183 0.
0.664046 0.0290185 0.
0.666047 0.0290186 0.
0.668049 0.0290185 0.
0.67005 0.0290184 0.
0.672052 0.0290182 0.
0.674053 0.0290172 0.
0.676054 0.0290161 0.
0.678055 0.0290152 0.
0.680056 0.0290153 0.
0.682056 0.0290153 0.
0.684057 0.0290157 0.
0.686058 0.0290164 0.
0.688059 0.0290172 0.
0.69006 0.0290182 0.
0.692061 0.0290193 0.
0.694062 0.0290205 0.
0.696063 0.0290214 0.
0.698063 0.0290221 0.
0.499936 0.0310232 0.
0.501937 0.0310223 0.
0.503938 0.0310212 0.
0.505939 0.0310201 0.
0.50794 0.0310191 0.
0.509941 0.0310181 0.
0.511942 0.0310171 0.
0.513943 0.0310162 0.
0.515944 0.0310154 0.
0.517945 0.0310141 0.
0.519946 0.0310127 0.
0.521947 0.0310113 0.
0.523948 0.0310117 0.
0.525948 0.0310125 0.
0.527949 0.0310131 0.
0.529951 0.0310136 0.
0.531952 0.031014 0.
0.533953 0.0310143 0.
0.535955 0.0310141 0.
0.537957 0.031014 0.
0.539958 0.031014 0.
0.541959 0.031014 0.
0.54396 0.0310141 0.
0.545961 0.0310137 0.
0.547963 0.0310132 0.
0.549964 0.0310126 0.
0.551965 0.031013 0.
0.553967 0.0310134 0.
0.555968 0.0310139 0.
0.557969 0.0310141 0.
0.55997 0.0310143 0.
0.561972 0.0310146 0.
0.563973 0.0310149 0.
0.565975 0.0310152 0.
0.567976 0.0310155 0.
0.569978 0.0310159 0.
0.571979 0.0310163 0.
0.573981 0.0310164 0.
0.575982 0.0310164 0.
0.577984 0.0310163 0.
0.579986 0.0310151 0.
0.581987 0.0310139 0.
0.583989 0.0310129 0.
0.58599 0.0310125 0.
0.587992 0.0310121 0.
0.589993 0.0310113 0.
0.591994 0.0310102 0.
0.593995 0.0310092 0.
0.595997 0.0310088 0.
0.597999 0.0310087 0.
0.6 0.0310085 0.
0.602003 0.0310074 0.
0.604005 0.0310064 0.
0.606007 0.0310059 0.
0.608009 0.0310073 0.
0.61001 0.0310087 0.
0.612012 0.0310098 0.
0.614013 0.0310103 0.
0.616014 0.0310109 0.
0.618015 0.0310116 0.
0.620017 0.0310123 0.
0.622019 0.031013 0.
0.62402 0.0310132 0.
0.626021 0.0310132 0.
0.628022 0.0310134 0.
0.630024 0.031014 0.
0.632025 0.0310146 0.
0.634026 0.0310152 0.
0.636028 0.031016 0.
0.638029 0.0310168 0.
0.64003 0.0310173 0.
0.642032 0.0310176 0.
0.644033 0.0310179 0.
0.646035 0.0310179 0.
0.648036 0.0310179 0.
0.650038 0.0310178 0.
0.652039 0.0310176 0.
0.65404 0.0310175 0.
0.656041 0.0310174 0.
0.658042 0.0310176 0.
0.660042 0.0310178 0.
0.662043 0.031018 0.
0.664045 0.0310181 0.
0.666046 0.0310182 0.
0.668047 0.0310181 0.
0.670049 0.0310179 0.
0.67205 0.0310177 0.
0.674051 0.031017 0.
0.676053 0.0310162 0.
0.678054 0.0310155 0.
0.680055 0.0310156 0.
0.682055 0.0310157 0.
0.684056 0.031016 0.
0.686057 0.0310168 0.
0.688058 0.0310176 0.
0.690059 0.0310188 0.
0.69206 0.0310202 0.
0.694061 0.0310216 0.
0.696061 0.0310224 0.
0.698061 0.031023 0.
0.499939 0.0330241 0.
0.50194 0.0330228 0.
0.503941 0.0330216 0.
0.505942 0.0330203 0.
0.507942 0.0330192 0.
0.509943 0.033018 0.
0.511944 0.033017 0.
0.513945 0.0330161 0.
0.515946 0.0330152 0.
0.517947 0.0330141 0.
0.519948 0.033013 0.
0.521948 0.0330119 0.
0.523949 0.0330118 0.
0.52595 0.0330119 0.
0.527951 0.0330119 0.
0.529952 0.0330123 0.
0.531953 0.0330127 0.
0.533954 0.0330131 0.
0.535956 0.0330136 0.
0.537958 0.0330141 0.
0.539959 0.0330142 0.
0.54196 0.033014 0.
0.543962 0.0330138 0.
0.545963 0.0330134 0.
0.547964 0.0330129 0.
0.549964 0.0330125 0.
0.551966 0.0330128 0.
0.553967 0.0330131 0.
0.555969 0.0330135 0.
0.55797 0.0330137 0.
0.559971 0.033014 0.
0.561973 0.0330143 0.
0.563974 0.0330145 0.
0.565975 0.0330147 0.
0.567977 0.0330149 0.
0.569978 0.033015 0.
0.57198 0.0330152 0.
0.573981 0.0330153 0.
0.575983 0.0330154 0.
0.577985 0.0330153 0.
0.579986 0.0330144 0.
0.581988 0.0330135 0.
0.58399 0.0330127 0.
0.585991 0.0330122 0.
0.587991 0.0330118 0.
0.589993 0.0330112 0.
0.591994 0.0330105 0.
0.593995 0.0330097 0.
0.595997 0.0330091 0.
0.597999 0.0330085 0.
0.6 0.0330078 0.
0.602003 0.0330069 0.
0.604005 0.0330059 0.
0.606007 0.0330054 0.
0.608008 0.0330068 0.
0.610009 0.0330082 0.
0.61201 0.0330093 0.
0.614012 0.0330102 0.
0.616013 0.033011 0.
0.618015 0.0330115 0.
0.620017 0.0330116 0.
0.622018 0.0330118 0.
0.624019 0.0330125 0.
0.62602 0.0330131 0.
0.628021 0.0330137 0.
0.630022 0.0330137 0.
0.632023 0.0330138 0.
0.634025 0.0330141 0.
0.636026 0.0330151 0.
0.638028 0.0330161 0.
0.640029 0.0330167 0.
0.64203 0.033017 0.
0.644031 0.0330172 0.
0.646033 0.0330173 0.
0.648035 0.0330173 0.
0.650036 0.0330173 0.
0.652037 0.0330172 0.
0.654038 0.0330172 0.
0.656039 0.0330172 0.
0.65804 0.0330174 0.
0.660041 0.0330176 0.
0.662042 0.0330176 0.
0.664044 0.0330175 0.
0.666045 0.0330175 0.
0.668046 0.0330174 0.
0.670047 0.0330173 0.
0.672048 0.0330172 0.
0.674049 0.0330167 0.
0.676051 0.0330161 0.
0.678052 0.0330156 0.
0.680053 0.0330158 0.
0.682055 0.033016 0.
0.684056 0.0330164 0.
0.686056 0.0330171 0.
0.688057 0.0330179 0.
0.690058 0.0330191 0.
0.692059 0.0330206 0.
0.69406 0.0330222 0.
0.69606 0.0330228 0.
0.69806 0.0330232 0.
0.499941 0.035025 0.
0.501942 0.0350234 0.
0.503943 0.035022 0.
0.505944 0.0350206 0.
0.507945 0.0350193 0.
0.509946 0.035018 0.
0.511946 0.0350168 0.
0.513947 0.0350159 0.
0.515948 0.035015 0.
0.517949 0.0350141 0.
0.51995 0.0350133 0.
0.52195 0.0350125 0.
0.523951 0.0350119 0.
0.525952 0.0350112 0.
0.527952 0.0350106 0.
0.529953 0.035011 0.
0.531954 0.0350114 0.
0.533955 0.035012 0.
0.535957 0.0350131 0.
0.537959 0.0350143 0.
0.53996 0.0350145 0.
0.541962 0.035014 0.
0.543963 0.0350134 0.
0.545964 0.035013 0.
0.547964 0.0350127 0.
0.549965 0.0350124 0.
0.551967 0.0350126 0.
0.553968 0.0350128 0.
0.555969 0.0350131 0.
0.557971 0.0350134 0.
0.559973 0.0350137 0.
0.561974 0.0350139 0.
0.563975 0.0350141 0.
0.565976 0.0350143 0.
0.567977 0.0350142 0.
0.569978 0.0350141 0.
0.57198 0.0350141 0.
0.573982 0.0350142 0.
0.575984 0.0350143 0.
0.577985 0.0350143 0.
0.579987 0.0350137 0.
0.581989 0.035013 0.
0.58399 0.0350124 0.
0.585991 0.035012 0.
0.587991 0.0350115 0.
0.589992 0.0350111 0.
0.591994 0.0350107 0.
0.593995 0.0350103 0.
0.595997 0.0350094 0.
0.597999 0.0350083 0.
0.6 0.0350072 0.
0.602003 0.0350063 0.
0.604005 0.0350053 0.
0.606006 0.0350049 0.
0.608007 0.0350063 0.
0.610008 0.0350077 0.
0.612009 0.0350089 0.
0.614011 0.0350101 0.
0.616013 0.0350112 0.
0.618015 0.0350113 0.
0.620016 0.035011 0.
0.622018 0.0350107 0.
0.624019 0.0350118 0.
0.626019 0.035013 0.
0.62802 0.0350141 0.
0.630021 0.0350135 0.
0.632022 0.0350129 0.
0.634023 0.035013 0.
0.636025 0.0350142 0.
0.638026 0.0350155 0.
0.640028 0.0350162 0.
0.642029 0.0350163 0.
0.64403 0.0350165 0.
0.646031 0.0350166 0.
0.648033 0.0350167 0.
0.650035 0.0350167 0.
0.652035 0.0350168 0.
0.654036 0.0350169 0.
0.656037 0.035017 0.
0.658038 0.0350172 0.
0.660039 0.0350173 0.
0.662041 0.0350173 0.
0.664043 0.035017 0.
0.666044 0.0350167 0.
0.668045 0.0350166 0.
0.670046 0.0350166 0.
0.672046 0.0350166 0.
0.674047 0.0350163 0.
0.676049 0.035016 0.
0.67805 0.0350158 0.
0.680052 0.035016 0.
0.682054 0.0350163 0.
0.684055 0.0350167 0.
0.686055 0.0350174 0.
0.688056 0.0350181 0.
0.690057 0.0350194 0.
0.692057 0.035021 0.
0.694058 0.0350227 0.
0.696059 0.0350232 0.
0.698059 0.0350234 0.
0.499944 0.0370255 0.
0.501945 0.0370241 0.
0.503946 0.0370227 0.
0.505946 0.0370214 0.
0.507947 0.03702 0.
0.509948 0.0370186 0.
0.511948 0.0370175 0.
0.513949 0.0370166 0.
0.51595 0.0370157 0.
0.51795 0.0370147 0.
0.519951 0.0370137 0.
0.521951 0.0370126 0.
0.523952 0.037012 0.
0.525953 0.0370114 0.
0.527954 0.0370109 0.
0.529955 0.0370114 0.
0.531956 0.0370119 0.
0.533957 0.0370123 0.
0.535958 0.0370128 0.
0.53796 0.0370132 0.
0.539961 0.0370133 0.
0.541963 0.037013 0.
0.543965 0.0370127 0.
0.545966 0.0370125 0.
0.547967 0.0370123 0.
0.549967 0.0370122 0.
0.551969 0.0370124 0.
0.55397 0.0370126 0.
0.555971 0.0370127 0.
0.557972 0.0370129 0.
0.559973 0.037013 0.
0.561975 0.0370132 0.
0.563976 0.0370135 0.
0.565977 0.0370137 0.
0.567978 0.0370136 0.
0.569979 0.0370134 0.
0.571981 0.0370131 0.
0.573983 0.0370133 0.
0.575985 0.0370135 0.
0.577987 0.0370135 0.
0.579988 0.037013 0.
0.581989 0.0370125 0.
0.583991 0.037012 0.
0.585991 0.0370114 0.
0.587992 0.0370109 0.
0.589993 0.0370104 0.
0.591995 0.0370101 0.
0.593996 0.0370097 0.
0.595998 0.0370088 0.
0.597999 0.0370078 0.
0.600001 0.0370067 0.
0.602002 0.0370062 0.
0.604004 0.0370057 0.
0.606006 0.0370055 0.
0.608007 0.0370064 0.
0.610007 0.0370074 0.
0.612008 0.0370084 0.
0.61401 0.0370094 0.
0.616012 0.0370105 0.
0.618013 0.0370109 0.
0.620014 0.0370109 0.
0.622016 0.0370109 0.
0.624017 0.0370117 0.
0.626017 0.0370126 0.
0.628018 0.0370134 0.
0.63002 0.037013 0.
0.632021 0.0370127 0.
0.634022 0.0370128 0.
0.636023 0.0370138 0.
0.638025 0.0370148 0.
0.640026 0.0370153 0.
0.642028 0.0370156 0.
0.644029 0.0370158 0.
0.646031 0.0370159 0.
0.648032 0.037016 0.
0.650034 0.037016 0.
0.652034 0.0370161 0.
0.654035 0.0370162 0.
0.656036 0.0370164 0.
0.658037 0.0370166 0.
0.660039 0.0370169 0.
0.66204 0.0370168 0.
0.664042 0.0370163 0.
0.666043 0.0370158 0.
0.668044 0.0370159 0.
0.670045 0.0370162 0.
0.672045 0.0370166 0.
0.674046 0.0370161 0.
0.676048 0.0370154 0.
0.678049 0.0370149 0.
0.68005 0.0370155 0.
0.682052 0.037016 0.
0.684053 0.0370167 0.
0.686053 0.0370175 0.
0.688054 0.0370183 0.
0.690055 0.0370195 0.
0.692055 0.037021 0.
0.694056 0.0370225 0.
0.696057 0.0370233 0.
0.698058 0.0370239 0.
0.499947 0.0390261 0.
0.501948 0.0390248 0.
0.503948 0.0390235 0.
0.505948 0.0390222 0.
0.507949 0.0390207 0.
0.50995 0.0390193 0.
0.51195 0.0390181 0.
0.513951 0.0390173 0.
0.515951 0.0390164 0.
0.517951 0.0390154 0.
0.519952 0.0390141 0.
0.521952 0.0390128 0.
0.523953 0.0390121 0.
0.525954 0.0390116 0.
0.527955 0.0390111 0.
0.529956 0.0390118 0.
0.531958 0.0390124 0.
0.533959 0.0390127 0.
0.53596 0.0390124 0.
0.537961 0.0390122 0.
0.539962 0.039012 0.
0.541964 0.039012 0.
0.543966 0.0390119 0.
0.545968 0.0390119 0.
0.547969 0.0390119 0.
0.54997 0.039012 0.
0.551971 0.0390121 0.
0.553971 0.0390123 0.
0.555972 0.0390124 0.
0.557973 0.0390124 0.
0.559974 0.0390124 0.
0.561976 0.0390126 0.
0.563977 0.0390129 0.
0.565978 0.0390132 0.
0.567979 0.039013 0.
0.56998 0.0390126 0.
0.571982 0.0390122 0.
0.573984 0.0390124 0.
0.575986 0.0390126 0.
0.577988 0.0390127 0.
0.579989 0.0390123 0.
0.58199 0.0390119 0.
0.583991 0.0390115 0.
0.585992 0.0390109 0.
0.587993 0.0390103 0.
0.589994 0.0390098 0.
0.591996 0.0390094 0.
0.593998 0.0390091 0.
0.595999 0.0390082 0.
0.598 0.0390072 0.
0.600001 0.0390062 0.
0.602002 0.0390061 0.
0.604004 0.039006 0.
0.606005 0.0390061 0.
0.608006 0.0390066 0.
0.610006 0.0390071 0.
0.612008 0.0390078 0.
0.614009 0.0390088 0.
0.616011 0.0390098 0.
0.618012 0.0390104 0.
0.620013 0.0390108 0.
0.622013 0.0390112 0.
0.624014 0.0390117 0.
0.626016 0.0390122 0.
0.628017 0.0390127 0.
0.630018 0.0390125 0.
0.63202 0.0390124 0.
0.634021 0.0390126 0.
0.636022 0.0390133 0.
0.638024 0.039014 0.
0.640025 0.0390145 0.
0.642027 0.0390148 0.
0.644028 0.0390152 0.
0.64603 0.0390152 0.
0.648031 0.0390153 0.
0.650033 0.0390153 0.
0.652034 0.0390155 0.
0.654035 0.0390156 0.
0.656036 0.0390158 0.
0.658037 0.0390161 0.
0.660038 0.0390165 0.
0.662039 0.0390163 0.
0.664041 0.0390156 0.
0.666042 0.0390148 0.
0.668043 0.0390151 0.
0.670043 0.0390158 0.
0.672044 0.0390166 0.
0.674045 0.0390158 0.
0.676047 0.0390149 0.
0.678048 0.0390141 0.
0.680049 0.0390149 0.
0.682049 0.0390157 0.
0.68405 0.0390166 0.
0.686051 0.0390175 0.
0.688052 0.0390184 0.
0.690053 0.0390195 0.
0.692054 0.0390209 0.
0.694054 0.0390223 0.
0.696055 0.0390234 0.
0.698056 0.0390245 0.
0.499949 0.0410267 0.
0.50195 0.0410253 0.
0.50395 0.041024 0.
0.50595 0.0410226 0.
0.507951 0.0410212 0.
0.509952 0.0410198 0.
0.511952 0.0410186 0.
0.513952 0.0410176 0.
0.515953 0.0410167 0.
0.517953 0.0410156 0.
0.519953 0.0410144 0.
0.521954 0.0410132 0.
0.523955 0.0410125 0.
0.525955 0.0410118 0.
0.527956 0.0410113 0.
0.529958 0.0410119 0.
0.531959 0.0410124 0.
0.53396 0.0410125 0.
0.535961 0.0410119 0.
0.537962 0.0410112 0.
0.539964 0.041011 0.
0.541966 0.0410112 0.
0.543968 0.0410114 0.
0.545969 0.0410115 0.
0.54797 0.0410117 0.
0.549971 0.0410118 0.
0.551972 0.0410119 0.
0.553973 0.0410119 0.
0.555974 0.041012 0.
0.557975 0.0410119 0.
0.559976 0.0410119 0.
0.561977 0.041012 0.
0.563978 0.0410122 0.
0.565979 0.0410125 0.
0.56798 0.0410123 0.
0.569982 0.041012 0.
0.571983 0.0410116 0.
0.573985 0.0410116 0.
0.575987 0.0410118 0.
0.577989 0.0410119 0.
0.57999 0.0410117 0.
0.58199 0.0410115 0.
0.583992 0.0410112 0.
0.585993 0.0410105 0.
0.587994 0.0410098 0.
0.589995 0.0410094 0.
0.591997 0.0410091 0.
0.593998 0.0410088 0.
0.595999 0.041008 0.
0.598 0.041007 0.
0.600001 0.041006 0.
0.602002 0.0410062 0.
0.604003 0.0410063 0.
0.606004 0.0410065 0.
0.608005 0.0410068 0.
0.610006 0.041007 0.
0.612007 0.0410075 0.
0.614008 0.0410084 0.
0.616009 0.0410093 0.
0.61801 0.0410101 0.
0.620011 0.0410108 0.
0.622012 0.0410116 0.
0.624013 0.0410117 0.
0.626014 0.0410117 0.
0.628016 0.0410118 0.
0.630017 0.041012 0.
0.632019 0.0410122 0.
0.63402 0.0410125 0.
0.636021 0.0410128 0.
0.638022 0.0410131 0.
0.640023 0.0410135 0.
0.642025 0.0410139 0.
0.644027 0.0410143 0.
0.646028 0.0410145 0.
0.64803 0.0410147 0.
0.650032 0.0410148 0.
0.652033 0.0410149 0.
0.654034 0.041015 0.
0.656035 0.0410152 0.
0.658036 0.0410156 0.
0.660037 0.0410161 0.
0.662038 0.0410159 0.
0.664039 0.041015 0.
0.66604 0.0410142 0.
0.668041 0.0410145 0.
0.670042 0.0410155 0.
0.672043 0.0410164 0.
0.674044 0.0410156 0.
0.676045 0.0410146 0.
0.678047 0.0410139 0.
0.680047 0.0410149 0.
0.682048 0.0410159 0.
0.684048 0.0410168 0.
0.686049 0.0410177 0.
0.68805 0.0410187 0.
0.690051 0.0410197 0.
0.692052 0.041021 0.
0.694052 0.0410222 0.
0.696053 0.0410236 0.
0.698054 0.0410251 0.
0.499951 0.0430274 0.
0.501951 0.0430258 0.
0.503951 0.0430242 0.
0.505952 0.0430227 0.
0.507953 0.0430214 0.
0.509954 0.0430201 0.
0.511954 0.0430188 0.
0.513954 0.0430176 0.
0.515955 0.0430164 0.
0.517955 0.0430155 0.
0.519955 0.0430146 0.
0.521956 0.0430138 0.
0.523957 0.043013 0.
0.525957 0.0430122 0.
0.527958 0.0430114 0.
0.529959 0.0430117 0.
0.53196 0.0430119 0.
0.533961 0.0430118 0.
0.535962 0.043011 0.
0.537963 0.0430102 0.
0.539965 0.0430101 0.
0.541967 0.0430105 0.
0.543968 0.0430109 0.
0.54597 0.0430112 0.
0.547971 0.0430115 0.
0.549971 0.0430117 0.
0.551973 0.0430116 0.
0.553974 0.0430115 0.
0.555975 0.0430114 0.
0.557976 0.0430115 0.
0.559977 0.0430115 0.
0.561978 0.0430115 0.
0.563979 0.0430116 0.
0.56598 0.0430116 0.
0.567982 0.0430115 0.
0.569983 0.0430114 0.
0.571984 0.0430112 0.
0.573986 0.0430111 0.
0.575987 0.043011 0.
0.577989 0.043011 0.
0.57999 0.0430111 0.
0.581991 0.0430112 0.
0.583992 0.0430111 0.
0.585993 0.0430103 0.
0.587995 0.0430096 0.
0.589996 0.0430092 0.
0.591997 0.0430091 0.
0.593998 0.043009 0.
0.595999 0.0430081 0.
0.598 0.0430071 0.
0.600001 0.043006 0.
0.602002 0.0430063 0.
0.604003 0.0430065 0.
0.606004 0.0430068 0.
0.608004 0.043007 0.
0.610005 0.0430072 0.
0.612006 0.0430076 0.
0.614007 0.0430083 0.
0.616008 0.043009 0.
0.618009 0.0430099 0.
0.62001 0.043011 0.
0.622011 0.0430121 0.
0.624012 0.0430117 0.
0.626014 0.0430112 0.
0.628015 0.0430108 0.
0.630017 0.0430114 0.
0.632018 0.0430121 0.
0.634019 0.0430124 0.
0.63602 0.0430123 0.
0.638021 0.0430121 0.
0.640022 0.0430124 0.
0.642023 0.0430129 0.
0.644024 0.0430134 0.
0.646026 0.0430138 0.
0.648028 0.0430142 0.
0.65003 0.0430146 0.
0.652031 0.0430145 0.
0.654032 0.0430145 0.
0.656032 0.0430145 0.
0.658034 0.0430151 0.
0.660035 0.0430157 0.
0.662036 0.0430156 0.
0.664037 0.0430147 0.
0.666038 0.0430138 0.
0.668039 0.0430142 0.
0.67004 0.0430151 0.
0.672041 0.043016 0.
0.674042 0.0430154 0.
0.676044 0.0430147 0.
0.678045 0.0430142 0.
0.680046 0.0430153 0.
0.682046 0.0430164 0.
0.684047 0.0430174 0.
0.686048 0.0430182 0.
0.688048 0.0430191 0.
0.690049 0.0430201 0.
0.69205 0.0430212 0.
0.694051 0.0430224 0.
0.696051 0.043024 0.
0.698052 0.0430258 0.
0.499953 0.0450281 0.
0.501953 0.0450263 0.
0.503953 0.0450245 0.
0.505954 0.0450228 0.
0.507954 0.0450216 0.
0.509955 0.0450204 0.
0.511956 0.0450191 0.
0.513956 0.0450176 0.
0.515957 0.0450161 0.
0.517957 0.0450153 0.
0.519958 0.0450149 0.
0.521958 0.0450144 0.
0.523959 0.0450135 0.
0.525959 0.0450125 0.
0.52796 0.0450116 0.
0.529961 0.0450115 0.
0.531962 0.0450114 0.
0.533962 0.045011 0.
0.535964 0.0450102 0.
0.537965 0.0450093 0.
0.539966 0.0450093 0.
0.541967 0.0450099 0.
0.543969 0.0450105 0.
0.54597 0.045011 0.
0.547971 0.0450113 0.
0.549972 0.0450116 0.
0.551974 0.0450113 0.
0.553975 0.0450111 0.
0.555977 0.0450109 0.
0.557978 0.045011 0.
0.559978 0.0450111 0.
0.561979 0.0450111 0.
0.56398 0.0450109 0.
0.565981 0.0450107 0.
0.567983 0.0450107 0.
0.569984 0.0450108 0.
0.571985 0.0450108 0.
0.573987 0.0450106 0.
0.575988 0.0450103 0.
0.577989 0.0450101 0.
0.57999 0.0450105 0.
0.581991 0.0450109 0.
0.583993 0.0450109 0.
0.585994 0.0450102 0.
0.587995 0.0450094 0.
0.589996 0.0450091 0.
0.591997 0.0450091 0.
0.593998 0.0450091 0.
0.595999 0.0450082 0.
0.598 0.0450072 0.
0.6 0.0450061 0.
0.602001 0.0450064 0.
0.604002 0.0450068 0.
0.606003 0.0450071 0.
0.608004 0.0450072 0.
0.610005 0.0450073 0.
0.612005 0.0450076 0.
0.614006 0.0450081 0.
0.616006 0.0450086 0.
0.618007 0.0450097 0.
0.620009 0.0450112 0.
0.62201 0.0450126 0.
0.624011 0.0450117 0.
0.626013 0.0450106 0.
0.628015 0.0450098 0.
0.630016 0.0450109 0.
0.632017 0.045012 0.
0.634018 0.0450124 0.
0.636018 0.0450118 0.
0.638019 0.0450112 0.
0.64002 0.0450113 0.
0.642021 0.0450119 0.
0.644022 0.0450125 0.
0.646024 0.0450131 0.
0.648026 0.0450137 0.
0.650028 0.0450143 0.
0.652029 0.0450141 0.
0.65403 0.0450139 0.
0.65603 0.0450139 0.
0.658032 0.0450146 0.
0.660033 0.0450154 0.
0.662034 0.0450153 0.
0.664035 0.0450144 0.
0.666035 0.0450135 0.
0.668036 0.0450138 0.
0.670038 0.0450147 0.
0.672039 0.0450156 0.
0.67404 0.0450153 0.
0.676042 0.0450148 0.
0.678043 0.0450146 0.
0.680044 0.0450157 0.
0.682045 0.0450169 0.
0.684046 0.0450179 0.
0.686046 0.0450187 0.
0.688047 0.0450195 0.
0.690047 0.0450205 0.
0.692048 0.0450215 0.
0.694049 0.0450225 0.
0.696049 0.0450244 0.
0.698049 0.0450264 0.
0.499954 0.0470273 0.
0.501954 0.0470257 0.
0.503955 0.0470239 0.
0.505955 0.0470223 0.
0.507956 0.0470214 0.
0.509957 0.0470205 0.
0.511957 0.0470193 0.
0.513958 0.0470178 0.
0.515958 0.0470162 0.
0.517959 0.0470154 0.
0.519959 0.047015 0.
0.52196 0.0470145 0.
0.52396 0.0470136 0.
0.525961 0.0470126 0.
0.527961 0.0470117 0.
0.529962 0.0470111 0.
0.531963 0.0470105 0.
0.533964 0.04701 0.
0.535966 0.0470095 0.
0.537967 0.0470091 0.
0.539968 0.047009 0.
0.541969 0.0470093 0.
0.54397 0.0470095 0.
0.545971 0.04701 0.
0.547972 0.0470106 0.
0.549973 0.0470111 0.
0.551975 0.0470107 0.
0.553976 0.0470103 0.
0.555977 0.0470099 0.
0.557978 0.04701 0.
0.55998 0.04701 0.
0.561981 0.04701 0.
0.563982 0.0470101 0.
0.565983 0.0470101 0.
0.567984 0.0470101 0.
0.569985 0.0470101 0.
0.571986 0.04701 0.
0.573988 0.0470101 0.
0.575989 0.0470101 0.
0.57799 0.0470101 0.
0.579991 0.0470104 0.
0.581992 0.0470107 0.
0.583993 0.0470107 0.
0.585994 0.0470099 0.
0.587995 0.0470092 0.
0.589996 0.0470089 0.
0.591997 0.047009 0.
0.593997 0.047009 0.
0.595998 0.0470084 0.
0.597999 0.0470075 0.
0.6 0.0470066 0.
0.602001 0.0470069 0.
0.604002 0.0470071 0.
0.606003 0.0470072 0.
0.608004 0.0470071 0.
0.610005 0.047007 0.
0.612005 0.0470073 0.
0.614006 0.0470079 0.
0.616006 0.0470086 0.
0.618007 0.0470096 0.
0.620009 0.0470106 0.
0.62201 0.0470117 0.
0.624011 0.0470111 0.
0.626012 0.0470104 0.
0.628014 0.0470098 0.
0.630015 0.0470106 0.
0.632016 0.0470113 0.
0.634017 0.0470117 0.
0.636018 0.0470112 0.
0.638018 0.0470108 0.
0.640019 0.0470109 0.
0.64202 0.0470115 0.
0.644021 0.0470121 0.
0.646023 0.0470126 0.
0.648025 0.0470131 0.
0.650028 0.0470136 0.
0.652028 0.0470133 0.
0.654029 0.0470131 0.
0.656029 0.0470131 0.
0.65803 0.047014 0.
0.660031 0.0470148 0.
0.662032 0.047015 0.
0.664033 0.0470142 0.
0.666034 0.0470134 0.
0.668035 0.0470136 0.
0.670036 0.0470141 0.
0.672037 0.0470147 0.
0.674039 0.0470145 0.
0.67604 0.0470143 0.
0.678041 0.0470144 0.
0.680042 0.0470158 0.
0.682044 0.0470172 0.
0.684045 0.0470184 0.
0.686045 0.0470189 0.
0.688046 0.0470194 0.
0.690047 0.0470204 0.
0.692047 0.0470217 0.
0.694048 0.047023 0.
0.696048 0.047025 0.
0.698048 0.0470272 0.
0.499955 0.0490265 0.
0.501956 0.0490252 0.
0.503956 0.0490234 0.
0.505957 0.0490219 0.
0.507958 0.0490212 0.
0.509958 0.0490206 0.
0.511959 0.0490195 0.
0.513959 0.0490179 0.
0.51596 0.0490163 0.
0.51796 0.0490155 0.
0.519961 0.049015 0.
0.521962 0.0490146 0.
0.523962 0.0490137 0.
0.525962 0.0490127 0.
0.527963 0.0490118 0.
0.529964 0.0490107 0.
0.531965 0.0490097 0.
0.533966 0.0490089 0.
0.535968 0.0490089 0.
0.537969 0.0490088 0.
0.53997 0.0490087 0.
0.541971 0.0490086 0.
0.543972 0.0490084 0.
0.545973 0.049009 0.
0.547974 0.0490099 0.
0.549975 0.0490106 0.
0.551976 0.0490101 0.
0.553977 0.0490095 0.
0.555978 0.049009 0.
0.557979 0.0490089 0.
0.559981 0.0490089 0.
0.561982 0.049009 0.
0.563983 0.0490092 0.
0.565984 0.0490095 0.
0.567985 0.0490095 0.
0.569986 0.0490094 0.
0.571987 0.0490093 0.
0.573988 0.0490096 0.
0.575989 0.0490099 0.
0.57799 0.0490101 0.
0.579991 0.0490103 0.
0.581992 0.0490105 0.
0.583992 0.0490104 0.
0.585993 0.0490097 0.
0.587994 0.049009 0.
0.589995 0.0490087 0.
0.591996 0.0490089 0.
0.593997 0.049009 0.
0.595998 0.0490085 0.
0.597999 0.0490078 0.
0.6 0.0490072 0.
0.602 0.0490073 0.
0.604001 0.0490074 0.
0.606002 0.0490074 0.
0.608003 0.0490071 0.
0.610004 0.0490067 0.
0.612005 0.0490069 0.
0.614006 0.0490078 0.
0.616006 0.0490086 0.
0.618007 0.0490093 0.
0.620009 0.04901 0.
0.62201 0.0490107 0.
0.624011 0.0490105 0.
0.626012 0.0490101 0.
0.628013 0.0490099 0.
0.630014 0.0490103 0.
0.632015 0.0490107 0.
0.634016 0.0490109 0.
0.636017 0.0490106 0.
0.638018 0.0490104 0.
0.640018 0.0490106 0.
0.642019 0.0490112 0.
0.644021 0.0490118 0.
0.646023 0.0490122 0.
0.648025 0.0490125 0.
0.650027 0.0490129 0.
0.652027 0.0490126 0.
0.654028 0.0490123 0.
0.656028 0.0490123 0.
0.658029 0.0490133 0.
0.66003 0.0490143 0.
0.662031 0.0490146 0.
0.664032 0.049014 0.
0.666033 0.0490133 0.
0.668034 0.0490133 0.
0.670035 0.0490135 0.
0.672036 0.0490138 0.
0.674037 0.0490138 0.
0.676038 0.0490139 0.
0.67804 0.0490141 0.
0.680041 0.0490159 0.
0.682042 0.0490176 0.
0.684044 0.0490188 0.
0.686044 0.0490191 0.
0.688045 0.0490194 0.
0.690046 0.0490204 0.
0.692046 0.0490219 0.
0.694047 0.0490235 0.
0.696047 0.0490256 0.
0.698048 0.0490279 0.
0.499957 0.0510261 0.
0.501958 0.0510248 0.
0.503958 0.0510232 0.
0.505959 0.0510218 0.
0.507959 0.0510212 0.
0.50996 0.0510207 0.
0.51196 0.0510196 0.
0.513961 0.051018 0.
0.515962 0.0510163 0.
0.517962 0.0510154 0.
0.519963 0.0510149 0.
0.521964 0.0510144 0.
0.523964 0.0510135 0.
0.525965 0.0510126 0.
0.527965 0.0510117 0.
0.529966 0.0510105 0.
0.531967 0.0510092 0.
0.533968 0.0510084 0.
0.535969 0.0510085 0.
0.53797 0.0510086 0.
0.539971 0.0510085 0.
0.541972 0.0510082 0.
0.543973 0.051008 0.
0.545974 0.0510084 0.
0.547975 0.051009 0.
0.549976 0.0510096 0.
0.551977 0.0510091 0.
0.553978 0.0510086 0.
0.555979 0.0510082 0.
0.55798 0.0510082 0.
0.559982 0.0510081 0.
0.561983 0.0510082 0.
0.563984 0.0510084 0.
0.565985 0.0510086 0.
0.567986 0.0510087 0.
0.569987 0.0510088 0.
0.571988 0.0510089 0.
0.573989 0.0510093 0.
0.57599 0.0510097 0.
0.577991 0.0510101 0.
0.579991 0.0510102 0.
0.581992 0.0510102 0.
0.583993 0.0510101 0.
0.585994 0.0510095 0.
0.587995 0.0510089 0.
0.589995 0.0510086 0.
0.591996 0.0510086 0.
0.593997 0.0510085 0.
0.595998 0.0510082 0.
0.597999 0.0510079 0.
0.599999 0.0510075 0.
0.602 0.0510075 0.
0.604001 0.0510075 0.
0.606002 0.0510074 0.
0.608003 0.0510071 0.
0.610004 0.0510068 0.
0.612005 0.051007 0.
0.614006 0.0510078 0.
0.616006 0.0510086 0.
0.618007 0.0510092 0.
0.620008 0.0510098 0.
0.622009 0.0510104 0.
0.62401 0.0510103 0.
0.626011 0.05101 0.
0.628012 0.0510098 0.
0.630013 0.05101 0.
0.632015 0.0510102 0.
0.634016 0.0510102 0.
0.636016 0.0510101 0.
0.638017 0.05101 0.
0.640017 0.0510102 0.
0.642019 0.0510107 0.
0.64402 0.0510112 0.
0.646022 0.0510115 0.
0.648023 0.0510118 0.
0.650025 0.051012 0.
0.652026 0.0510118 0.
0.654026 0.0510116 0.
0.656027 0.0510117 0.
0.658028 0.0510128 0.
0.660028 0.0510138 0.
0.662029 0.0510142 0.
0.664031 0.0510137 0.
0.666032 0.0510132 0.
0.668033 0.0510131 0.
0.670034 0.051013 0.
0.672035 0.051013 0.
0.674036 0.0510133 0.
0.676037 0.0510136 0.
0.678038 0.051014 0.
0.680039 0.0510159 0.
0.682041 0.0510177 0.
0.684042 0.0510189 0.
0.686043 0.0510191 0.
0.688043 0.0510192 0.
0.690044 0.0510203 0.
0.692045 0.051022 0.
0.694045 0.0510237 0.
0.696046 0.051026 0.
0.698046 0.0510284 0.
0.49996 0.0530259 0.
0.50196 0.0530245 0.
0.503961 0.0530232 0.
0.505961 0.053022 0.
0.507962 0.0530214 0.
0.509963 0.0530207 0.
0.511963 0.0530196 0.
0.513963 0.053018 0.
0.515964 0.0530163 0.
0.517964 0.0530153 0.
0.519965 0.0530145 0.
0.521966 0.0530138 0.
0.523967 0.053013 0.
0.525967 0.0530122 0.
0.527968 0.0530115 0.
0.529969 0.0530104 0.
0.53197 0.0530093 0.
0.533971 0.0530085 0.
0.535971 0.0530085 0.
0.537972 0.0530084 0.
0.539972 0.0530083 0.
0.541973 0.0530082 0.
0.543974 0.053008 0.
0.545975 0.053008 0.
0.547976 0.0530081 0.
0.549977 0.0530081 0.
0.551978 0.0530079 0.
0.55398 0.0530077 0.
0.555981 0.0530076 0.
0.557982 0.0530077 0.
0.559983 0.0530077 0.
0.561983 0.0530077 0.
0.563985 0.0530075 0.
0.565986 0.0530074 0.
0.567987 0.0530077 0.
0.569987 0.0530084 0.
0.571988 0.053009 0.
0.573989 0.0530094 0.
0.57599 0.0530097 0.
0.577991 0.05301 0.
0.579992 0.0530099 0.
0.581993 0.0530098 0.
0.583993 0.0530097 0.
0.585994 0.0530093 0.
0.587995 0.053009 0.
0.589996 0.0530086 0.
0.591996 0.0530081 0.
0.593997 0.0530077 0.
0.595998 0.0530076 0.
0.597999 0.0530076 0.
0.6 0.0530077 0.
0.602001 0.0530075 0.
0.604001 0.0530073 0.
0.606002 0.0530072 0.
0.608003 0.0530071 0.
0.610004 0.0530071 0.
0.612005 0.0530074 0.
0.614005 0.053008 0.
0.616005 0.0530086 0.
0.618006 0.0530093 0.
0.620007 0.05301 0.
0.622009 0.0530107 0.
0.62401 0.0530104 0.
0.626011 0.05301 0.
0.628012 0.0530096 0.
0.630013 0.0530096 0.
0.632014 0.0530097 0.
0.634015 0.0530097 0.
0.636015 0.0530096 0.
0.638016 0.0530095 0.
0.640016 0.0530097 0.
0.642018 0.0530101 0.
0.644019 0.0530105 0.
0.64602 0.0530108 0.
0.648022 0.0530109 0.
0.650023 0.0530111 0.
0.652024 0.0530111 0.
0.654024 0.0530111 0.
0.656025 0.0530114 0.
0.658026 0.0530123 0.
0.660027 0.0530132 0.
0.662028 0.0530136 0.
0.664029 0.0530133 0.
0.666031 0.0530131 0.
0.668031 0.0530129 0.
0.670032 0.0530127 0.
0.672033 0.0530125 0.
0.674034 0.0530129 0.
0.676035 0.0530134 0.
0.678036 0.053014 0.
0.680037 0.0530158 0.
0.682038 0.0530176 0.
0.684039 0.0530188 0.
0.68604 0.0530189 0.
0.688041 0.053019 0.
0.690041 0.0530201 0.
0.692042 0.0530219 0.
0.694043 0.0530238 0.
0.696043 0.0530262 0.
0.698043 0.0530287 0.
0.499962 0.0550256 0.
0.501962 0.0550243 0.
0.503963 0.0550232 0.
0.505963 0.0550223 0.
0.507964 0.0550215 0.
0.509965 0.0550208 0.
0.511966 0.0550196 0.
0.513966 0.055018 0.
0.515966 0.0550163 0.
0.517967 0.0550151 0.
0.519967 0.0550141 0.
0.521968 0.0550132 0.
0.523969 0.0550125 0.
0.52597 0.0550119 0.
0.527971 0.0550112 0.
0.529972 0.0550103 0.
0.531972 0.0550093 0.
0.533973 0.0550086 0.
0.535973 0.0550084 0.
0.537973 0.0550082 0.
0.539974 0.0550081 0.
0.541975 0.0550081 0.
0.543976 0.0550081 0.
0.545976 0.0550077 0.
0.547977 0.0550071 0.
0.549978 0.0550065 0.
0.55198 0.0550067 0.
0.553981 0.0550068 0.
0.555983 0.055007 0.
0.557983 0.0550072 0.
0.559983 0.0550073 0.
0.561984 0.0550072 0.
0.563985 0.0550067 0.
0.565986 0.0550062 0.
0.567987 0.0550068 0.
0.569988 0.0550079 0.
0.571989 0.055009 0.
0.57399 0.0550094 0.
0.575991 0.0550097 0.
0.577992 0.0550099 0.
0.579993 0.0550097 0.
0.581993 0.0550094 0.
0.583994 0.0550092 0.
0.585995 0.0550091 0.
0.587995 0.0550091 0.
0.589996 0.0550086 0.
0.591996 0.0550077 0.
0.593997 0.0550068 0.
0.595998 0.055007 0.
0.597999 0.0550074 0.
0.6 0.0550078 0.
0.602001 0.0550075 0.
0.604002 0.0550072 0.
0.606002 0.055007 0.
0.608003 0.0550072 0.
0.610004 0.0550075 0.
0.612004 0.0550078 0.
0.614004 0.0550082 0.
0.616005 0.0550086 0.
0.618005 0.0550093 0.
0.620007 0.0550102 0.
0.622008 0.0550111 0.
0.624009 0.0550106 0.
0.62601 0.0550099 0.
0.628012 0.0550093 0.
0.630012 0.0550093 0.
0.632013 0.0550092 0.
0.634013 0.0550092 0.
0.636014 0.0550091 0.
0.638014 0.055009 0.
0.640015 0.0550092 0.
0.642017 0.0550095 0.
0.644018 0.0550098 0.
0.646019 0.05501 0.
0.64802 0.0550101 0.
0.650021 0.0550102 0.
0.652022 0.0550105 0.
0.654023 0.0550107 0.
0.656023 0.055011 0.
0.658025 0.0550118 0.
0.660026 0.0550126 0.
0.662027 0.0550131 0.
0.664028 0.055013 0.
0.666029 0.055013 0.
0.66803 0.0550127 0.
0.670031 0.0550123 0.
0.672032 0.055012 0.
0.674033 0.0550126 0.
0.676033 0.0550132 0.
0.678034 0.055014 0.
0.680035 0.0550158 0.
0.682036 0.0550175 0.
0.684037 0.0550186 0.
0.686037 0.0550187 0.
0.688038 0.0550188 0.
0.690039 0.0550199 0.
0.692039 0.0550219 0.
0.69404 0.0550238 0.
0.69604 0.0550263 0.
0.698041 0.055029 0.
0.499964 0.0570259 0.
0.501964 0.0570244 0.
0.503964 0.0570231 0.
0.505964 0.0570218 0.
0.507965 0.0570211 0.
0.509966 0.0570204 0.
0.511967 0.0570193 0.
0.513967 0.0570177 0.
0.515967 0.0570161 0.
0.517968 0.0570148 0.
0.519968 0.0570138 0.
0.521969 0.0570127 0.
0.52397 0.057012 0.
0.525971 0.0570113 0.
0.527972 0.0570106 0.
0.529972 0.0570099 0.
0.531973 0.0570092 0.
0.533974 0.0570086 0.
0.535974 0.0570083 0.
0.537974 0.057008 0.
0.539975 0.0570078 0.
0.541977 0.0570077 0.
0.543978 0.0570075 0.
0.545979 0.0570073 0.
0.547979 0.057007 0.
0.54998 0.0570067 0.
0.551981 0.0570067 0.
0.553982 0.0570066 0.
0.555983 0.0570067 0.
0.557984 0.0570069 0.
0.559985 0.0570072 0.
0.561985 0.0570072 0.
0.563986 0.0570068 0.
0.565987 0.0570064 0.
0.567988 0.0570068 0.
0.569988 0.0570075 0.
0.571989 0.0570083 0.
0.57399 0.0570088 0.
0.575991 0.0570094 0.
0.577992 0.0570098 0.
0.579993 0.0570094 0.
0.581994 0.057009 0.
0.583995 0.0570088 0.
0.585995 0.0570089 0.
0.587996 0.057009 0.
0.589996 0.0570086 0.
0.591997 0.0570078 0.
0.593998 0.057007 0.
0.595999 0.057007 0.
0.597999 0.0570072 0.
0.6 0.0570074 0.
0.602001 0.0570072 0.
0.604002 0.057007 0.
0.606003 0.057007 0.
0.608003 0.0570073 0.
0.610004 0.0570075 0.
0.612004 0.0570079 0.
0.614004 0.0570086 0.
0.616005 0.0570092 0.
0.618005 0.0570097 0.
0.620006 0.0570101 0.
0.622007 0.0570105 0.
0.624008 0.0570101 0.
0.626009 0.0570097 0.
0.628011 0.0570092 0.
0.630011 0.0570092 0.
0.632012 0.0570091 0.
0.634013 0.057009 0.
0.636013 0.057009 0.
0.638014 0.0570091 0.
0.640015 0.057009 0.
0.642016 0.0570088 0.
0.644017 0.0570087 0.
0.646018 0.057009 0.
0.648019 0.0570094 0.
0.65002 0.0570098 0.
0.652021 0.0570099 0.
0.654022 0.0570101 0.
0.656022 0.0570104 0.
0.658023 0.0570114 0.
0.660024 0.0570124 0.
0.662025 0.0570129 0.
0.664027 0.0570128 0.
0.666028 0.0570128 0.
0.668029 0.0570125 0.
0.67003 0.0570122 0.
0.67203 0.0570119 0.
0.674031 0.0570126 0.
0.676032 0.0570134 0.
0.678032 0.0570142 0.
0.680033 0.0570155 0.
0.682034 0.0570168 0.
0.684035 0.0570179 0.
0.686035 0.0570184 0.
0.688036 0.057019 0.
0.690036 0.0570202 0.
0.692037 0.0570221 0.
0.694038 0.0570239 0.
0.696038 0.0570262 0.
0.698039 0.0570285 0.
0.499965 0.0590261 0.
0.501965 0.0590246 0.
0.503965 0.0590229 0.
0.505965 0.0590214 0.
0.507966 0.0590208 0.
0.509967 0.0590201 0.
0.511968 0.0590191 0.
0.513968 0.0590175 0.
0.515969 0.0590158 0.
0.517969 0.0590145 0.
0.51997 0.0590134 0.
0.52197 0.0590122 0.
0.523971 0.0590115 0.
0.525972 0.0590107 0.
0.527972 0.05901 0.
0.529973 0.0590095 0.
0.531974 0.059009 0.
0.533975 0.0590085 0.
0.535975 0.0590082 0.
0.537976 0.0590078 0.
0.539977 0.0590075 0.
0.541979 0.0590072 0.
0.54398 0.0590069 0.
0.545981 0.0590069 0.
0.547981 0.0590069 0.
0.549982 0.0590069 0.
0.551982 0.0590067 0.
0.553983 0.0590064 0.
0.555984 0.0590063 0.
0.557985 0.0590067 0.
0.559986 0.0590071 0.
0.561987 0.0590072 0.
0.563987 0.0590069 0.
0.565988 0.0590066 0.
0.567988 0.0590068 0.
0.569989 0.0590072 0.
0.57199 0.0590076 0.
0.573991 0.0590083 0.
0.575991 0.0590091 0.
0.577992 0.0590097 0.
0.579993 0.0590092 0.
0.581994 0.0590087 0.
0.583995 0.0590084 0.
0.585996 0.0590087 0.
0.587996 0.059009 0.
0.589997 0.0590087 0.
0.591998 0.0590079 0.
0.593999 0.0590072 0.
0.595999 0.059007 0.
0.598 0.059007 0.
0.6 0.059007 0.
0.602001 0.059007 0.
0.604002 0.0590069 0.
0.606003 0.059007 0.
0.608003 0.0590073 0.
0.610004 0.0590076 0.
0.612004 0.0590081 0.
0.614004 0.059009 0.
0.616005 0.0590098 0.
0.618005 0.05901 0.
0.620006 0.05901 0.
0.622007 0.0590099 0.
0.624008 0.0590097 0.
0.626009 0.0590094 0.
0.628009 0.0590092 0.
0.63001 0.059009 0.
0.632011 0.0590089 0.
0.634012 0.0590088 0.
0.636013 0.059009 0.
0.638013 0.0590091 0.
0.640014 0.0590088 0.
0.642015 0.0590082 0.
0.644016 0.0590075 0.
0.646018 0.059008 0.
0.648019 0.0590086 0.
0.65002 0.0590093 0.
0.65202 0.0590094 0.
0.654021 0.0590095 0.
0.656021 0.0590098 0.
0.658022 0.059011 0.
0.660022 0.0590122 0.
0.662023 0.0590128 0.
0.664025 0.0590127 0.
0.666026 0.0590126 0.
0.668027 0.0590124 0.
0.670028 0.0590121 0.
0.672029 0.0590118 0.
0.67403 0.0590126 0.
0.67603 0.0590136 0.
0.67803 0.0590145 0.
0.680031 0.0590153 0.
0.682032 0.0590161 0.
0.684033 0.0590171 0.
0.686033 0.0590181 0.
0.688033 0.0590191 0.
0.690033 0.0590205 0.
0.692034 0.0590223 0.
0.694035 0.059024 0.
0.696036 0.059026 0.
0.698037 0.0590281 0.
0.499967 0.0610261 0.
0.501967 0.0610244 0.
0.503967 0.0610226 0.
0.505967 0.061021 0.
0.507967 0.0610204 0.
0.509968 0.0610197 0.
0.511969 0.0610187 0.
0.513969 0.0610171 0.
0.51597 0.0610155 0.
0.517971 0.0610142 0.
0.519971 0.061013 0.
0.521971 0.0610118 0.
0.523972 0.0610111 0.
0.525973 0.0610105 0.
0.527973 0.0610099 0.
0.529974 0.0610094 0.
0.531975 0.0610088 0.
0.533976 0.0610083 0.
0.535977 0.0610078 0.
0.537978 0.0610074 0.
0.539979 0.0610071 0.
0.54198 0.0610069 0.
0.543981 0.0610068 0.
0.545982 0.0610067 0.
0.547982 0.0610067 0.
0.549983 0.0610066 0.
0.551983 0.0610065 0.
0.553984 0.0610063 0.
0.555984 0.0610063 0.
0.557986 0.0610065 0.
0.559987 0.0610068 0.
0.561988 0.0610069 0.
0.563988 0.0610068 0.
0.565988 0.0610067 0.
0.567989 0.0610069 0.
0.569989 0.0610071 0.
0.57199 0.0610073 0.
0.573991 0.061008 0.
0.575992 0.0610087 0.
0.577993 0.0610093 0.
0.579994 0.0610089 0.
0.581995 0.0610085 0.
0.583995 0.0610083 0.
0.585996 0.0610087 0.
0.587996 0.0610091 0.
0.589997 0.0610089 0.
0.591998 0.0610083 0.
0.593999 0.0610076 0.
0.595999 0.0610074 0.
0.598 0.0610072 0.
0.6 0.0610071 0.
0.602001 0.0610071 0.
0.604002 0.061007 0.
0.606003 0.0610071 0.
0.608003 0.0610075 0.
0.610003 0.0610078 0.
0.612003 0.0610083 0.
0.614004 0.0610091 0.
0.616005 0.0610098 0.
0.618005 0.0610099 0.
0.620006 0.0610098 0.
0.622007 0.0610097 0.
0.624007 0.0610094 0.
0.626008 0.0610091 0.
0.628009 0.0610088 0.
0.63001 0.0610087 0.
0.63201 0.0610086 0.
0.634011 0.0610085 0.
0.636012 0.0610085 0.
0.638013 0.0610086 0.
0.640014 0.0610083 0.
0.642015 0.0610076 0.
0.644016 0.0610069 0.
0.646016 0.0610074 0.
0.648017 0.0610083 0.
0.650018 0.0610091 0.
0.652019 0.061009 0.
0.654019 0.061009 0.
0.65602 0.0610093 0.
0.65802 0.0610105 0.
0.660021 0.0610118 0.
0.662022 0.0610124 0.
0.664023 0.0610123 0.
0.666025 0.0610123 0.
0.668026 0.0610121 0.
0.670027 0.0610119 0.
0.672028 0.0610116 0.
0.674028 0.0610126 0.
0.676029 0.0610136 0.
0.678029 0.0610146 0.
0.68003 0.0610153 0.
0.682031 0.0610161 0.
0.684031 0.061017 0.
0.686031 0.0610181 0.
0.688031 0.0610192 0.
0.690032 0.0610207 0.
0.692032 0.0610224 0.
0.694033 0.0610242 0.
0.696034 0.0610261 0.
0.698035 0.061028 0.
0.499968 0.063026 0.
0.501968 0.063024 0.
0.503969 0.0630222 0.
0.505969 0.0630207 0.
0.507969 0.06302 0.
0.50997 0.0630193 0.
0.51197 0.0630182 0.
0.513971 0.0630166 0.
0.515971 0.063015 0.
0.517972 0.0630137 0.
0.519972 0.0630125 0.
0.521973 0.0630114 0.
0.523973 0.063011 0.
0.525974 0.0630107 0.
0.527975 0.0630103 0.
0.529976 0.0630095 0.
0.531977 0.0630086 0.
0.533978 0.0630079 0.
0.535979 0.0630073 0.
0.537979 0.0630067 0.
0.53998 0.0630066 0.
0.541981 0.0630068 0.
0.543981 0.0630071 0.
0.545982 0.0630068 0.
0.547982 0.0630063 0.
0.549982 0.0630058 0.
0.551983 0.0630061 0.
0.553984 0.0630065 0.
0.555985 0.0630067 0.
0.557986 0.0630065 0.
0.559987 0.0630063 0.
0.561988 0.0630063 0.
0.563988 0.0630066 0.
0.565988 0.0630068 0.
0.567989 0.063007 0.
0.56999 0.0630072 0.
0.571991 0.0630074 0.
0.573992 0.0630079 0.
0.575993 0.0630084 0.
0.577993 0.0630088 0.
0.579994 0.0630087 0.
0.581995 0.0630085 0.
0.583996 0.0630085 0.
0.585996 0.0630089 0.
0.587997 0.0630093 0.
0.589997 0.0630092 0.
0.591998 0.0630088 0.
0.593998 0.0630083 0.
0.595999 0.0630081 0.
0.598 0.0630079 0.
0.6 0.0630077 0.
0.602001 0.0630075 0.
0.604002 0.0630073 0.
0.606003 0.0630073 0.
0.608003 0.0630078 0.
0.610003 0.0630083 0.
0.612003 0.0630086 0.
0.614004 0.0630088 0.
0.616005 0.063009 0.
0.618005 0.0630093 0.
0.620006 0.0630096 0.
0.622006 0.0630099 0.
0.624007 0.0630093 0.
0.626007 0.0630087 0.
0.628008 0.0630081 0.
0.630009 0.0630081 0.
0.63201 0.0630081 0.
0.634011 0.063008 0.
0.636012 0.0630078 0.
0.638013 0.0630076 0.
0.640013 0.0630074 0.
0.642014 0.0630071 0.
0.644014 0.0630069 0.
0.646015 0.0630074 0.
0.648016 0.0630082 0.
0.650017 0.063009 0.
0.652017 0.0630089 0.
0.654018 0.0630087 0.
0.656019 0.0630089 0.
0.658019 0.06301 0.
0.66002 0.0630112 0.
0.662021 0.0630118 0.
0.664022 0.0630118 0.
0.666023 0.0630119 0.
0.668024 0.0630117 0.
0.670025 0.0630115 0.
0.672026 0.0630113 0.
0.674027 0.0630123 0.
0.676028 0.0630135 0.
0.678028 0.0630146 0.
0.680029 0.0630156 0.
0.68203 0.0630166 0.
0.68403 0.0630175 0.
0.68603 0.0630185 0.
0.68803 0.0630194 0.
0.690031 0.0630208 0.
0.692031 0.0630226 0.
0.694032 0.0630244 0.
0.696033 0.0630263 0.
0.698033 0.0630282 0.
0.499969 0.0650255 0.
0.50197 0.0650235 0.
0.50397 0.0650218 0.
0.505971 0.0650204 0.
0.507971 0.0650196 0.
0.509971 0.0650189 0.
0.511971 0.0650178 0.
0.513972 0.0650162 0.
0.515973 0.0650145 0.
0.517973 0.0650133 0.
0.519974 0.0650121 0.
0.521974 0.065011 0.
0.523975 0.0650109 0.
0.525975 0.0650109 0.
0.527976 0.0650108 0.
0.529977 0.0650096 0.
0.531978 0.0650084 0.
0.53398 0.0650074 0.
0.53598 0.0650067 0.
0.537981 0.065006 0.
0.539982 0.0650061 0.
0.541981 0.0650067 0.
0.543981 0.0650074 0.
0.545981 0.0650068 0.
0.547982 0.0650058 0.
0.549982 0.0650049 0.
0.551984 0.0650057 0.
0.553985 0.0650066 0.
0.555986 0.0650071 0.
0.557987 0.0650064 0.
0.559987 0.0650058 0.
0.561988 0.0650058 0.
0.563988 0.0650063 0.
0.565989 0.0650068 0.
0.567989 0.0650071 0.
0.569991 0.0650073 0.
0.571992 0.0650075 0.
0.573992 0.0650078 0.
0.575993 0.0650081 0.
0.577994 0.0650083 0.
0.579995 0.0650084 0.
0.581995 0.0650085 0.
0.583996 0.0650087 0.
0.585996 0.0650091 0.
0.587997 0.0650095 0.
0.589997 0.0650095 0.
0.591998 0.0650093 0.
0.593998 0.065009 0.
0.595999 0.0650088 0.
0.598 0.0650085 0.
0.6 0.0650083 0.
0.602001 0.0650079 0.
0.604002 0.0650076 0.
0.606002 0.0650075 0.
0.608002 0.0650081 0.
0.610002 0.0650087 0.
0.612003 0.0650089 0.
0.614003 0.0650086 0.
0.616004 0.0650083 0.
0.618005 0.0650087 0.
0.620005 0.0650094 0.
0.622006 0.0650101 0.
0.624006 0.0650093 0.
0.626007 0.0650083 0.
0.628007 0.0650074 0.
0.630009 0.0650075 0.
0.63201 0.0650076 0.
0.634011 0.0650075 0.
0.636012 0.065007 0.
0.638013 0.0650066 0.
0.640013 0.0650065 0.
0.642013 0.0650066 0.
0.644013 0.0650068 0.
0.646014 0.0650074 0.
0.648014 0.0650082 0.
0.650015 0.0650089 0.
0.652016 0.0650087 0.
0.654017 0.0650085 0.
0.656018 0.0650085 0.
0.658018 0.0650095 0.
0.660019 0.0650106 0.
0.66202 0.0650112 0.
0.664021 0.0650113 0.
0.666022 0.0650115 0.
0.668023 0.0650114 0.
0.670024 0.0650112 0.
0.672025 0.065011 0.
0.674026 0.0650121 0.
0.676027 0.0650134 0.
0.678027 0.0650146 0.
0.680028 0.0650159 0.
0.682029 0.0650171 0.
0.684029 0.0650181 0.
0.686029 0.0650188 0.
0.688029 0.0650195 0.
0.690029 0.0650209 0.
0.69203 0.0650228 0.
0.694031 0.0650246 0.
0.696031 0.0650265 0.
0.698031 0.0650285 0.
0.49997 0.0670255 0.
0.501971 0.0670235 0.
0.503972 0.0670218 0.
0.505972 0.0670203 0.
0.507972 0.0670193 0.
0.509972 0.0670183 0.
0.511973 0.0670171 0.
0.513973 0.0670157 0.
0.515974 0.0670142 0.
0.517975 0.0670131 0.
0.519975 0.0670121 0.
0.521976 0.0670111 0.
0.523977 0.0670107 0.
0.525977 0.0670103 0.
0.527978 0.0670099 0.
0.529979 0.0670087 0.
0.53198 0.0670076 0.
0.533981 0.0670067 0.
0.535982 0.0670064 0.
0.537982 0.0670061 0.
0.539983 0.0670062 0.
0.541983 0.0670067 0.
0.543983 0.0670072 0.
0.545983 0.0670068 0.
0.547984 0.0670061 0.
0.549984 0.0670054 0.
0.551985 0.0670059 0.
0.553986 0.0670064 0.
0.555987 0.0670066 0.
0.557988 0.0670062 0.
0.559989 0.0670057 0.
0.561989 0.0670057 0.
0.563989 0.0670061 0.
0.56599 0.0670066 0.
0.567991 0.067007 0.
0.569991 0.0670073 0.
0.571992 0.0670077 0.
0.573993 0.0670079 0.
0.575993 0.067008 0.
0.577994 0.0670082 0.
0.579994 0.0670082 0.
0.581995 0.0670083 0.
0.583996 0.0670085 0.
0.585996 0.0670088 0.
0.587996 0.0670092 0.
0.589997 0.0670092 0.
0.591997 0.067009 0.
0.593998 0.0670087 0.
0.595999 0.0670086 0.
0.598 0.0670086 0.
0.6 0.0670085 0.
0.602001 0.0670084 0.
0.604002 0.0670083 0.
0.606002 0.0670083 0.
0.608002 0.0670086 0.
0.610003 0.067009 0.
0.612003 0.0670089 0.
0.614003 0.0670084 0.
0.616004 0.0670079 0.
0.618005 0.0670082 0.
0.620005 0.067009 0.
0.622006 0.0670098 0.
0.624006 0.0670091 0.
0.626007 0.0670082 0.
0.628007 0.0670074 0.
0.630008 0.0670075 0.
0.632009 0.0670075 0.
0.63401 0.0670073 0.
0.636011 0.0670067 0.
0.638012 0.0670062 0.
0.640012 0.0670062 0.
0.642012 0.0670067 0.
0.644013 0.0670072 0.
0.646013 0.0670076 0.
0.648014 0.0670079 0.
0.650015 0.0670083 0.
0.652015 0.0670084 0.
0.654016 0.0670085 0.
0.656017 0.0670087 0.
0.658018 0.0670095 0.
0.660018 0.0670102 0.
0.662019 0.0670108 0.
0.66402 0.067011 0.
0.666021 0.0670112 0.
0.668022 0.0670112 0.
0.670023 0.0670112 0.
0.672023 0.0670111 0.
0.674024 0.067012 0.
0.676025 0.067013 0.
0.678025 0.0670141 0.
0.680026 0.0670155 0.
0.682027 0.067017 0.
0.684027 0.0670182 0.
0.686027 0.067019 0.
0.688027 0.0670198 0.
0.690027 0.0670211 0.
0.692028 0.0670228 0.
0.694029 0.0670244 0.
0.696029 0.0670263 0.
0.69803 0.0670282 0.
0.499971 0.0690251 0.
0.501972 0.0690234 0.
0.503973 0.0690218 0.
0.505974 0.0690202 0.
0.507974 0.069019 0.
0.509974 0.0690178 0.
0.511974 0.0690165 0.
0.513975 0.0690152 0.
0.515975 0.0690138 0.
0.517976 0.0690129 0.
0.519977 0.069012 0.
0.521978 0.0690112 0.
0.523979 0.0690105 0.
0.525979 0.0690097 0.
0.527979 0.0690089 0.
0.52998 0.0690079 0.
0.531981 0.0690068 0.
0.533982 0.0690061 0.
0.535983 0.0690061 0.
0.537984 0.0690061 0.
0.539984 0.0690064 0.
0.541984 0.0690067 0.
0.543985 0.069007 0.
0.545985 0.0690067 0.
0.547985 0.0690063 0.
0.549986 0.0690059 0.
0.551987 0.069006 0.
0.553988 0.0690061 0.
0.555988 0.0690061 0.
0.557989 0.0690059 0.
0.55999 0.0690056 0.
0.56199 0.0690056 0.
0.563991 0.069006 0.
0.565991 0.0690063 0.
0.567992 0.0690068 0.
0.569992 0.0690073 0.
0.571992 0.0690079 0.
0.573993 0.069008 0.
0.575993 0.069008 0.
0.577994 0.0690081 0.
0.579994 0.0690081 0.
0.581995 0.0690081 0.
0.583996 0.0690082 0.
0.585996 0.0690086 0.
0.587996 0.0690089 0.
0.589997 0.069009 0.
0.591997 0.0690087 0.
0.593998 0.0690084 0.
0.595999 0.0690085 0.
0.598 0.0690086 0.
0.6 0.0690087 0.
0.602001 0.0690088 0.
0.604002 0.0690089 0.
0.606002 0.069009 0.
0.608003 0.0690091 0.
0.610003 0.0690092 0.
0.612003 0.0690089 0.
0.614003 0.0690082 0.
0.616004 0.0690074 0.
0.618004 0.0690078 0.
0.620005 0.0690087 0.
0.622006 0.0690095 0.
0.624006 0.0690089 0.
0.626007 0.0690082 0.
0.628007 0.0690075 0.
0.630007 0.0690074 0.
0.632008 0.0690073 0.
0.634009 0.0690071 0.
0.63601 0.0690065 0.
0.638011 0.0690058 0.
0.640011 0.069006 0.
0.642012 0.0690068 0.
0.644012 0.0690076 0.
0.646013 0.0690077 0.
0.648014 0.0690077 0.
0.650015 0.0690077 0.
0.652015 0.0690081 0.
0.654015 0.0690085 0.
0.656016 0.0690089 0.
0.658017 0.0690094 0.
0.660017 0.0690099 0.
0.662018 0.0690103 0.
0.664019 0.0690106 0.
0.66602 0.0690109 0.
0.668021 0.069011 0.
0.670021 0.0690111 0.
0.672022 0.0690112 0.
0.674022 0.0690119 0.
0.676023 0.0690127 0.
0.678024 0.0690136 0.
0.680024 0.0690152 0.
0.682024 0.0690168 0.
0.684025 0.0690182 0.
0.686025 0.0690192 0.
0.688025 0.0690201 0.
0.690025 0.0690213 0.
0.692026 0.0690228 0.
0.694026 0.0690242 0.
0.696027 0.0690261 0.
0.698029 0.069028 0.
0.499973 0.071025 0.
0.501973 0.0710235 0.
0.503974 0.0710218 0.
0.505975 0.0710202 0.
0.507975 0.0710188 0.
0.509975 0.0710175 0.
0.511975 0.0710161 0.
0.513976 0.0710148 0.
0.515977 0.0710136 0.
0.517978 0.0710126 0.
0.519979 0.0710119 0.
0.52198 0.0710112 0.
0.52398 0.0710103 0.
0.525981 0.0710094 0.
0.527981 0.0710085 0.
0.529982 0.0710075 0.
0.531982 0.0710065 0.
0.533983 0.0710058 0.
0.535984 0.071006 0.
0.537984 0.0710061 0.
0.539985 0.0710063 0.
0.541985 0.0710064 0.
0.543986 0.0710065 0.
0.545986 0.0710064 0.
0.547987 0.0710062 0.
0.549987 0.0710061 0.
0.551988 0.071006 0.
0.553989 0.0710059 0.
0.55599 0.0710057 0.
0.55799 0.0710056 0.
0.559991 0.0710055 0.
0.561991 0.0710056 0.
0.563991 0.0710058 0.
0.565992 0.0710061 0.
0.567992 0.0710066 0.
0.569993 0.0710071 0.
0.571993 0.0710077 0.
0.573993 0.0710078 0.
0.575994 0.0710079 0.
0.577994 0.071008 0.
0.579995 0.071008 0.
0.581995 0.071008 0.
0.583996 0.0710082 0.
0.585996 0.0710085 0.
0.587997 0.0710088 0.
0.589997 0.0710088 0.
0.591997 0.0710086 0.
0.593998 0.0710085 0.
0.595999 0.0710086 0.
0.598 0.0710088 0.
0.6 0.071009 0.
0.602001 0.0710093 0.
0.604002 0.0710095 0.
0.606002 0.0710097 0.
0.608003 0.0710095 0.
0.610003 0.0710094 0.
0.612003 0.0710089 0.
0.614003 0.0710082 0.
0.616003 0.0710074 0.
0.618004 0.0710077 0.
0.620005 0.0710085 0.
0.622006 0.0710094 0.
0.624006 0.0710088 0.
0.626006 0.071008 0.
0.628007 0.0710073 0.
0.630007 0.0710072 0.
0.632007 0.0710072 0.
0.634008 0.0710069 0.
0.636009 0.0710063 0.
0.63801 0.0710056 0.
0.640011 0.0710059 0.
0.642011 0.0710068 0.
0.644012 0.0710077 0.
0.646012 0.0710076 0.
0.648013 0.0710074 0.
0.650014 0.0710071 0.
0.652014 0.0710078 0.
0.654015 0.0710084 0.
0.656015 0.071009 0.
0.658016 0.0710094 0.
0.660016 0.0710098 0.
0.662017 0.07101 0.
0.664018 0.0710101 0.
0.666019 0.0710101 0.
0.66802 0.0710105 0.
0.67002 0.071011 0.
0.67202 0.0710115 0.
0.674021 0.071012 0.
0.676021 0.0710126 0.
0.678022 0.0710133 0.
0.680022 0.071015 0.
0.682022 0.0710167 0.
0.684023 0.0710182 0.
0.686023 0.0710193 0.
0.688023 0.0710204 0.
0.690024 0.0710215 0.
0.692024 0.0710228 0.
0.694025 0.071024 0.
0.696026 0.0710258 0.
0.698027 0.0710278 0.
0.499975 0.0730252 0.
0.501976 0.0730236 0.
0.503976 0.0730219 0.
0.505976 0.0730203 0.
0.507976 0.0730188 0.
0.509976 0.0730173 0.
0.511977 0.0730159 0.
0.513978 0.0730146 0.
0.515979 0.0730133 0.
0.51798 0.0730124 0.
0.519981 0.0730117 0.
0.521982 0.073011 0.
0.523982 0.0730102 0.
0.525982 0.0730094 0.
0.527983 0.0730086 0.
0.529983 0.0730077 0.
0.531984 0.0730067 0.
0.533984 0.073006 0.
0.535985 0.073006 0.
0.537985 0.0730059 0.
0.539986 0.0730059 0.
0.541986 0.0730058 0.
0.543987 0.0730058 0.
0.545987 0.0730058 0.
0.547988 0.0730058 0.
0.549989 0.0730058 0.
0.551989 0.0730056 0.
0.55399 0.0730055 0.
0.55599 0.0730055 0.
0.557991 0.0730054 0.
0.559991 0.0730054 0.
0.561992 0.0730055 0.
0.563992 0.0730058 0.
0.565992 0.073006 0.
0.567993 0.0730063 0.
0.569993 0.0730067 0.
0.571994 0.0730071 0.
0.573994 0.0730074 0.
0.575994 0.0730076 0.
0.577995 0.0730079 0.
0.579995 0.073008 0.
0.581996 0.0730082 0.
0.583996 0.0730083 0.
0.585997 0.0730085 0.
0.587998 0.0730087 0.
0.589998 0.0730088 0.
0.591998 0.0730088 0.
0.593998 0.0730089 0.
0.595999 0.073009 0.
0.598 0.0730092 0.
0.6 0.0730094 0.
0.602001 0.0730098 0.
0.604002 0.0730101 0.
0.606002 0.0730102 0.
0.608003 0.0730099 0.
0.610003 0.0730095 0.
0.612003 0.073009 0.
0.614004 0.0730084 0.
0.616004 0.0730078 0.
0.618004 0.073008 0.
0.620005 0.0730087 0.
0.622005 0.0730093 0.
0.624006 0.0730085 0.
0.626006 0.0730076 0.
0.628006 0.0730068 0.
0.630007 0.0730069 0.
0.632007 0.0730069 0.
0.634008 0.0730068 0.
0.636009 0.0730062 0.
0.638009 0.0730056 0.
0.64001 0.0730058 0.
0.642011 0.0730067 0.
0.644011 0.0730075 0.
0.646012 0.0730074 0.
0.648012 0.073007 0.
0.650013 0.0730066 0.
0.652013 0.0730074 0.
0.654014 0.0730082 0.
0.656014 0.0730089 0.
0.658015 0.0730094 0.
0.660016 0.0730099 0.
0.662016 0.07301 0.
0.664017 0.0730095 0.
0.666018 0.073009 0.
0.668019 0.0730096 0.
0.670019 0.0730107 0.
0.672019 0.0730118 0.
0.674019 0.0730123 0.
0.67602 0.0730127 0.
0.67802 0.0730132 0.
0.68002 0.0730149 0.
0.68202 0.0730166 0.
0.684021 0.0730181 0.
0.686021 0.0730193 0.
0.688022 0.0730206 0.
0.690022 0.0730217 0.
0.692023 0.0730228 0.
0.694023 0.0730238 0.
0.696024 0.0730256 0.
0.698024 0.0730276 0.
0.499978 0.0750251 0.
0.501978 0.0750237 0.
0.503977 0.075022 0.
0.505977 0.0750203 0.
0.507978 0.0750187 0.
0.509978 0.0750172 0.
0.511978 0.0750158 0.
0.513979 0.0750145 0.
0.51598 0.0750131 0.
0.517981 0.0750122 0.
0.519982 0.0750115 0.
0.521983 0.0750108 0.
0.523984 0.0750101 0.
0.525984 0.0750094 0.
0.527985 0.0750088 0.
0.529985 0.0750078 0.
0.531985 0.0750069 0.
0.533985 0.0750062 0.
0.535985 0.075006 0.
0.537986 0.0750058 0.
0.539986 0.0750055 0.
0.541987 0.0750053 0.
0.543988 0.075005 0.
0.545989 0.0750051 0.
0.547989 0.0750053 0.
0.54999 0.0750055 0.
0.551991 0.0750053 0.
0.553991 0.0750052 0.
0.555991 0.0750052 0.
0.557992 0.0750053 0.
0.559992 0.0750054 0.
0.561993 0.0750055 0.
0.563993 0.0750057 0.
0.565993 0.0750059 0.
0.567993 0.0750061 0.
0.569994 0.0750063 0.
0.571994 0.0750065 0.
0.573995 0.0750069 0.
0.575995 0.0750074 0.
0.577996 0.0750078 0.
0.579996 0.075008 0.
0.581996 0.0750083 0.
0.583997 0.0750085 0.
0.585998 0.0750085 0.
0.587999 0.0750086 0.
0.589999 0.0750088 0.
0.591998 0.075009 0.
0.593998 0.0750093 0.
0.595998 0.0750094 0.
0.597999 0.0750097 0.
0.6 0.0750099 0.
0.602001 0.0750102 0.
0.604002 0.0750106 0.
0.606002 0.0750108 0.
0.608003 0.0750102 0.
0.610003 0.0750096 0.
0.612004 0.0750091 0.
0.614004 0.0750086 0.
0.616004 0.0750082 0.
0.618004 0.0750083 0.
0.620004 0.0750088 0.
0.622005 0.0750092 0.
0.624005 0.0750083 0.
0.626006 0.0750073 0.
0.628006 0.0750063 0.
0.630007 0.0750065 0.
0.632007 0.0750067 0.
0.634008 0.0750066 0.
0.636008 0.0750061 0.
0.638009 0.0750056 0.
0.64001 0.0750058 0.
0.64201 0.0750065 0.
0.644011 0.0750073 0.
0.646011 0.0750071 0.
0.648011 0.0750066 0.
0.650012 0.0750061 0.
0.652012 0.075007 0.
0.654013 0.0750079 0.
0.656014 0.0750088 0.
0.658014 0.0750094 0.
0.660015 0.07501 0.
0.662015 0.0750099 0.
0.664016 0.0750089 0.
0.666017 0.0750078 0.
0.668018 0.0750087 0.
0.670018 0.0750104 0.
0.672018 0.0750122 0.
0.674018 0.0750126 0.
0.676018 0.0750128 0.
0.678018 0.0750131 0.
0.680018 0.0750148 0.
0.682018 0.0750164 0.
0.684019 0.075018 0.
0.686019 0.0750194 0.
0.68802 0.0750208 0.
0.690021 0.0750219 0.
0.692021 0.0750228 0.
0.694022 0.0750236 0.
0.696022 0.0750254 0.
0.698022 0.0750274 0.
0.49998 0.0770246 0.
0.50198 0.0770234 0.
0.503979 0.0770219 0.
0.505979 0.0770205 0.
0.50798 0.077019 0.
0.50998 0.0770176 0.
0.51198 0.0770161 0.
0.513981 0.0770145 0.
0.515981 0.077013 0.
0.517982 0.077012 0.
0.519983 0.0770113 0.
0.521984 0.0770107 0.
0.523984 0.07701 0.
0.525984 0.0770093 0.
0.527985 0.0770085 0.
0.529985 0.0770076 0.
0.531985 0.0770067 0.
0.533986 0.077006 0.
0.535986 0.0770058 0.
0.537987 0.0770056 0.
0.539987 0.0770053 0.
0.541988 0.0770049 0.
0.543988 0.0770045 0.
0.545989 0.0770046 0.
0.547989 0.0770049 0.
0.54999 0.0770052 0.
0.551991 0.077005 0.
0.553991 0.0770048 0.
0.555992 0.0770047 0.
0.557992 0.0770048 0.
0.559993 0.0770049 0.
0.561993 0.0770051 0.
0.563993 0.0770053 0.
0.565993 0.0770055 0.
0.567994 0.0770058 0.
0.569994 0.077006 0.
0.571995 0.0770063 0.
0.573995 0.0770069 0.
0.575996 0.0770075 0.
0.577996 0.077008 0.
0.579996 0.0770079 0.
0.581997 0.0770077 0.
0.583997 0.0770077 0.
0.585998 0.077008 0.
0.587999 0.0770083 0.
0.589999 0.0770085 0.
0.591999 0.0770087 0.
0.593999 0.0770088 0.
0.595999 0.0770092 0.
0.598 0.0770096 0.
0.6 0.07701 0.
0.602001 0.0770102 0.
0.604002 0.0770104 0.
0.606003 0.0770105 0.
0.608003 0.0770101 0.
0.610003 0.0770097 0.
0.612003 0.0770094 0.
0.614003 0.0770091 0.
0.616004 0.0770088 0.
0.618004 0.0770087 0.
0.620004 0.0770087 0.
0.622005 0.0770087 0.
0.624005 0.0770082 0.
0.626006 0.0770076 0.
0.628006 0.0770071 0.
0.630007 0.077007 0.
0.632007 0.0770068 0.
0.634007 0.0770064 0.
0.636008 0.0770058 0.
0.638008 0.0770052 0.
0.640008 0.0770054 0.
0.642009 0.0770064 0.
0.64401 0.0770074 0.
0.64601 0.0770072 0.
0.648011 0.0770067 0.
0.650012 0.0770061 0.
0.652012 0.0770065 0.
0.654013 0.0770069 0.
0.656013 0.0770074 0.
0.658014 0.077008 0.
0.660014 0.0770087 0.
0.662015 0.0770089 0.
0.664016 0.0770086 0.
0.666016 0.0770082 0.
0.668017 0.077009 0.
0.670017 0.0770103 0.
0.672017 0.0770117 0.
0.674017 0.0770123 0.
0.676018 0.0770128 0.
0.678018 0.0770134 0.
0.680018 0.0770148 0.
0.682018 0.0770163 0.
0.684018 0.0770177 0.
0.686018 0.0770191 0.
0.688019 0.0770205 0.
0.690019 0.0770217 0.
0.69202 0.0770227 0.
0.69402 0.0770237 0.
0.69602 0.0770252 0.
0.69802 0.0770269 0.
0.499982 0.0790241 0.
0.501982 0.079023 0.
0.503982 0.0790219 0.
0.505981 0.0790207 0.
0.507982 0.0790193 0.
0.509982 0.0790179 0.
0.511982 0.0790164 0.
0.513982 0.0790146 0.
0.515982 0.0790128 0.
0.517982 0.0790118 0.
0.519983 0.0790112 0.
0.521984 0.0790106 0.
0.523984 0.0790098 0.
0.525984 0.0790091 0.
0.527985 0.0790083 0.
0.529985 0.0790074 0.
0.531986 0.0790065 0.
0.533987 0.0790058 0.
0.535987 0.0790056 0.
0.537988 0.0790054 0.
0.539988 0.079005 0.
0.541988 0.0790045 0.
0.543988 0.0790039 0.
0.545989 0.0790041 0.
0.547989 0.0790045 0.
0.54999 0.0790048 0.
0.55199 0.0790046 0.
0.553991 0.0790044 0.
0.555992 0.0790042 0.
0.557992 0.0790044 0.
0.559993 0.0790045 0.
0.561993 0.0790047 0.
0.563994 0.0790049 0.
0.565994 0.0790051 0.
0.567995 0.0790054 0.
0.569995 0.0790058 0.
0.571995 0.0790062 0.
0.573996 0.0790069 0.
0.575996 0.0790077 0.
0.577997 0.0790082 0.
0.579997 0.0790077 0.
0.581997 0.0790072 0.
0.583998 0.079007 0.
0.585999 0.0790075 0.
0.587999 0.0790079 0.
0.59 0.0790082 0.
0.592 0.0790083 0.
0.594 0.0790084 0.
0.596 0.0790089 0.
0.598 0.0790096 0.
0.6 0.0790102 0.
0.602001 0.0790102 0.
0.604002 0.0790103 0.
0.606003 0.0790102 0.
0.608003 0.0790101 0.
0.610003 0.0790099 0.
0.612003 0.0790097 0.
0.614003 0.0790095 0.
0.616004 0.0790094 0.
0.618004 0.079009 0.
0.620004 0.0790086 0.
0.622004 0.0790081 0.
0.624005 0.079008 0.
0.626006 0.079008 0.
0.628006 0.079008 0.
0.630007 0.0790074 0.
0.632007 0.0790068 0.
0.634007 0.0790062 0.
0.636007 0.0790055 0.
0.638007 0.0790047 0.
0.640007 0.0790051 0.
0.642008 0.0790063 0.
0.644009 0.0790075 0.
0.64601 0.0790073 0.
0.648011 0.0790067 0.
0.650012 0.0790061 0.
0.652012 0.079006 0.
0.654012 0.0790059 0.
0.656013 0.0790059 0.
0.658014 0.0790067 0.
0.660014 0.0790074 0.
0.662015 0.079008 0.
0.664015 0.0790083 0.
0.666015 0.0790085 0.
0.668016 0.0790093 0.
0.670016 0.0790102 0.
0.672016 0.0790112 0.
0.674017 0.079012 0.
0.676017 0.0790128 0.
0.678017 0.0790136 0.
0.680017 0.0790149 0.
0.682017 0.0790162 0.
0.684017 0.0790175 0.
0.686017 0.0790188 0.
0.688017 0.0790202 0.
0.690017 0.0790214 0.
0.692018 0.0790226 0.
0.694018 0.0790238 0.
0.696019 0.0790251 0.
0.698019 0.0790264 0.
0.499983 0.0810237 0.
0.501983 0.0810227 0.
0.503983 0.0810218 0.
0.505983 0.0810208 0.
0.507984 0.0810194 0.
0.509984 0.081018 0.
0.511984 0.0810164 0.
0.513984 0.0810146 0.
0.515984 0.0810127 0.
0.517984 0.0810117 0.
0.519984 0.081011 0.
0.521985 0.0810103 0.
0.523985 0.0810096 0.
0.525985 0.0810089 0.
0.527986 0.0810082 0.
0.529986 0.0810072 0.
0.531987 0.0810062 0.
0.533987 0.0810055 0.
0.535988 0.0810053 0.
0.537988 0.081005 0.
0.539989 0.0810046 0.
0.541989 0.081004 0.
0.543989 0.0810034 0.
0.545989 0.0810036 0.
0.54799 0.081004 0.
0.54999 0.0810044 0.
0.551991 0.0810043 0.
0.553992 0.0810041 0.
0.555992 0.081004 0.
0.557993 0.081004 0.
0.559993 0.0810041 0.
0.561993 0.0810042 0.
0.563994 0.0810046 0.
0.565994 0.0810049 0.
0.567995 0.0810053 0.
0.569995 0.0810057 0.
0.571996 0.0810061 0.
0.573996 0.0810067 0.
0.575996 0.0810073 0.
0.577997 0.0810078 0.
0.579997 0.0810073 0.
0.581997 0.0810068 0.
0.583998 0.0810067 0.
0.585999 0.0810071 0.
0.587999 0.0810075 0.
0.59 0.0810078 0.
0.592 0.0810081 0.
0.594 0.0810085 0.
0.596 0.081009 0.
0.598 0.0810096 0.
0.6 0.0810103 0.
0.602001 0.0810102 0.
0.604002 0.0810102 0.
0.606003 0.0810102 0.
0.608002 0.0810102 0.
0.610002 0.0810101 0.
0.612003 0.08101 0.
0.614003 0.0810098 0.
0.616004 0.0810097 0.
0.618004 0.0810092 0.
0.620004 0.0810087 0.
0.622004 0.0810081 0.
0.624005 0.0810081 0.
0.626005 0.0810082 0.
0.628006 0.0810082 0.
0.630006 0.0810075 0.
0.632006 0.0810068 0.
0.634006 0.0810061 0.
0.636006 0.0810052 0.
0.638007 0.0810043 0.
0.640007 0.0810046 0.
0.642008 0.0810058 0.
0.644008 0.081007 0.
0.646009 0.081007 0.
0.64801 0.0810066 0.
0.650011 0.0810061 0.
0.652012 0.0810056 0.
0.654012 0.081005 0.
0.656012 0.0810047 0.
0.658013 0.0810056 0.
0.660014 0.0810065 0.
0.662014 0.0810073 0.
0.664015 0.081008 0.
0.666015 0.0810087 0.
0.668015 0.0810095 0.
0.670015 0.0810102 0.
0.672015 0.0810109 0.
0.674016 0.0810118 0.
0.676016 0.0810128 0.
0.678017 0.0810137 0.
0.680017 0.081015 0.
0.682017 0.0810164 0.
0.684016 0.0810176 0.
0.686016 0.0810188 0.
0.688016 0.0810199 0.
0.690016 0.0810212 0.
0.692016 0.0810225 0.
0.694017 0.0810239 0.
0.696017 0.0810251 0.
0.698017 0.0810262 0.
0.499985 0.0830233 0.
0.501985 0.0830225 0.
0.503985 0.0830217 0.
0.505985 0.0830208 0.
0.507985 0.0830193 0.
0.509985 0.0830178 0.
0.511986 0.0830162 0.
0.513986 0.0830145 0.
0.515986 0.0830128 0.
0.517986 0.0830116 0.
0.519986 0.0830107 0.
0.521986 0.0830098 0.
0.523987 0.0830093 0.
0.525987 0.0830088 0.
0.527987 0.0830082 0.
0.529987 0.083007 0.
0.531988 0.0830059 0.
0.533988 0.083005 0.
0.535988 0.0830047 0.
0.537989 0.0830044 0.
0.539989 0.083004 0.
0.541989 0.0830035 0.
0.543989 0.083003 0.
0.54599 0.0830031 0.
0.54799 0.0830035 0.
0.549991 0.0830039 0.
0.551991 0.083004 0.
0.553992 0.083004 0.
0.555992 0.083004 0.
0.557993 0.0830038 0.
0.559993 0.0830035 0.
0.561993 0.0830036 0.
0.563993 0.0830042 0.
0.565994 0.0830048 0.
0.567994 0.0830053 0.
0.569995 0.0830057 0.
0.571995 0.0830062 0.
0.573996 0.0830064 0.
0.575996 0.0830065 0.
0.577997 0.0830066 0.
0.579997 0.0830067 0.
0.581997 0.0830067 0.
0.583998 0.0830068 0.
0.585998 0.0830068 0.
0.587999 0.0830069 0.
0.589999 0.0830074 0.
0.592 0.0830082 0.
0.594 0.0830091 0.
0.596 0.0830095 0.
0.598 0.0830098 0.
0.6 0.0830101 0.
0.602001 0.0830103 0.
0.604002 0.0830104 0.
0.606002 0.0830105 0.
0.608002 0.0830105 0.
0.610002 0.0830105 0.
0.612003 0.0830104 0.
0.614003 0.0830099 0.
0.616004 0.0830095 0.
0.618004 0.0830092 0.
0.620004 0.083009 0.
0.622004 0.0830087 0.
0.624005 0.0830084 0.
0.626005 0.0830081 0.
0.628005 0.0830078 0.
0.630005 0.0830073 0.
0.632005 0.0830067 0.
0.634005 0.083006 0.
0.636006 0.083005 0.
0.638007 0.083004 0.
0.640008 0.083004 0.
0.642008 0.083005 0.
0.644008 0.083006 0.
0.646009 0.0830062 0.
0.64801 0.0830061 0.
0.650011 0.0830061 0.
0.652011 0.0830052 0.
0.654011 0.0830043 0.
0.656012 0.0830038 0.
0.658013 0.0830048 0.
0.660013 0.0830059 0.
0.662014 0.0830069 0.
0.664014 0.0830079 0.
0.666013 0.0830088 0.
0.668014 0.0830096 0.
0.670014 0.0830103 0.
0.672015 0.0830109 0.
0.674015 0.0830118 0.
0.676015 0.0830127 0.
0.678016 0.0830136 0.
0.680016 0.0830152 0.
0.682016 0.0830168 0.
0.684015 0.0830182 0.
0.686015 0.0830189 0.
0.688015 0.0830197 0.
0.690015 0.0830209 0.
0.692015 0.0830225 0.
0.694016 0.083024 0.
0.696016 0.0830252 0.
0.698016 0.0830262 0.
0.499986 0.0850231 0.
0.501986 0.0850223 0.
0.503987 0.0850217 0.
0.505987 0.0850209 0.
0.507987 0.0850192 0.
0.509987 0.0850176 0.
0.511987 0.085016 0.
0.513988 0.0850144 0.
0.515988 0.0850128 0.
0.517988 0.0850115 0.
0.519988 0.0850104 0.
0.521988 0.0850093 0.
0.523988 0.0850089 0.
0.525988 0.0850086 0.
0.527989 0.0850082 0.
0.529989 0.0850068 0.
0.531989 0.0850055 0.
0.533989 0.0850045 0.
0.535989 0.0850042 0.
0.537989 0.0850038 0.
0.539989 0.0850034 0.
0.541989 0.085003 0.
0.54399 0.0850025 0.
0.54599 0.0850027 0.
0.547991 0.0850031 0.
0.549992 0.0850034 0.
0.551992 0.0850037 0.
0.553992 0.0850039 0.
0.555993 0.085004 0.
0.557993 0.0850035 0.
0.559993 0.085003 0.
0.561993 0.0850031 0.
0.563993 0.0850038 0.
0.565993 0.0850047 0.
0.567993 0.0850052 0.
0.569994 0.0850057 0.
0.571995 0.0850062 0.
0.573996 0.085006 0.
0.575996 0.0850057 0.
0.577997 0.0850054 0.
0.579997 0.085006 0.
0.581997 0.0850066 0.
0.583997 0.0850069 0.
0.585998 0.0850066 0.
0.587999 0.0850063 0.
0.589999 0.0850069 0.
0.591999 0.0850083 0.
0.594 0.0850097 0.
0.596 0.08501 0.
0.598 0.08501 0.
0.600001 0.08501 0.
0.602001 0.0850103 0.
0.604001 0.0850105 0.
0.606002 0.0850107 0.
0.608002 0.0850108 0.
0.610002 0.0850109 0.
0.612003 0.0850107 0.
0.614003 0.0850101 0.
0.616004 0.0850094 0.
0.618004 0.0850092 0.
0.620004 0.0850092 0.
0.622005 0.0850093 0.
0.624004 0.0850087 0.
0.626004 0.085008 0.
0.628004 0.0850074 0.
0.630004 0.085007 0.
0.632004 0.0850066 0.
0.634005 0.0850059 0.
0.636007 0.0850048 0.
0.638008 0.0850036 0.
0.640009 0.0850035 0.
0.642009 0.0850042 0.
0.644008 0.0850049 0.
0.646009 0.0850054 0.
0.648009 0.0850057 0.
0.65001 0.0850061 0.
0.65201 0.0850048 0.
0.654011 0.0850036 0.
0.656011 0.0850029 0.
0.658012 0.0850041 0.
0.660013 0.0850053 0.
0.662013 0.0850065 0.
0.664013 0.0850077 0.
0.666012 0.0850089 0.
0.668013 0.0850097 0.
0.670014 0.0850103 0.
0.672014 0.0850109 0.
0.674014 0.0850118 0.
0.676015 0.0850126 0.
0.678015 0.0850135 0.
0.680014 0.0850154 0.
0.682014 0.0850173 0.
0.684014 0.0850187 0.
0.686014 0.0850191 0.
0.688014 0.0850195 0.
0.690014 0.0850206 0.
0.692015 0.0850224 0.
0.694015 0.0850242 0.
0.696015 0.0850252 0.
0.698014 0.0850261 0.
0.499986 0.0870224 0.
0.501987 0.0870218 0.
0.503987 0.0870211 0.
0.505988 0.0870204 0.
0.507988 0.087019 0.
0.509988 0.0870176 0.
0.511988 0.0870161 0.
0.513989 0.0870147 0.
0.515989 0.0870132 0.
0.517989 0.0870118 0.
0.519989 0.0870104 0.
0.521988 0.0870091 0.
0.523989 0.0870084 0.
0.525989 0.0870077 0.
0.52799 0.087007 0.
0.52999 0.0870061 0.
0.53199 0.0870051 0.
0.53399 0.0870043 0.
0.53599 0.087004 0.
0.53799 0.0870036 0.
0.53999 0.0870033 0.
0.54199 0.0870029 0.
0.543991 0.0870025 0.
0.545991 0.0870027 0.
0.547991 0.0870031 0.
0.549992 0.0870035 0.
0.551992 0.0870033 0.
0.553992 0.0870031 0.
0.555992 0.087003 0.
0.557993 0.0870031 0.
0.559993 0.0870033 0.
0.561993 0.0870035 0.
0.563993 0.0870039 0.
0.565994 0.0870043 0.
0.567994 0.0870049 0.
0.569995 0.0870056 0.
0.571995 0.0870062 0.
0.573996 0.0870061 0.
0.575996 0.0870059 0.
0.577997 0.0870057 0.
0.579997 0.087006 0.
0.581997 0.0870064 0.
0.583997 0.0870067 0.
0.585998 0.0870067 0.
0.587998 0.0870068 0.
0.589999 0.0870074 0.
0.591999 0.0870084 0.
0.593999 0.0870094 0.
0.596 0.0870098 0.
0.598 0.08701 0.
0.600001 0.0870102 0.
0.602001 0.0870105 0.
0.604001 0.0870109 0.
0.606002 0.0870112 0.
0.608002 0.087011 0.
0.610002 0.0870109 0.
0.612003 0.0870106 0.
0.614003 0.0870102 0.
0.616003 0.0870097 0.
0.618004 0.0870094 0.
0.620004 0.0870093 0.
0.622004 0.0870092 0.
0.624004 0.0870086 0.
0.626004 0.0870079 0.
0.628005 0.0870072 0.
0.630005 0.0870066 0.
0.632005 0.0870059 0.
0.634006 0.0870053 0.
0.636007 0.0870046 0.
0.638008 0.0870039 0.
0.640008 0.0870039 0.
0.642008 0.0870044 0.
0.644008 0.0870049 0.
0.646009 0.0870052 0.
0.648009 0.0870054 0.
0.65001 0.0870057 0.
0.65201 0.0870048 0.
0.65401 0.0870038 0.
0.65601 0.0870033 0.
0.658011 0.0870041 0.
0.660011 0.0870049 0.
0.662012 0.0870059 0.
0.664012 0.0870072 0.
0.666012 0.0870085 0.
0.668012 0.0870094 0.
0.670013 0.0870102 0.
0.672013 0.0870109 0.
0.674013 0.0870116 0.
0.676013 0.0870123 0.
0.678013 0.0870131 0.
0.680013 0.087015 0.
0.682013 0.0870169 0.
0.684013 0.0870183 0.
0.686013 0.0870188 0.
0.688013 0.0870192 0.
0.690013 0.0870204 0.
0.692013 0.0870222 0.
0.694012 0.0870239 0.
0.696012 0.0870253 0.
0.698012 0.0870266 0.
0.499987 0.0890223 0.
0.501987 0.0890213 0.
0.503988 0.0890206 0.
0.505988 0.0890199 0.
0.507989 0.0890187 0.
0.509989 0.0890175 0.
0.511989 0.0890163 0.
0.51399 0.0890149 0.
0.51599 0.0890136 0.
0.51799 0.0890121 0.
0.519989 0.0890105 0.
0.521989 0.0890088 0.
0.52399 0.0890078 0.
0.52599 0.0890069 0.
0.527991 0.0890059 0.
0.529991 0.0890053 0.
0.531992 0.0890046 0.
0.533992 0.0890041 0.
0.535991 0.0890038 0.
0.537991 0.0890035 0.
0.539991 0.0890031 0.
0.541991 0.0890028 0.
0.543992 0.0890025 0.
0.545992 0.0890028 0.
0.547992 0.0890032 0.
0.549992 0.0890036 0.
0.551992 0.089003 0.
0.553992 0.0890023 0.
0.555992 0.089002 0.
0.557993 0.0890028 0.
0.559993 0.0890036 0.
0.561993 0.089004 0.
0.563994 0.089004 0.
0.565995 0.089004 0.
0.567995 0.0890046 0.
0.569995 0.0890054 0.
0.571995 0.0890062 0.
0.573996 0.0890062 0.
0.575997 0.089006 0.
0.577997 0.0890059 0.
0.579997 0.0890061 0.
0.581997 0.0890062 0.
0.583997 0.0890064 0.
0.585998 0.0890068 0.
0.587998 0.0890073 0.
0.589998 0.0890078 0.
0.591999 0.0890085 0.
0.593999 0.0890091 0.
0.596 0.0890096 0.
0.598 0.0890099 0.
0.600001 0.0890103 0.
0.602001 0.0890108 0.
0.604002 0.0890113 0.
0.606002 0.0890116 0.
0.608002 0.0890112 0.
0.610002 0.0890108 0.
0.612003 0.0890105 0.
0.614003 0.0890102 0.
0.616003 0.08901 0.
0.618003 0.0890097 0.
0.620004 0.0890094 0.
0.622004 0.0890091 0.
0.624004 0.0890084 0.
0.626005 0.0890077 0.
0.628005 0.089007 0.
0.630005 0.0890061 0.
0.632006 0.0890053 0.
0.634007 0.0890046 0.
0.636007 0.0890044 0.
0.638007 0.0890043 0.
0.640007 0.0890043 0.
0.642008 0.0890045 0.
0.644009 0.0890048 0.
0.646009 0.089005 0.
0.648009 0.0890052 0.
0.65001 0.0890053 0.
0.65201 0.0890047 0.
0.654009 0.0890041 0.
0.656009 0.0890037 0.
0.658009 0.0890041 0.
0.66001 0.0890045 0.
0.66201 0.0890054 0.
0.664011 0.0890067 0.
0.666011 0.089008 0.
0.668011 0.0890091 0.
0.670011 0.08901 0.
0.672012 0.0890109 0.
0.674012 0.0890114 0.
0.676012 0.089012 0.
0.678012 0.0890126 0.
0.680012 0.0890145 0.
0.682012 0.0890164 0.
0.684011 0.0890179 0.
0.686011 0.0890184 0.
0.688011 0.089019 0.
0.690011 0.0890202 0.
0.69201 0.0890219 0.
0.69401 0.0890237 0.
0.69601 0.0890254 0.
0.69801 0.0890271 0.
0.499988 0.0910215 0.
0.501989 0.0910209 0.
0.503989 0.0910203 0.
0.50599 0.0910197 0.
0.50799 0.0910186 0.
0.50999 0.0910176 0.
0.51199 0.0910164 0.
0.51399 0.0910152 0.
0.515991 0.0910139 0.
0.517991 0.0910123 0.
0.51999 0.0910104 0.
0.52199 0.0910086 0.
0.523991 0.0910074 0.
0.525991 0.0910062 0.
0.527992 0.0910051 0.
0.529992 0.0910047 0.
0.531992 0.0910043 0.
0.533992 0.0910039 0.
0.535992 0.0910036 0.
0.537992 0.0910033 0.
0.539992 0.0910031 0.
0.541992 0.0910028 0.
0.543992 0.0910026 0.
0.545992 0.0910029 0.
0.547992 0.0910033 0.
0.549992 0.0910038 0.
0.551992 0.0910029 0.
0.553992 0.091002 0.
0.555992 0.0910015 0.
0.557993 0.0910024 0.
0.559993 0.0910032 0.
0.561994 0.0910037 0.
0.563994 0.0910037 0.
0.565995 0.0910037 0.
0.567995 0.0910043 0.
0.569995 0.0910052 0.
0.571995 0.091006 0.
0.573996 0.091006 0.
0.575997 0.0910059 0.
0.577998 0.0910058 0.
0.579998 0.0910058 0.
0.581998 0.0910059 0.
0.583998 0.0910062 0.
0.585998 0.0910069 0.
0.587998 0.0910077 0.
0.589998 0.0910082 0.
0.591999 0.0910085 0.
0.593999 0.0910089 0.
0.596 0.0910094 0.
0.598 0.0910099 0.
0.600001 0.0910104 0.
0.602001 0.091011 0.
0.604002 0.0910116 0.
0.606002 0.091012 0.
0.608002 0.0910113 0.
0.610002 0.0910107 0.
0.612003 0.0910103 0.
0.614003 0.0910102 0.
0.616003 0.09101 0.
0.618004 0.0910098 0.
0.620004 0.0910094 0.
0.622004 0.0910091 0.
0.624004 0.0910084 0.
0.626005 0.0910077 0.
0.628005 0.0910069 0.
0.630006 0.0910059 0.
0.632007 0.0910049 0.
0.634007 0.0910042 0.
0.636007 0.0910043 0.
0.638007 0.0910044 0.
0.640007 0.0910044 0.
0.642008 0.0910045 0.
0.644008 0.0910046 0.
0.646009 0.0910048 0.
0.648009 0.0910049 0.
0.650009 0.0910051 0.
0.652009 0.0910047 0.
0.654008 0.0910043 0.
0.656008 0.0910041 0.
0.658008 0.0910042 0.
0.660009 0.0910043 0.
0.662009 0.0910049 0.
0.66401 0.0910063 0.
0.66601 0.0910076 0.
0.668011 0.0910087 0.
0.67001 0.0910097 0.
0.67201 0.0910107 0.
0.67401 0.0910113 0.
0.67601 0.0910119 0.
0.67801 0.0910127 0.
0.68001 0.0910144 0.
0.68201 0.0910161 0.
0.68401 0.0910175 0.
0.68601 0.0910182 0.
0.68801 0.091019 0.
0.690009 0.0910203 0.
0.692009 0.0910218 0.
0.694009 0.0910234 0.
0.696009 0.0910252 0.
0.698009 0.0910271 0.
0.499991 0.093021 0.
0.501992 0.0930205 0.
0.503992 0.0930203 0.
0.505992 0.0930198 0.
0.507992 0.0930188 0.
0.509991 0.0930178 0.
0.511991 0.0930166 0.
0.513991 0.0930154 0.
0.515991 0.0930142 0.
0.517991 0.0930124 0.
0.519991 0.0930104 0.
0.521991 0.0930083 0.
0.523992 0.093007 0.
0.525992 0.0930057 0.
0.527992 0.0930046 0.
0.529992 0.0930043 0.
0.531993 0.093004 0.
0.533993 0.0930038 0.
0.535992 0.0930035 0.
0.537992 0.0930032 0.
0.539992 0.0930031 0.
0.541992 0.093003 0.
0.543993 0.0930029 0.
0.545993 0.0930031 0.
0.547993 0.0930036 0.
0.549993 0.093004 0.
0.551993 0.0930031 0.
0.553993 0.0930022 0.
0.555993 0.0930015 0.
0.557993 0.0930019 0.
0.559993 0.0930023 0.
0.561994 0.0930026 0.
0.563994 0.093003 0.
0.565994 0.0930033 0.
0.567995 0.093004 0.
0.569995 0.0930049 0.
0.571996 0.0930057 0.
0.573996 0.0930056 0.
0.575997 0.0930054 0.
0.577998 0.0930052 0.
0.579998 0.0930054 0.
0.581998 0.0930055 0.
0.583998 0.0930059 0.
0.585998 0.0930069 0.
0.587999 0.0930079 0.
0.589999 0.0930084 0.
0.591999 0.0930085 0.
0.593999 0.0930086 0.
0.596 0.0930092 0.
0.598 0.0930098 0.
0.600001 0.0930105 0.
0.602002 0.0930112 0.
0.604002 0.0930119 0.
0.606003 0.0930122 0.
0.608003 0.0930114 0.
0.610003 0.0930105 0.
0.612003 0.09301 0.
0.614003 0.09301 0.
0.616004 0.0930099 0.
0.618004 0.0930097 0.
0.620004 0.0930095 0.
0.622004 0.0930092 0.
0.624005 0.0930085 0.
0.626005 0.0930076 0.
0.628006 0.0930068 0.
0.630006 0.0930058 0.
0.632006 0.0930048 0.
0.634007 0.0930042 0.
0.636007 0.0930042 0.
0.638007 0.0930043 0.
0.640007 0.0930043 0.
0.642007 0.0930043 0.
0.644007 0.0930044 0.
0.646007 0.0930045 0.
0.648007 0.0930048 0.
0.650007 0.093005 0.
0.652007 0.0930048 0.
0.654007 0.0930046 0.
0.656007 0.0930045 0.
0.658008 0.0930043 0.
0.660009 0.0930041 0.
0.662009 0.0930046 0.
0.664009 0.0930059 0.
0.666009 0.0930072 0.
0.668009 0.0930082 0.
0.670009 0.0930092 0.
0.672009 0.0930103 0.
0.674009 0.0930112 0.
0.676009 0.0930121 0.
0.67801 0.0930131 0.
0.680009 0.0930144 0.
0.682009 0.0930158 0.
0.684009 0.093017 0.
0.686009 0.0930182 0.
0.688009 0.0930194 0.
0.690009 0.0930206 0.
0.692008 0.0930219 0.
0.694008 0.0930231 0.
0.696008 0.0930248 0.
0.698008 0.0930266 0.
0.499994 0.0950199 0.
0.501994 0.0950202 0.
0.503994 0.0950202 0.
0.505994 0.09502 0.
0.507993 0.095019 0.
0.509993 0.095018 0.
0.511992 0.0950169 0.
0.513992 0.0950156 0.
0.515992 0.0950144 0.
0.517992 0.0950125 0.
0.519992 0.0950103 0.
0.521993 0.095008 0.
0.523993 0.0950066 0.
0.525993 0.0950052 0.
0.527993 0.095004 0.
0.529993 0.0950039 0.
0.531993 0.0950038 0.
0.533993 0.0950036 0.
0.535993 0.0950034 0.
0.537993 0.0950032 0.
0.539993 0.0950031 0.
0.541993 0.0950031 0.
0.543993 0.0950031 0.
0.545994 0.0950034 0.
0.547994 0.0950038 0.
0.549994 0.0950042 0.
0.551994 0.0950033 0.
0.553994 0.0950023 0.
0.555994 0.0950015 0.
0.557993 0.0950014 0.
0.559993 0.0950013 0.
0.561993 0.0950015 0.
0.563994 0.0950022 0.
0.565994 0.0950029 0.
0.567994 0.0950038 0.
0.569995 0.0950046 0.
0.571996 0.0950054 0.
0.573997 0.0950052 0.
0.575997 0.0950049 0.
0.577997 0.0950047 0.
0.579998 0.0950049 0.
0.581998 0.0950051 0.
0.583999 0.0950057 0.
0.585999 0.0950069 0.
0.587999 0.0950082 0.
0.589999 0.0950086 0.
0.592 0.0950085 0.
0.594 0.0950084 0.
0.596 0.095009 0.
0.598 0.0950098 0.
0.6 0.0950106 0.
0.602002 0.0950114 0.
0.604003 0.0950121 0.
0.606004 0.0950125 0.
0.608004 0.0950114 0.
0.610003 0.0950104 0.
0.612003 0.0950098 0.
0.614003 0.0950098 0.
0.616004 0.0950098 0.
0.618004 0.0950097 0.
0.620005 0.0950095 0.
0.622005 0.0950094 0.
0.624005 0.0950085 0.
0.626006 0.0950076 0.
0.628006 0.0950067 0.
0.630006 0.0950057 0.
0.632006 0.0950047 0.
0.634006 0.0950041 0.
0.636007 0.0950041 0.
0.638007 0.0950042 0.
0.640007 0.0950042 0.
0.642006 0.0950042 0.
0.644006 0.0950041 0.
0.646006 0.0950043 0.
0.648005 0.0950046 0.
0.650005 0.0950048 0.
0.652005 0.0950049 0.
0.654006 0.095005 0.
0.656007 0.0950049 0.
0.658007 0.0950044 0.
0.660008 0.095004 0.
0.662009 0.0950043 0.
0.664009 0.0950055 0.
0.666008 0.0950067 0.
0.668008 0.0950078 0.
0.670008 0.0950088 0.
0.672008 0.0950099 0.
0.674009 0.0950111 0.
0.676009 0.0950123 0.
0.678009 0.0950135 0.
0.680008 0.0950145 0.
0.682008 0.0950155 0.
0.684008 0.0950166 0.
0.686008 0.0950182 0.
0.688008 0.0950197 0.
0.690008 0.095021 0.
0.692007 0.0950219 0.
0.694007 0.0950228 0.
0.696007 0.0950244 0.
0.698008 0.0950261 0.
0.499996 0.0970206 0.
0.501996 0.0970206 0.
0.503995 0.0970204 0.
0.505994 0.09702 0.
0.507994 0.0970188 0.
0.509994 0.0970176 0.
0.511994 0.0970165 0.
0.513994 0.0970155 0.
0.515994 0.0970145 0.
0.517994 0.0970127 0.
0.519995 0.0970106 0.
0.521995 0.0970084 0.
0.523994 0.0970069 0.
0.525994 0.0970055 0.
0.527994 0.0970042 0.
0.529993 0.0970042 0.
0.531993 0.0970041 0.
0.533993 0.097004 0.
0.535993 0.0970038 0.
0.537993 0.0970035 0.
0.539994 0.0970033 0.
0.541994 0.0970029 0.
0.543994 0.0970026 0.
0.545994 0.0970029 0.
0.547995 0.0970032 0.
0.549995 0.0970036 0.
0.551995 0.0970028 0.
0.553995 0.097002 0.
0.555994 0.0970014 0.
0.557994 0.0970014 0.
0.559994 0.0970015 0.
0.561994 0.0970017 0.
0.563994 0.0970023 0.
0.565993 0.0970028 0.
0.567994 0.0970035 0.
0.569995 0.0970042 0.
0.571995 0.0970049 0.
0.573996 0.0970051 0.
0.575997 0.0970052 0.
0.577997 0.0970053 0.
0.579997 0.0970051 0.
0.581997 0.0970048 0.
0.583998 0.0970051 0.
0.585999 0.0970065 0.
0.588 0.0970079 0.
0.59 0.0970085 0.
0.591999 0.0970085 0.
0.593999 0.0970086 0.
0.595999 0.0970092 0.
0.598 0.0970101 0.
0.6 0.0970109 0.
0.602002 0.0970114 0.
0.604004 0.0970119 0.
0.606005 0.0970121 0.
0.608004 0.0970112 0.
0.610004 0.0970104 0.
0.612004 0.0970098 0.
0.614004 0.0970096 0.
0.616004 0.0970093 0.
0.618005 0.0970094 0.
0.620004 0.0970095 0.
0.622004 0.0970097 0.
0.624005 0.0970086 0.
0.626006 0.0970074 0.
0.628007 0.0970063 0.
0.630007 0.0970058 0.
0.632007 0.0970053 0.
0.634007 0.0970049 0.
0.636007 0.0970046 0.
0.638007 0.0970042 0.
0.640007 0.0970041 0.
0.642007 0.097004 0.
0.644006 0.097004 0.
0.646006 0.0970039 0.
0.648006 0.0970038 0.
0.650006 0.0970037 0.
0.652007 0.0970042 0.
0.654007 0.0970048 0.
0.656008 0.0970051 0.
0.658008 0.0970047 0.
0.660008 0.0970044 0.
0.662008 0.0970047 0.
0.664007 0.0970059 0.
0.666007 0.0970071 0.
0.668007 0.0970081 0.
0.670007 0.0970091 0.
0.672007 0.0970101 0.
0.674007 0.0970112 0.
0.676007 0.0970123 0.
0.678007 0.0970134 0.
0.680007 0.0970146 0.
0.682007 0.0970157 0.
0.684007 0.0970169 0.
0.686007 0.0970184 0.
0.688006 0.0970199 0.
0.690006 0.0970211 0.
0.692006 0.097022 0.
0.694005 0.0970228 0.
0.696006 0.0970241 0.
0.698006 0.0970254 0.
0.499998 0.0990211 0.
0.501997 0.099021 0.
0.503996 0.0990206 0.
0.505995 0.09902 0.
0.507995 0.0990186 0.
0.509995 0.0990173 0.
0.511995 0.0990162 0.
0.513996 0.0990154 0.
0.515996 0.0990145 0.
0.517997 0.0990129 0.
0.519997 0.0990109 0.
0.521997 0.0990088 0.
0.523996 0.0990072 0.
0.525995 0.0990057 0.
0.527995 0.0990043 0.
0.529994 0.0990044 0.
0.531993 0.0990045 0.
0.533993 0.0990045 0.
0.535994 0.0990042 0.
0.537994 0.0990039 0.
0.539994 0.0990034 0.
0.541995 0.0990028 0.
0.543995 0.0990022 0.
0.545995 0.0990024 0.
0.547996 0.0990027 0.
0.549996 0.0990031 0.
0.551996 0.0990024 0.
0.553995 0.0990017 0.
0.555995 0.0990012 0.
0.557995 0.0990014 0.
0.559994 0.0990017 0.
0.561994 0.0990019 0.
0.563994 0.0990023 0.
0.565993 0.0990026 0.
0.567994 0.0990032 0.
0.569994 0.0990038 0.
0.571994 0.0990044 0.
0.573995 0.099005 0.
0.575996 0.0990055 0.
0.577997 0.0990059 0.
0.579997 0.0990052 0.
0.581997 0.0990046 0.
0.583997 0.0990046 0.
0.585998 0.099006 0.
0.588 0.0990075 0.
0.59 0.0990083 0.
0.591999 0.0990085 0.
0.593998 0.0990088 0.
0.595999 0.0990095 0.
0.598 0.0990103 0.
0.6 0.0990112 0.
0.602002 0.0990114 0.
0.604004 0.0990117 0.
0.606005 0.0990117 0.
0.608005 0.099011 0.
0.610004 0.0990104 0.
0.612004 0.0990098 0.
0.614005 0.0990093 0.
0.616005 0.0990088 0.
0.618005 0.099009 0.
0.620004 0.0990095 0.
0.622004 0.09901 0.
0.624005 0.0990087 0.
0.626007 0.0990072 0.
0.628008 0.0990059 0.
0.630008 0.0990059 0.
0.632007 0.0990059 0.
0.634007 0.0990057 0.
0.636007 0.099005 0.
0.638007 0.0990043 0.
0.640007 0.0990039 0.
0.642007 0.0990039 0.
0.644007 0.0990038 0.
0.646007 0.0990034 0.
0.648007 0.099003 0.
0.650007 0.0990026 0.
0.652008 0.0990036 0.
0.654008 0.0990046 0.
0.656009 0.0990053 0.
0.658008 0.099005 0.
0.660008 0.0990047 0.
0.662007 0.0990051 0.
0.664006 0.0990063 0.
0.666005 0.0990075 0.
0.668005 0.0990085 0.
0.670006 0.0990094 0.
0.672006 0.0990103 0.
0.674006 0.0990113 0.
0.676005 0.0990123 0.
0.678005 0.0990134 0.
0.680005 0.0990146 0.
0.682005 0.0990158 0.
0.684006 0.0990171 0.
0.686005 0.0990186 0.
0.688004 0.0990201 0.
0.690004 0.0990213 0.
0.692004 0.0990221 0.
0.694004 0.0990229 0.
0.696004 0.0990238 0.
0.698005 0.0990248 0.
CELLS 5000 10000
1 0
1 1
1 2
1 3
1 4
1 5
1 6
1 7
1 8
1 9
1 10
1 11
1 12
1 13
1 14
1 15
1 16
1 17
1 18
1 19
1 20
1 21
1 22
1 23
1 24
1 25
1 26
1 27
1 28
1 29
1 30
1 31
1 32
1 33
1 34
1 35
1 36
1 37
1 38
1 39
1 40
1 41
1 42
1 43
1 44
1 45
1 46
1 47
1 48
1 49
1 50
1 51
1 52
1 53
1 54
1 55
1 56
1 57
1 58
1 59
1 60
1 61
1 62
1 63
1 64
1 65
1 66
1 67
1 68
1 69
1 70
1 71
1 72
1 73
1 74
1 75
1 76
1 77
1 78
1 79
1 80
1 81
1 82
1 83
1 84
1 85
1 86
1 87
1 88
1 89
1 90
1 91
1 92
1 93
1 94
1 95
1 96
1 97
1 98
1 99
1 100
1 101
1 102
1 103
1 104
1 105
1 106
1 107
1 108
1 109
1 110
1 111
1 112
1 113
1 114
1 115
1 116
1 117
1 118
1 119
1 120
1 121
1 122
1 123
1 124
1 125
1 126
1 127
1 128
1 129
1 130
1 131
1 132
1 133
1 134
1 135
1 136
1 137
1 138
1 139
1 140
1 141
1 142
1 143
1 144
1 145
1 146
1 147
1 148
1 149
1 150
1 151
1 152
1 153
1 154
1 155
1 156
1 157
1 158
1 159
1 160
1 161
1 162
1 163
1 164
1 165
1 166
1 167
1 168
1 169
1 170
1 171
1 172
1 173
1 174
1 175
1 176
1 177
1 178
1 179
1 180
1 181
1 182
1 183
1 184
1 185
1 186
1 187
1 188
1 189
1 190
1 191
1 192
1 193
1 194
1 195
1 196
1 197
1 198
1 199
1 200
1 201
1 202
1 203
1 204
1 205
1 206
1 207
1 208
1 209
1 210
1 211
1 212
1 213
1 214
1 215
1 216
1 217
1 218
1 219
1 220
1 221
1 222
1 223
1 224
1 225
1 226
1 227
1 228
1 229
1 230
1 231
1 232
1 233
1 234
1 235
1 236
1 237
1 238
1 239
1 240
1 241
1 242
1 243
1 244
1 245
1 246
1 247
1 248
1 249
1 250
1 251
1 252
1 253
1 254
1 255
1 256
1 257
1 258
1 259
1 260
1 261
1 262
1 263
1 264
1 265
1 266
1 267
1 268
1 269
1 270
1 271
1 272
1 273
1 274
1 275
1 276
1 277
1 278
1 279
1 280
1 281
1 282
1 283
1 284
1 285
1 286
1 287
1 288
1 289
1 290
1 291
1 292
1 293
1 294
1 295
1 296
1 297
1 298
1 299
1 300
1 301
1 302
1 303
1 304
1 305
1 306
1 307
1 308
1 309
1 310
1 311
1 312
1 313
1 314
1 315
1 316
1 317
1 318
1 319
1 320
1 321
1 322
1 323
1 324
1 325
1 326
1 327
1 328
1 329
1 330
1 331
1 332
1 333
1 334
1 335
1 336
1 337
1 338
1 339
1 340
1 341
1 342
1 343
1 344
1 345
1 346
1 347
1 348
1 349
1 350
1 351
1 352
1 353
1 354
1 355
1 356
1 357
1 358
1 359
1 360
1 361
1 362
1 363
1 364
1 365
1 366
1 367
1 368
1 369
1 370
1 371
1 372
1 373
1 374
1 375
1 376
1 377
1 378
1 379
1 380
1 381
1 382
1 383
1 384
1 385
1 386
1 387
1 388
1 389
1 390
1 391
1 392
1 393
1 394
1 395
1 396
1 397
1 398
1 399
1 400
1 401
1 402
1 403
1 404
1 405
1 406
1 407
1 408
1 409
1 410
1 411
1 412
1 413
1 414
1 415
1 416
1 417
1 418
1 419
1 420
1 421
1 422
1 423
1 424
1 425
1 426
1 427
1 428
1 429
1 430
1 431
1 432
1 433
1 434
1 435
1 436
1 437
1 438
1 439
1 440
1 441
1 442
1 443
1 444
1 445
1 446
1 447
1 448
1 449
1 450
1 451
1 452
1 453
1 454
1 455
1 456
1 457
1 458
1 459
1 460
1 461
1 462
1 463
1 464
1 465
1 466
1 467
1 468
1 469
1 470
1 471
1 472
1 473
1 474
1 475
1 476
1 477
1 478
1 479
1 480
1 481
1 482
1 483
1 484
1 485
1 486
1 487
1 488
1 489
1 490
1 491
1 492
1 493
1 494
1 495
1 496
1 497
1 498
1 499
1 500
1 501
1 502
1 503
1 504
1 505
1 506
1 507
1 508
1 509
1 510
1 511
1 512
1 513
1 514
1 515
1 516
1 517
1 518
1 519
1 520
1 521
1 522
1 523
1 524
1 525
1 526
1 527
1 528
1 529
1 530
1 531
1 532
1 533
1 534
1 535
1 536
1 537
1 538
1 539
1 540
1 541
1 542
1 543
1 544
1 545
1 546
1 547
1 548
1 549
1 550
1 551
1 552
1 553
1 554
1 555
1 556
1 557
1 558
1 559
1 560
1 561
1 562
1 563
1 564
1 565
1 566
1 567
1 568
1 569
1 570
1 571
1 572
1 573
1 574
1 575
1 576
1 577
1 578
1 579
1 580
1 581
1 582
1 583
1 584
1 585
1 586
1 587
1 588
1 589
1 590
1 591
1 592
1 593
1 594
1 595
1 596
1 597
1 598
1 599
1 600
1 601
1 602
1 603
1 604
1 605
1 606
1 607
1 608
1 609
1 610
1 611
1 612
1 613
1 614
1 615
1 616
1 617
1 618
1 619
1 620
1 621
1 622
1 623
1 624
1 625
1 626
1 627
1 628
1 629
1 630
1 631
1 632
1 633
1 634
1 635
1 636
1 637
1 638
1 639
1 640
1 641
1 642
1 643
1 644
1 645
1 646
1 647
1 648
1 649
1 650
1 651
1 652
1 653
1 654
1 655
1 656
1 657
1 658
1 659
1 660
1 661
1 662
1 663
1 664
1 665
1 666
1 667
1 668
1 669
1 670
1 671
1 672
1 673
1 674
1 675
1 676
1 677
1 678
1 679
1 680
1 681
1 682
1 683
1 684
1 685
1 686
1 687
1 688
1 689
1 690
1 691
1 692
1 693
1 694
1 695
1 696
1 697
1 698
1 699
1 700
1 701
1 702
1 703
1 704
1 705
1 706
1 707
1 708
1 709
1 710
1 711
1 712
1 713
1 714
1 715
1 716
1 717
1 718
1 719
1 720
1 721
1 722
1 723
1 724
1 725
1 726
1 727
1 728
1 729
1 730
1 731
1 732
1 733
1 734
1 735
1 736
1 737
1 738
1 739
1 740
1 741
1 742
1 743
1 744
1 745
1 746
1 747
1 748
1 749
1 750
1 751
1 752
1 753
1 754
1 755
1 756
1 757
1 758
1 759
1 760
1 761
1 762
1 763
1 764
1 765
1 766
1 767
1 768
1 769
1 770
1 771
1 772
1 773
1 774
1 775
1 776
1 777
1 778
1 779
1 780
1 781
1 782
1 783
1 784
1 785
1 786
1 787
1 788
1 789
1 790
1 791
1 792
1 793
1 794
1 795
1 796
1 797
1 798
1 799
1 800
1 801
1 802
1 803
1 804
1 805
1 806
1 807
1 808
1 809
1 810
1 811
1 812
1 813
1 814
1 815
1 816
1 817
1 818
1 819
1 820
1 821
1 822
1 823
1 824
1 825
1 826
1 827
1 828
1 829
1 830
1 831
1 832
1 833
1 834
1 835
1 836
1 837
1 838
1 839
1 840
1 841
1 842
1 843
1 844
1 845
1 846
1 847
1 848
1 849
1 850
1 851
1 852
1 853
1 854
1 855
1 856
1 857
1 858
1 859
1 860
1 861
1 862
1 863
1 864
1 865
1 866
1 867
1 868
1 869
1 870
1 871
1 872
1 873
1 874
1 875
1 876
1 877
1 878
1 879
1 880
1 881
1 882
1 883
1 884
1 885
1 886
1 887
1 888
1 889
1 890
1 891
1 892
1 893
1 894
1 895
1 896
1 897
1 898
1 899
1 900
1 901
1 902
1 903
1 904
1 905
1 906
1 907
1 908
1 909
1 910
1 911
1 912
1 913
1 914
1 915
1 916
1 917
1 918
1 919
1 920
1 921
1 922
1 923
1 924
1 925
1 926
1 927
1 928
1 929
1 930
1 931
1 932
1 933
1 934
1 935
1 936
1 937
1 938
1 939
1 940
1 941
1 942
1 943
1 944
1 945
1 946
1 947
1 948
1 949
1 950
1 951
1 952
1 953
1 954
1 955
1 956
1 957
1 958
1 959
1 960
1 961
1 962
1 963
1 964
1 965
1 966
1 967
1 968
1 969
1 970
1 971
1 972
1 973
1 974
1 975
1 976
1 977
1 978
1 979
1 980
1 981
1 982
1 983
1 984
1 985
1 986
1 987
1 988
1 989
1 990
1 991
1 992
1 993
1 994
1 995
1 996
1 997
1 998
1 999
1 1000
1 1001
1 1002
1 1003
1 1004
1 1005
1 1006
1 1007
1 1008
1 1009
1 1010
1 1011
1 1012
1 1013
1 1014
1 1015
1 1016
1 1017
1 1018
1 1019
1 1020
1 1021
1 1022
1 1023
1 1024
1 1025
1 1026
1 1027
1 1028
1 1029
1 1030
1 1031
1 1032
1 1033
1 1034
1 1035
1 1036
1 1037
1 1038
1 1039
1 1040
1 1041
1 1042
1 1043
1 1044
1 1045
1 1046
1 1047
1 1048
1 1049
1 1050
1 1051
1 1052
1 1053
1 1054
1 1055
1 1056
1 1057
1 1058
1 1059
1 1060
1 1061
1 1062
1 1063
1 1064
1 1065
1 1066
1 1067
1 1068
1 1069
1 1070
1 1071
1 1072
1 1073
1 1074
1 1075
1 1076
1 1077
1 1078
1 1079
1 1080
1 1081
1 1082
1 1083
1 1084
1 1085
1 1086
1 1087
1 1088
1 1089
1 1090
1 1091
1 1092
1 1093
1 1094
1 1095
1 1096
1 1097
1 1098
1 1099
1 1100
1 1101
1 1102
1 1103
1 1104
1 1105
1 1106
1 1107
1 1108
1 1109
1 1110
1 1111
1 1112
1 1113
1 1114
1 1115
1 1116
1 1117
1 1118
1 1119
1 1120
1 1121
1 1122
1 1123
1 1124
1 1125
1 1126
1 1127
1 1128
1 1129
1 1130
1 1131
1 1132
1 1133
1 1134
1 1135
1 1136
1 1137
1 1138
1 1139
1 1140
1 1141
1 1142
1 1143
1 1144
1 1145
1 1146
1 1147
1 1148
1 1149
1 1150
1 1151
1 1152
1 1153
1 1154
1 1155
1 1156
1 1157
1 1158
1 1159
1 1160
1 1161
1 1162
1 1163
1 1164
1 1165
1 1166
1 1167
1 1168
1 1169
1 1170
1 1171
1 1172
1 1173
1 1174
1 1175
1 1176
1 1177
1 1178
1 1179
1 1180
1 1181
1 1182
1 1183
1 1184
1 1185
1 1186
1 1187
1 1188
1 1189
1 1190
1 1191
1 1192
1 1193
1 1194
1 1195
1 1196
1 1197
1 1198
1 1199
1 1200
1 1201
1 1202
1 1203
1 1204
1 1205
1 1206
1 1207
1 1208
1 1209
1 1210
1 1211
1 1212
1 1213
1 1214
1 1215
1 1216
1 1217
1 1218
1 1219
1 1220
1 1221
1 1222
1 1223
1 1224
1 1225
1 1226
1 1227
1 1228
1 1229
1 1230
1 1231
1 1232
1 1233
1 1234
1 1235
1 1236
1 1237
1 1238
1 1239
1 1240
1 1241
1 1242
1 1243
1 1244
1 1245
1 1246
1 1247
1 1248
1 1249
1 1250
1 1251
1 1252
1 1253
1 1254
1 1255
1 1256
1 1257
1 1258
1 1259
1 1260
1 1261
1 1262
1 1263
1 1264
1 1265
1 1266
1 1267
1 1268
1 1269
1 1270
1 1271
1 1272
1 1273
1 1274
1 1275
1 1276
1 1277
1 1278
1 1279
1 1280
1 1281
1 1282
1 1283
1 1284
1 1285
1 1286
1 1287
1 1288
1 1289
1 1290
1 1291
1 1292
1 1293
1 1294
1 1295
1 1296
1 1297
1 1298
1 1299
1 1300
1 1301
1 1302
1 1303
1 1304
1 1305
1 1306
1 1307
1 1308
1 1309
1 1310
1 1311
1 1312
1 1313
1 1314
1 1315
1 1316
1 1317
1 1318
1 1319
1 1320
1 1321
1 1322
1 1323
1 1324
1 1325
1 1326
1 1327
1 1328
1 1329
1 1330
1 1331
1 1332
1 1333
1 1334
1 1335
1 1336
1 1337
1 1338
1 1339
1 1340
1 1341
1 1342
1 1343
1 1344
1 1345
1 1346
1 1347
1 1348
1 1349
1 1350
1 1351
1 1352
1 1353
1 1354
1 1355
1 1356
1 1357
1 1358
1 1359
1 1360
1 1361
1 1362
1 1363
1 1364
1 1365
1 1366
1 1367
1 1368
1 1369
1 1370
1 1371
1 1372
1 1373
1 1374
1 1375
1 1376
1 1377
1 1378
1 1379
1 1380
1 1381
1 1382
1 1383
1 1384
1 1385
1 1386
1 1387
1 1388
1 1389
1 1390
1 1391
1 1392
1 1393
1 1394
1 1395
1 1396
1 1397
1 1398
1 1399
1 1400
1 1401
1 1402
1 1403
1 1404
1 1405
1 1406
1 1407
1 1408
1 1409
1 1410
1 1411
1 1412
1 1413
1 1414
1 1415
1 1416
1 1417
1 1418
1 1419
1 1420
1 1421
1 1422
1 1423
1 1424
1 1425
1 1426
1 1427
1 1428
1 1429
1 1430
1 1431
1 1432
1 1433
1 1434
1 1435
1 1436
1 1437
1 1438
1 1439
1 1440
1 1441
1 1442
1 1443
1 1444
1 1445
1 1446
1 1447
1 1448
1 1449
1 1450
1 1451
1 1452
1 1453
1 1454
1 1455
1 1456
1 1457
1 1458
1 1459
1 1460
1 1461
1 1462
1 1463
1 1464
1 1465
1 1466
1 1467
1 1468
1 1469
1 1470
1 1471
1 1472
1 1473
1 1474
1 1475
1 1476
1 1477
1 1478
1 1479
1 1480
1 1481
1 1482
1 1483
1 1484
1 1485
1 1486
1 1487
1 1488
1 1489
1 1490
1 1491
1 1492
1 1493
1 1494
1 1495
1 1496
1 1497
1 1498
1 1499
1 1500
1 1501
1 1502
1 1503
1 1504
1 1505
1 1506
1 1507
1 1508
1 1509
1 1510
1 1511
1 1512
1 1513
1 1514
1 1515
1 1516
1 1517
1 1518
1 1519
1 1520
1 1521
1 1522
1 1523
1 1524
1 1525
1 1526
1 1527
1 1528
1 1529
1 1530
1 1531
1 1532
1 1533
1 1534
1 1535
1 1536
1 1537
1 1538
1 1539
1 1540
1 1541
1 1542
1 1543
1 1544
1 1545
1 1546
1 1547
1 1548
1 1549
1 1550
1 1551
1 1552
1 1553
1 1554
1 1555
1 1556
1 1557
1 1558
1 1559
1 1560
1 1561
1 1562
1 1563
1 1564
1 1565
1 1566
1 1567
1 1568
1 1569
1 1570
1 1571
1 1572
1 1573
1 1574
1 1575
1 1576
1 1577
1 1578
1 1579
1 1580
1 1581
1 1582
1 1583
1 1584
1 1585
1 1586
1 1587
1 1588
1 1589
1 1590
1 1591
1 1592
1 1593
1 1594
1 1595
1 1596
1 1597
1 1598
1 1599
1 1600
1 1601
1 1602
1 1603
1 1604
1 1605
1 1606
1 1607
1 1608
1 1609
1 1610
1 1611
1 1612
1 1613
1 1614
1 1615
1 1616
1 1617
1 1618
1 1619
1 1620
1 1621
1 1622
1 1623
1 1624
1 1625
1 1626
1 1627
1 1628
1 1629
1 1630
1 1631
1 1632
1 1633
1 1634
1 1635
1 1636
1 1637
1 1638
1 1639
1 1640
1 1641
1 1642
1 1643
1 1644
1 1645
1 1646
1 1647
1 1648
1 1649
1 1650
1 1651
1 1652
1 1653
1 1654
1 1655
1 1656
1 1657
1 1658
1 1659
1 1660
1 1661
1 1662
1 1663
1 1664
1 1665
1 1666
1 1667
1 1668
1 1669
1 1670
1 1671
1 1672
1 1673
1 1674
1 1675
1 1676
1 1677
1 1678
1 1679
1 1680
1 1681
1 1682
1 1683
1 1684
1 1685
1 1686
1 1687
1 1688
1 1689
1 1690
1 1691
1 1692
1 1693
1 1694
1 1695
1 1696
1 1697
1 1698
1 1699
1 1700
1 1701
1 1702
1 1703
1 1704
1 1705
1 1706
1 1707
1 1708
1 1709
1 1710
1 1711
1 1712
1 1713
1 1714
1 1715
1 1716
1 1717
1 1718
1 1719
1 1720
1 1721
1 1722
1 1723
1 1724
1 1725
1 1726
1 1727
1 1728
1 1729
1 1730
1 1731
1 1732
1 1733
1 1734
1 1735
1 1736
1 1737
1 1738
1 1739
1 1740
1 1741
1 1742
1 1743
1 1744
1 1745
1 1746
1 1747
1 1748
1 1749
1 1750
1 1751
1 1752
1 1753
1 1754
1 1755
1 1756
1 1757
1 1758
1 1759
1 1760
1 1761
1 1762
1 1763
1 1764
1 1765
1 1766
1 1767
1 1768
1 1769
1 1770
1 1771
1 1772
1 1773
1 1774
1 1775
1 1776
1 1777
1 1778
1 1779
1 1780
1 1781
1 1782
1 1783
1 1784
1 1785
1 1786
1 1787
1 1788
1 1789
1 1790
1 1791
1 1792
1 1793
1 1794
1 1795
1 1796
1 1797
1 1798
1 1799
1 1800
1 1801
1 1802
1 1803
1 1804
1 1805
1 1806
1 1807
1 1808
1 1809
1 1810
1 1811
1 1812
1 1813
1 1814
1 1815
1 1816
1 1817
1 1818
1 1819
1 1820
1 1821
1 1822
1 1823
1 1824
1 1825
1 1826
1 1827
1 1828
1 1829
1 1830
1 1831
1 1832
1 1833
1 1834
1 1835
1 1836
1 1837
1 1838
1 1839
1 1840
1 1841
1 1842
1 1843
1 1844
1 1845
1 1846
1 1847
1 1848
1 1849
1 1850
1 1851
1 1852
1 1853
1 1854
1 1855
1 1856
1 1857
1 1858
1 1859
1 1860
1 1861
1 1862
1 1863
1 1864
1 1865
1 1866
1 1867
1 1868
1 1869
1 1870
1 1871
1 1872
1 1873
1 1874
1 1875
1 1876
1 1877
1 1878
1 1879
1 1880
1 1881
1 1882
1 1883
1 1884
1 1885
1 1886
1 1887
1 1888
1 1889
1 1890
1 1891
1 1892
1 1893
1 1894
1 1895
1 1896
1 1897
1 1898
1 1899
1 1900
1 1901
1 1902
1 1903
1 1904
1 1905
1 1906
1 1907
1 1908
1 1909
1 1910
1 1911
1 1912
1 1913
1 1914
1 1915
1 1916
1 1917
1 1918
1 1919
1 1920
1 1921
1 1922
1 1923
1 1924
1 1925
1 1926
1 1927
1 1928
1 1929
1 1930
1 1931
1 1932
1 1933
1 1934
1 1935
1 1936
1 1937
1 1938
1 1939
1 1940
1 1941
1 1942
1 1943
1 1944
1 1945
1 1946
1 1947
1 1948
1 1949
1 1950
1 1951
1 1952
1 1953
1 1954
1 1955
1 1956
1 1957
1 1958
1 1959
1 1960
1 1961
1 1962
1 1963
1 1964
1 1965
1 1966
1 1967
1 1968
1 1969
1 1970
1 1971
1 1972
1 1973
1 1974
1 1975
1 1976
1 1977
1 1978
1 1979
1 1980
1 1981
1 1982
1 1983
1 1984
1 1985
1 1986
1 1987
1 1988
1 1989
1 1990
1 1991
1 1992
1 1993
1 1994
1 1995
1 1996
1 1997
1 1998
1 1999
1 2000
1 2001
1 2002
1 2003
1 2004
1 2005
1 2006
1 2007
1 2008
1 2009
1 2010
1 2011
1 2012
1 2013
1 2014
1 2015
1 2016
1 2017
1 2018
1 2019
1 2020
1 2021
1 2022
1 2023
1 2024
1 2025
1 2026
1 2027
1 2028
1 2029
1 2030
1 2031
1 2032
1 2033
1 2034
1 2035
1 2036
1 2037
1 2038
1 2039
1 2040
1 2041
1 2042
1 2043
1 2044
1 2045
1 2046
1 2047
1 2048
1 2049
1 2050
1 2051
1 2052
1 2053
1 2054
1 2055
1 2056
1 2057
1 2058
1 2059
1 2060
1 2061
1 2062
1 2063
1 2064
1 2065
1 2066
1 2067
1 2068
1 2069
1 2070
1 2071
1 2072
1 2073
1 2074
1 2075
1 2076
1 2077
1 2078
1 2079
1 2080
1 2081
1 2082
1 2083
1 2084
1 2085
1 2086
1 2087
1 2088
1 2089
1 2090
1 2091
1 2092
1 2093
1 2094
1 2095
1 2096
1 2097
1 2098
1 2099
1 2100
1 2101
1 2102
1 2103
1 2104
1 2105
1 2106
1 2107
1 2108
1 2109
1 2110
1 2111
1 2112
1 2113
1 2114
1 2115
1 2116
1 2117
1 2118
1 2119
1 2120
1 2121
1 2122
1 2123
1 2124
1 2125
1 2126
1 2127
1 2128
1 2129
1 2130
1 2131
1 2132
1 2133
1 2134
1 2135
1 2136
1 2137
1 2138
1 2139
1 2140
1 2141
1 2142
1 2143
1 2144
1 2145
1 2146
1 2147
1 2148
1 2149
1 2150
1 2151
1 2152
1 2153
1 2154
1 2155
1 2156
1 2157
1 2158
1 2159
1 2160
1 2161
1 2162
1 2163
1 2164
1 2165
1 2166
1 2167
1 2168
1 2169
1 2170
1 2171
1 2172
1 2173
1 2174
1 2175
1 2176
1 2177
1 2178
1 2179
1 2180
1 2181
1 2182
1 2183
1 2184
1 2185
1 2186
1 2187
1 2188
1 2189
1 2190
1 2191
1 2192
1 2193
1 2194
1 2195
1 2196
1 2197
1 2198
1 2199
1 2200
1 2201
1 2202
1 2203
1 2204
1 2205
1 2206
1 2207
1 2208
1 2209
1 2210
1 2211
1 2212
1 2213
1 2214
1 2215
1 2216
1 2217
1 2218
1 2219
1 2220
1 2221
1 2222
1 2223
1 2224
1 2225
1 2226
1 2227
1 2228
1 2229
1 2230
1 2231
1 2232
1 2233
1 2234
1 2235
1 2236
1 2237
1 2238
1 2239
1 2240
1 2241
1 2242
1 2243
1 2244
1 2245
1 2246
1 2247
1 2248
1 2249
1 2250
1 2251
1 2252
1 2253
1 2254
1 2255
1 2256
1 2257
1 2258
1 2259
1 2260
1 2261
1 2262
1 2263
1 2264
1 2265
1 2266
1 2267
1 2268
1 2269
1 2270
1 2271
1 2272
1 2273
1 2274
1 2275
1 2276
1 2277
1 2278
1 2279
1 2280
1 2281
1 2282
1 2283
1 2284
1 2285
1 2286
1 2287
1 2288
1 2289
1 2290
1 2291
1 2292
1 2293
1 2294
1 2295
1 2296
1 2297
1 2298
1 2299
1 2300
1 2301
1 2302
1 2303
1 2304
1 2305
1 2306
1 2307
1 2308
1 2309
1 2310
1 2311
1 2312
1 2313
1 2314
1 2315
1 2316
1 2317
1 2318
1 2319
1 2320
1 2321
1 2322
1 2323
1 2324
1 2325
1 2326
1 2327
1 2328
1 2329
1 2330
1 2331
1 2332
1 2333
1 2334
1 2335
1 2336
1 2337
1 2338
1 2339
1 2340
1 2341
1 2342
1 2343
1 2344
1 2345
1 2346
1 2347
1 2348
1 2349
1 2350
1 2351
1 2352
1 2353
1 2354
1 2355
1 2356
1 2357
1 2358
1 2359
1 2360
1 2361
1 2362
1 2363
1 2364
1 2365
1 2366
1 2367
1 2368
1 2369
1 2370
1 2371
1 2372
1 2373
1 2374
1 2375
1 2376
1 2377
1 2378
1 2379
1 2380
1 2381
1 2382
1 2383
1 2384
1 2385
1 2386
1 2387
1 2388
1 2389
1 2390
1 2391
1 2392
1 2393
1 2394
1 2395
1 2396
1 2397
1 2398
1 2399
1 2400
1 2401
1 2402
1 2403
1 2404
1 2405
1 2406
1 2407
1 2408
1 2409
1 2410
1 2411
1 2412
1 2413
1 2414
1 2415
1 2416
1 2417
1 2418
1 2419
1 2420
1 2421
1 2422
1 2423
1 2424
1 2425
1 2426
1 2427
1 2428
1 2429
1 2430
1 2431
1 2432
1 2433
1 2434
1 2435
1 2436
1 2437
1 2438
1 2439
1 2440
1 2441
1 2442
1 2443
1 2444
1 2445
1 2446
1 2447
1 2448
1 2449
1 2450
1 2451
1 2452
1 2453
1 2454
1 2455
1 2456
1 2457
1 2458
1 2459
1 2460
1 2461
1 2462
1 2463
1 2464
1 2465
1 2466
1 2467
1 2468
1 2469
1 2470
1 2471
1 2472
1 2473
1 2474
1 2475
1 2476
1 2477
1 2478
1 2479
1 2480
1 2481
1 2482
1 2483
1 2484
1 2485
1 2486
1 2487
1 2488
1 2489
1 2490
1 2491
1 2492
1 2493
1 2494
1 2495
1 2496
1 2497
1 2498
1 2499
1 2500
1 2501
1 2502
1 2503
1 2504
1 2505
1 2506
1 2507
1 2508
1 2509
1 2510
1 2511
1 2512
1 2513
1 2514
1 2515
1 2516
1 2517
1 2518
1 2519
1 2520
1 2521
1 2522
1 2523
1 2524
1 2525
1 2526
1 2527
1 2528
1 2529
1 2530
1 2531
1 2532
1 2533
1 2534
1 2535
1 2536
1 2537
1 2538
1 2539
1 2540
1 2541
1 2542
1 2543
1 2544
1 2545
1 2546
1 2547
1 2548
1 2549
1 2550
1 2551
1 2552
1 2553
1 2554
1 2555
1 2556
1 2557
1 2558
1 2559
1 2560
1 2561
1 2562
1 2563
1 2564
1 2565
1 2566
1 2567
1 2568
1 2569
1 2570
1 2571
1 2572
1 2573
1 2574
1 2575
1 2576
1 2577
1 2578
1 2579
1 2580
1 2581
1 2582
1 2583
1 2584
1 2585
1 2586
1 2587
1 2588
1 2589
1 2590
1 2591
1 2592
1 2593
1 2594
1 2595
1 2596
1 2597
1 2598
1 2599
1 2600
1 2601
1 2602
1 2603
1 2604
1 2605
1 2606
1 2607
1 2608
1 2609
1 2610
1 2611
1 2612
1 2613
1 2614
1 2615
1 2616
1 2617
1 2618
1 2619
1 2620
1 2621
1 2622
1 2623
1 2624
1 2625
1 2626
1 2627
1 2628
1 2629
1 2630
1 2631
1 2632
1 2633
1 2634
1 2635
1 2636
1 2637
1 2638
1 2639
1 2640
1 2641
1 2642
1 2643
1 2644
1 2645
1 2646
1 2647
1 2648
1 2649
1 2650
1 2651
1 2652
1 2653
1 2654
1 2655
1 2656
1 2657
1 2658
1 2659
1 2660
1 2661
1 2662
1 2663
1 2664
1 2665
1 2666
1 2667
1 2668
1 2669
1 2670
1 2671
1 2672
1 2673
1 2674
1 2675
1 2676
1 2677
1 2678
1 2679
1 2680
1 2681
1 2682
1 2683
1 2684
1 2685
1 2686
1 2687
1 2688
1 2689
1 2690
1 2691
1 2692
1 2693
1 2694
1 2695
1 2696
1 2697
1 2698
1 2699
1 2700
1 2701
1 2702
1 2703
1 2704
1 2705
1 2706
1 2707
1 2708
1 2709
1 2710
1 2711
1 2712
1 2713
1 2714
1 2715
1 2716
1 2717
1 2718
1 2719
1 2720
1 2721
1 2722
1 2723
1 2724
1 2725
1 2726
1 2727
1 2728
1 2729
1 2730
1 2731
1 2732
1 2733
1 2734
1 2735
1 2736
1 2737
1 2738
1 2739
1 2740
1 2741
1 2742
1 2743
1 2744
1 2745
1 2746
1 2747
1 2748
1 2749
1 2750
1 2751
1 2752
1 2753
1 2754
1 2755
1 2756
1 2757
1 2758
1 2759
1 2760
1 2761
1 2762
1 2763
1 2764
1 2765
1 2766
1 2767
1 2768
1 2769
1 2770
1 2771
1 2772
1 2773
1 2774
1 2775
1 2776
1 2777
1 2778
1 2779
1 2780
1 2781
1 2782
1 2783
1 2784
1 2785
1 2786
1 2787
1 2788
1 2789
1 2790
1 2791
1 2792
1 2793
1 2794
1 2795
1 2796
1 2797
1 2798
1 2799
1 2800
1 2801
1 2802
1 2803
1 2804
1 2805
1 2806
1 2807
1 2808
1 2809
1 2810
1 2811
1 2812
1 2813
1 2814
1 2815
1 2816
1 2817
1 2818
1 2819
1 2820
1 2821
1 2822
1 2823
1 2824
1 2825
1 2826
1 2827
1 2828
1 2829
1 2830
1 2831
1 2832
1 2833
1 2834
1 2835
1 2836
1 2837
1 2838
1 2839
1 2840
1 2841
1 2842
1 2843
1 2844
1 2845
1 2846
1 2847
1 2848
1 2849
1 2850
1 2851
1 2852
1 2853
1 2854
1 2855
1 2856
1 2857
1 2858
1 2859
1 2860
1 2861
1 2862
1 2863
1 2864
1 2865
1 2866
1 2867
1 2868
1 2869
1 2870
1 2871
1 2872
1 2873
1 2874
1 2875
1 2876
1 2877
1 2878
1 2879
1 2880
1 2881
1 2882
1 2883
1 2884
1 2885
1 2886
1 2887
1 2888
1 2889
1 2890
1 2891
1 2892
1 2893
1 2894
1 2895
1 2896
1 2897
1 2898
1 2899
1 2900
1 2901
1 2902
1 2903
1 2904
1 2905
1 2906
1 2907
1 2908
1 2909
1 2910
1 2911
1 2912
1 2913
1 2914
1 2915
1 2916
1 2917
1 2918
1 2919
1 2920
1 2921
1 2922
1 2923
1 2924
1 2925
1 2926
1 2927
1 2928
1 2929
1 2930
1 2931
1 2932
1 2933
1 2934
1 2935
1 2936
1 2937
1 2938
1 2939
1 2940
1 2941
1 2942
1 2943
1 2944
1 2945
1 2946
1 2947
1 2948
1 2949
1 2950
1 2951
1 2952
1 2953
1 2954
1 2955
1 2956
1 2957
1 2958
1 2959
1 2960
1 2961
1 2962
1 2963
1 2964
1 2965
1 2966
1 2967
1 2968
1 2969
1 2970
1 2971
1 2972
1 2973
1 2974
1 2975
1 2976
1 2977
1 2978
1 2979
1 2980
1 2981
1 2982
1 2983
1 2984
1 2985
1 2986
1 2987
1 2988
1 2989
1 2990
1 2991
1 2992
1 2993
1 2994
1 2995
1 2996
1 2997
1 2998
1 2999
1 3000
1 3001
1 3002
1 3003
1 3004
1 3005
1 3006
1 3007
1 3008
1 3009
1 3010
1 3011
1 3012
1 3013
1 3014
1 3015
1 3016
1 3017
1 3018
1 3019
1 3020
1 3021
1 3022
1 3023
1 3024
1 3025
1 3026
1 3027
1 3028
1 3029
1 3030
1 3031
1 3032
1 3033
1 3034
1 3035
1 3036
1 3037
1 3038
1 3039
1 3040
1 3041
1 3042
1 3043
1 3044
1 3045
1 3046
1 3047
1 3048
1 3049
1 3050
1 3051
1 3052
1 3053
1 3054
1 3055
1 3056
1 3057
1 3058
1 3059
1 3060
1 3061
1 3062
1 3063
1 3064
1 3065
1 3066
1 3067
1 3068
1 3069
1 3070
1 3071
1 3072
1 3073
1 3074
1 3075
1 3076
1 3077
1 3078
1 3079
1 3080
1 3081
1 3082
1 3083
1 3084
1 3085
1 3086
1 3087
1 3088
1 3089
1 3090
1 3091
1 3092
1 3093
1 3094
1 3095
1 3096
1 3097
1 3098
1 3099
1 3100
1 3101
1 3102
1 3103
1 3104
1 3105
1 3106
1 3107
1 3108
1 3109
1 3110
1 3111
1 3112
1 3113
1 3114
1 3115
1 3116
1 3117
1 3118
1 3119
1 3120
1 3121
1 3122
1 3123
1 3124
1 3125
1 3126
1 3127
1 3128
1 3129
1 3130
1 3131
1 3132
1 3133
1 3134
1 3135
1 3136
1 3137
1 3138
1 3139
1 3140
1 3141
1 3142
1 3143
1 3144
1 3145
1 3146
1 3147
1 3148
1 3149
1 3150
1 3151
1 3152
1 3153
1 3154
1 3155
1 3156
1 3157
1 3158
1 3159
1 3160
1 3161
1 3162
1 3163
1 3164
1 3165
1 3166
1 3167
1 3168
1 3169
1 3170
1 3171
1 3172
1 3173
1 3174
1 3175
1 3176
1 3177
1 3178
1 3179
1 3180
1 3181
1 3182
1 3183
1 3184
1 3185
1 3186
1 3187
1 3188
1 3189
1 3190
1 3191
1 3192
1 3193
1 3194
1 3195
1 3196
1 3197
1 3198
1 3199
1 3200
1 3201
1 3202
1 3203
1 3204
1 3205
1 3206
1 3207
1 3208
1 3209
1 3210
1 3211
1 3212
1 3213
1 3214
1 3215
1 3216
1 3217
1 3218
1 3219
1 3220
1 3221
1 3222
1 3223
1 3224
1 3225
1 3226
1 3227
1 3228
1 3229
1 3230
1 3231
1 3232
1 3233
1 3234
1 3235
1 3236
1 3237
1 3238
1 3239
1 3240
1 3241
1 3242
1 3243
1 3244
1 3245
1 3246
1 3247
1 3248
1 3249
1 3250
1 3251
1 3252
1 3253
1 3254
1 3255
1 3256
1 3257
1 3258
1 3259
1 3260
1 3261
1 3262
1 3263
1 3264
1 3265
1 3266
1 3267
1 3268
1 3269
1 3270
1 3271
1 3272
1 3273
1 3274
1 3275
1 3276
1 3277
1 3278
1 3279
1 3280
1 3281
1 3282
1 3283
1 3284
1 3285
1 3286
1 3287
1 3288
1 3289
1 3290
1 3291
1 3292
1 3293
1 3294
1 3295
1 3296
1 3297
1 3298
1 3299
1 3300
1 3301
1 3302
1 3303
1 3304
1 3305
1 3306
1 3307
1 3308
1 3309
1 3310
1 3311
1 3312
1 3313
1 3314
1 3315
1 3316
1 3317
1 3318
1 3319
1 3320
1 3321
1 3322
1 3323
1 3324
1 3325
1 3326
1 3327
1 3328
1 3329
1 3330
1 3331
1 3332
1 3333
1 3334
1 3335
1 3336
1 3337
1 3338
1 3339
1 3340
1 3341
1 3342
1 3343
1 3344
1 3345
1 3346
1 3347
1 3348
1 3349
1 3350
1 3351
1 3352
1 3353
1 3354
1 3355
1 3356
1 3357
1 3358
1 3359
1 3360
1 3361
1 3362
1 3363
1 3364
1 3365
1 3366
1 3367
1 3368
1 3369
1 3370
1 3371
1 3372
1 3373
1 3374
1 3375
1 3376
1 3377
1 3378
1 3379
1 3380
1 3381
1 3382
1 3383
1 3384
1 3385
1 3386
1 3387
1 3388
1 3389
1 3390
1 3391
1 3392
1 3393
1 3394
1 3395
1 3396
1 3397
1 3398
1 3399
1 3400
1 3401
1 3402
1 3403
1 3404
1 3405
1 3406
1 3407
1 3408
1 3409
1 3410
1 3411
1 3412
1 3413
1 3414
1 3415
1 3416
1 3417
1 3418
1 3419
1 3420
1 3421
1 3422
1 3423
1 3424
1 3425
1 3426
1 3427
1 3428
1 3429
1 3430
1 3431
1 3432
1 3433
1 3434
1 3435
1 3436
1 3437
1 3438
1 3439
1 3440
1 3441
1 3442
1 3443
1 3444
1 3445
1 3446
1 3447
1 3448
1 3449
1 3450
1 3451
1 3452
1 3453
1 3454
1 3455
1 3456
1 3457
1 3458
1 3459
1 3460
1 3461
1 3462
1 3463
1 3464
1 3465
1 3466
1 3467
1 3468
1 3469
1 3470
1 3471
1 3472
1 3473
1 3474
1 3475
1 3476
1 3477
1 3478
1 3479
1 3480
1 3481
1 3482
1 3483
1 3484
1 3485
1 3486
1 3487
1 3488
1 3489
1 3490
1 3491
1 3492
1 3493
1 3494
1 3495
1 3496
1 3497
1 3498
1 3499
1 3500
1 3501
1 3502
1 3503
1 3504
1 3505
1 3506
1 3507
1 3508
1 3509
1 3510
1 3511
1 3512
1 3513
1 3514
1 3515
1 3516
1 3517
1 3518
1 3519
1 3520
1 3521
1 3522
1 3523
1 3524
1 3525
1 3526
1 3527
1 3528
1 3529
1 3530
1 3531
1 3532
1 3533
1 3534
1 3535
1 3536
1 3537
1 3538
1 3539
1 3540
1 3541
1 3542
1 3543
1 3544
1 3545
1 3546
1 3547
1 3548
1 3549
1 3550
1 3551
1 3552
1 3553
1 3554
1 3555
1 3556
1 3557
1 3558
1 3559
1 3560
1 3561
1 3562
1 3563
1 3564
1 3565
1 3566
1 3567
1 3568
1 3569
1 3570
1 3571
1 3572
1 3573
1 3574
1 3575
1 3576
1 3577
1 3578
1 3579
1 3580
1 3581
1 3582
1 3583
1 3584
1 3585
1 3586
1 3587
1 3588
1 3589
1 3590
1 3591
1 3592
1 3593
1 3594
1 3595
1 3596
1 3597
1 3598
1 3599
1 3600
1 3601
1 3602
1 3603
1 3604
1 3605
1 3606
1 3607
1 3608
1 3609
1 3610
1 3611
1 3612
1 3613
1 3614
1 3615
1 3616
1 3617
1 3618
1 3619
1 3620
1 3621
1 3622
1 3623
1 3624
1 3625
1 3626
1 3627
1 3628
1 3629
1 3630
1 3631
1 3632
1 3633
1 3634
1 3635
1 3636
1 3637
1 3638
1 3639
1 3640
1 3641
1 3642
1 3643
1 3644
1 3645
1 3646
1 3647
1 3648
1 3649
1 3650
1 3651
1 3652
1 3653
1 3654
1 3655
1 3656
1 3657
1 3658
1 3659
1 3660
1 3661
1 3662
1 3663
1 3664
1 3665
1 3666
1 3667
1 3668
1 3669
1 3670
1 3671
1 3672
1 3673
1 3674
1 3675
1 3676
1 3677
1 3678
1 3679
1 3680
1 3681
1 3682
1 3683
1 3684
1 3685
1 3686
1 3687
1 3688
1 3689
1 3690
1 3691
1 3692
1 3693
1 3694
1 3695
1 3696
1 3697
1 3698
1 3699
1 3700
1 3701
1 3702
1 3703
1 3704
1 3705
1 3706
1 3707
1 3708
1 3709
1 3710
1 3711
1 3712
1 3713
1 3714
1 3715
1 3716
1 3717
1 3718
1 3719
1 3720
1 3721
1 3722
1 3723
1 3724
1 3725
1 3726
1 3727
1 3728
1 3729
1 3730
1 3731
1 3732
1 3733
1 3734
1 3735
1 3736
1 3737
1 3738
1 3739
1 3740
1 3741
1 3742
1 3743
1 3744
1 3745
1 3746
1 3747
1 3748
1 3749
1 3750
1 3751
1 3752
1 3753
1 3754
1 3755
1 3756
1 3757
1 3758
1 3759
1 3760
1 3761
1 3762
1 3763
1 3764
1 3765
1 3766
1 3767
1 3768
1 3769
1 3770
1 3771
1 3772
1 3773
1 3774
1 3775
1 3776
1 3777
1 3778
1 3779
1 3780
1 3781
1 3782
1 3783
1 3784
1 3785
1 3786
1 3787
1 3788
1 3789
1 3790
1 3791
1 3792
1 3793
1 3794
1 3795
1 3796
1 3797
1 3798
1 3799
1 3800
1 3801
1 3802
1 3803
1 3804
1 3805
1 3806
1 3807
1 3808
1 3809
1 3810
1 3811
1 3812
1 3813
1 3814
1 3815
1 3816
1 3817
1 3818
1 3819
1 3820
1 3821
1 3822
1 3823
1 3824
1 3825
1 3826
1 3827
1 3828
1 3829
1 3830
1 3831
1 3832
1 3833
1 3834
1 3835
1 3836
1 3837
1 3838
1 3839
1 3840
1 3841
1 3842
1 3843
1 3844
1 3845
1 3846
1 3847
1 3848
1 3849
1 3850
1 3851
1 3852
1 3853
1 3854
1 3855
1 3856
1 3857
1 3858
1 3859
1 3860
1 3861
1 3862
1 3863
1 3864
1 3865
1 3866
1 3867
1 3868
1 3869
1 3870
1 3871
1 3872
1 3873
1 3874
1 3875
1 3876
1 3877
1 3878
1 3879
1 3880
1 3881
1 3882
1 3883
1 3884
1 3885
1 3886
1 3887
1 3888
1 3889
1 3890
1 3891
1 3892
1 3893
1 3894
1 3895
1 3896
1 3897
1 3898
1 3899
1 3900
1 3901
1 3902
1 3903
1 3904
1 3905
1 3906
1 3907
1 3908
1 3909
1 3910
1 3911
1 3912
1 3913
1 3914
1 3915
1 3916
1 3917
1 3918
1 3919
1 3920
1 3921
1 3922
1 3923
1 3924
1 3925
1 3926
1 3927
1 3928
1 3929
1 3930
1 3931
1 3932
1 3933
1 3934
1 3935
1 3936
1 3937
1 3938
1 3939
1 3940
1 3941
1 3942
1 3943
1 3944
1 3945
1 3946
1 3947
1 3948
1 3949
1 3950
1 3951
1 3952
1 3953
1 3954
1 3955
1 3956
1 3957
1 3958
1 3959
1 3960
1 3961
1 3962
1 3963
1 3964
1 3965
1 3966
1 3967
1 3968
1 3969
1 3970
1 3971
1 3972
1 3973
1 3974
1 3975
1 3976
1 3977
1 3978
1 3979
1 3980
1 3981
1 3982
1 3983
1 3984
1 3985
1 3986
1 3987
1 3988
1 3989
1 3990
1 3991
1 3992
1 3993
1 3994
1 3995
1 3996
1 3997
1 3998
1 3999
1 4000
1 4001
1 4002
1 4003
1 4004
1 4005
1 4006
1 4007
1 4008
1 4009
1 4010
1 4011
1 4012
1 4013
1 4014
1 4015
1 4016
1 4017
1 4018
1 4019
1 4020
1 4021
1 4022
1 4023
1 4024
1 4025
1 4026
1 4027
1 4028
1 4029
1 4030
1 4031
1 4032
1 4033
1 4034
1 4035
1 4036
1 4037
1 4038
1 4039
1 4040
1 4041
1 4042
1 4043
1 4044
1 4045
1 4046
1 4047
1 4048
1 4049
1 4050
1 4051
1 4052
1 4053
1 4054
1 4055
1 4056
1 4057
1 4058
1 4059
1 4060
1 4061
1 4062
1 4063
1 4064
1 4065
1 4066
1 4067
1 4068
1 4069
1 4070
1 4071
1 4072
1 4073
1 4074
1 4075
1 4076
1 4077
1 4078
1 4079
1 4080
1 4081
1 4082
1 4083
1 4084
1 4085
1 4086
1 4087
1 4088
1 4089
1 4090
1 4091
1 4092
1 4093
1 4094
1 4095
1 4096
1 4097
1 4098
1 4099
1 4100
1 4101
1 4102
1 4103
1 4104
1 4105
1 4106
1 4107
1 4108
1 4109
1 4110
1 4111
1 4112
1 4113
1 4114
1 4115
1 4116
1 4117
1 4118
1 4119
1 4120
1 4121
1 4122
1 4123
1 4124
1 4125
1 4126
1 4127
1 4128
1 4129
1 4130
1 4131
1 4132
1 4133
1 4134
1 4135
1 4136
1 4137
1 4138
1 4139
1 4140
1 4141
1 4142
1 4143
1 4144
1 4145
1 4146
1 4147
1 4148
1 4149
1 4150
1 4151
1 4152
1 4153
1 4154
1 4155
1 4156
1 4157
1 4158
1 4159
1 4160
1 4161
1 4162
1 4163
1 4164
1 4165
1 4166
1 4167
1 4168
1 4169
1 4170
1 4171
1 4172
1 4173
1 4174
1 4175
1 4176
1 4177
1 4178
1 4179
1 4180
1 4181
1 4182
1 4183
1 4184
1 4185
1 4186
1 4187
1 4188
1 4189
1 4190
1 4191
1 4192
1 4193
1 4194
1 4195
1 4196
1 4197
1 4198
1 4199
1 4200
1 4201
1 4202
1 4203
1 4204
1 4205
1 4206
1 4207
1 4208
1 4209
1 4210
1 4211
1 4212
1 4213
1 4214
1 4215
1 4216
1 4217
1 4218
1 4219
1 4220
1 4221
1 4222
1 4223
1 4224
1 4225
1 4226
1 4227
1 4228
1 4229
1 4230
1 4231
1 4232
1 4233
1 4234
1 4235
1 4236
1 4237
1 4238
1 4239
1 4240
1 4241
1 4242
1 4243
1 4244
1 4245
1 4246
1 4247
1 4248
1 4249
1 4250
1 4251
1 4252
1 4253
1 4254
1 4255
1 4256
1 4257
1 4258
1 4259
1 4260
1 4261
1 4262
1 4263
1 4264
1 4265
1 4266
1 4267
1 4268
1 4269
1 4270
1 4271
1 4272
1 4273
1 4274
1 4275
1 4276
1 4277
1 4278
1 4279
1 4280
1 4281
1 4282
1 4283
1 4284
1 4285
1 4286
1 4287
1 4288
1 4289
1 4290
1 4291
1 4292
1 4293
1 4294
1 4295
1 4296
1 4297
1 4298
1 4299
1 4300
1 4301
1 4302
1 4303
1 4304
1 4305
1 4306
1 4307
1 4308
1 4309
1 4310
1 4311
1 4312
1 4313
1 4314
1 4315
1 4316
1 4317
1 4318
1 4319
1 4320
1 4321
1 4322
1 4323
1 4324
1 4325
1 4326
1 4327
1 4328
1 4329
1 4330
1 4331
1 4332
1 4333
1 4334
1 4335
1 4336
1 4337
1 4338
1 4339
1 4340
1 4341
1 4342
1 4343
1 4344
1 4345
1 4346
1 4347
1 4348
1 4349
1 4350
1 4351
1 4352
1 4353
1 4354
1 4355
1 4356
1 4357
1 4358
1 4359
1 4360
1 4361
1 4362
1 4363
1 4364
1 4365
1 4366
1 4367
1 4368
1 4369
1 4370
1 4371
1 4372
1 4373
1 4374
1 4375
1 4376
1 4377
1 4378
1 4379
1 4380
1 4381
1 4382
1 4383
1 4384
1 4385
1 4386
1 4387
1 4388
1 4389
1 4390
1 4391
1 4392
1 4393
1 4394
1 4395
1 4396
1 4397
1 4398
1 4399
1 4400
1 4401
1 4402
1 4403
1 4404
1 4405
1 4406
1 4407
1 4408
1 4409
1 4410
1 4411
1 4412
1 4413
1 4414
1 4415
1 4416
1 4417
1 4418
1 4419
1 4420
1 4421
1 4422
1 4423
1 4424
1 4425
1 4426
1 4427
1 4428
1 4429
1 4430
1 4431
1 4432
1 4433
1 4434
1 4435
1 4436
1 4437
1 4438
1 4439
1 4440
1 4441
1 4442
1 4443
1 4444
1 4445
1 4446
1 4447
1 4448
1 4449
1 4450
1 4451
1 4452
1 4453
1 4454
1 4455
1 4456
1 4457
1 4458
1 4459
1 4460
1 4461
1 4462
1 4463
1 4464
1 4465
1 4466
1 4467
1 4468
1 4469
1 4470
1 4471
1 4472
1 4473
1 4474
1 4475
1 4476
1 4477
1 4478
1 4479
1 4480
1 4481
1 4482
1 4483
1 4484
1 4485
1 4486
1 4487
1 4488
1 4489
1 4490
1 4491
1 4492
1 4493
1 4494
1 4495
1 4496
1 4497
1 4498
1 4499
1 4500
1 4501
1 4502
1 4503
1 4504
1 4505
1 4506
1 4507
1 4508
1 4509
1 4510
1 4511
1 4512
1 4513
1 4514
1 4515
1 4516
1 4517
1 4518
1 4519
1 4520
1 4521
1 4522
1 4523
1 4524
1 4525
1 4526
1 4527
1 4528
1 4529
1 4530
1 4531
1 4532
1 4533
1 4534
1 4535
1 4536
1 4537
1 4538
1 4539
1 4540
1 4541
1 4542
1 4543
1 4544
1 4545
1 4546
1 4547
1 4548
1 4549
1 4550
1 4551
1 4552
1 4553
1 4554
1 4555
1 4556
1 4557
1 4558
1 4559
1 4560
1 4561
1 4562
1 4563
1 4564
1 4565
1 4566
1 4567
1 4568
1 4569
1 4570
1 4571
1 4572
1 4573
1 4574
1 4575
1 4576
1 4577
1 4578
1 4579
1 4580
1 4581
1 4582
1 4583
1 4584
1 4585
1 4586
1 4587
1 4588
1 4589
1 4590
1 4591
1 4592
1 4593
1 4594
1 4595
1 4596
1 4597
1 4598
1 4599
1 4600
1 4601
1 4602
1 4603
1 4604
1 4605
1 4606
1 4607
1 4608
1 4609
1 4610
1 4611
1 4612
1 4613
1 4614
1 4615
1 4616
1 4617
1 4618
1 4619
1 4620
1 4621
1 4622
1 4623
1 4624
1 4625
1 4626
1 4627
1 4628
1 4629
1 4630
1 4631
1 4632
1 4633
1 4634
1 4635
1 4636
1 4637
1 4638
1 4639
1 4640
1 4641
1 4642
1 4643
1 4644
1 4645
1 4646
1 4647
1 4648
1 4649
1 4650
1 4651
1 4652
1 4653
1 4654
1 4655
1 4656
1 4657
1 4658
1 4659
1 4660
1 4661
1 4662
1 4663
1 4664
1 4665
1 4666
1 4667
1 4668
1 4669
1 4670
1 4671
1 4672
1 4673
1 4674
1 4675
1 4676
1 4677
1 4678
1 4679
1 4680
1 4681
1 4682
1 4683
1 4684
1 4685
1 4686
1 4687
1 4688
1 4689
1 4690
1 4691
1 4692
1 4693
1 4694
1 4695
1 4696
1 4697
1 4698
1 4699
1 4700
1 4701
1 4702
1 4703
1 4704
1 4705
1 4706
1 4707
1 4708
1 4709
1 4710
1 4711
1 4712
1 4713
1 4714
1 4715
1 4716
1 4717
1 4718
1 4719
1 4720
1 4721
1 4722
1 4723
1 4724
1 4725
1 4726
1 4727
1 4728
1 4729
1 4730
1 4731
1 4732
1 4733
1 4734
1 4735
1 4736
1 4737
1 4738
1 4739
1 4740
1 4741
1 4742
1 4743
1 4744
1 4745
1 4746
1 4747
1 4748
1 4749
1 4750
1 4751
1 4752
1 4753
1 4754
1 4755
1 4756
1 4757
1 4758
1 4759
1 4760
1 4761
1 4762
1 4763
1 4764
1 4765
1 4766
1 4767
1 4768
1 4769
1 4770
1 4771
1 4772
1 4773
1 4774
1 4775
1 4776
1 4777
1 4778
1 4779
1 4780
1 4781
1 4782
1 4783
1 4784
1 4785
1 4786
1 4787
1 4788
1 4789
1 4790
1 4791
1 4792
1 4793
1 4794
1 4795
1 4796
1 4797
1 4798
1 4799
1 4800
1 4801
1 4802
1 4803
1 4804
1 4805
1 4806
1 4807
1 4808
1 4809
1 4810
1 4811
1 4812
1 4813
1 4814
1 4815
1 4816
1 4817
1 4818
1 4819
1 4820
1 4821
1 4822
1 4823
1 4824
1 4825
1 4826
1 4827
1 4828
1 4829
1 4830
1 4831
1 4832
1 4833
1 4834
1 4835
1 4836
1 4837
1 4838
1 4839
1 4840
1 4841
1 4842
1 4843
1 4844
1 4845
1 4846
1 4847
1 4848
1 4849
1 4850
1 4851
1 4852
1 4853
1 4854
1 4855
1 4856
1 4857
1 4858
1 4859
1 4860
1 4861
1 4862
1 4863
1 4864
1 4865
1 4866
1 4867
1 4868
1 4869
1 4870
1 4871
1 4872
1 4873
1 4874
1 4875
1 4876
1 4877
1 4878
1 4879
1 4880
1 4881
1 4882
1 4883
1 4884
1 4885
1 4886
1 4887
1 4888
1 4889
1 4890
1 4891
1 4892
1 4893
1 4894
1 4895
1 4896
1 4897
1 4898
1 4899
1 4900
1 4901
1 4902
1 4903
1 4904
1 4905
1 4906
1 4907
1 4908
1 4909
1 4910
1 4911
1 4912
1 4913
1 4914
1 4915
1 4916
1 4917
1 4918
1 4919
1 4920
1 4921
1 4922
1 4923
1 4924
1 4925
1 4926
1 4927
1 4928
1 4929
1 4930
1 4931
1 4932
1 4933
1 4934
1 4935
1 4936
1 4937
1 4938
1 4939
1 4940
1 4941
1 4942
1 4943
1 4944
1 4945
1 4946
1 4947
1 4948
1 4949
1 4950
1 4951
1 4952
1 4953
1 4954
1 4955
1 4956
1 4957
1 4958
1 4959
1 4960
1 4961
1 4962
1 4963
1 4964
1 4965
1 4966
1 4967
1 4968
1 4969
1 4970
1 4971
1 4972
1 4973
1 4974
1 4975
1 4976
1 4977
1 4978
1 4979
1 4980
1 4981
1 4982
1 4983
1 4984
1 4985
1 4986
1 4987
1 4988
1 4989
1 4990
1 4991
1 4992
1 4993
1 4994
1 4995
1 4996
1 4997
1 4998
1 4999
CELL_TYPES 5000
1 
1 
1 
1 
1 
1 
1 
1 
1 
1 
1 
1 
1 
1 
1 
1 
1 
1 
1 
1 
1 
1 
1 
1 
1 
1 
1 
1 
1 
1 
1 
1 
1 
1 
1 
1 
1 
1 
1 
1 
1 
1 
1 
1 
1 
1 
1 
1 
1 
1 
1 
1 
1 
1 
1 
1 
1 
1 
1 
1 
1 
1 
1 
1 
1 
1 
1 
1 
1 
1 
1 
1 
1 
1 
1 
1 
1 
1 
1 
1 
1 
1 
1 
1 
1 
1 
1 
1 
1 
1 
1 
1 
1 
1 
1 
1 
1 
1 
1 
1 
1 
1 
1 
1 
1 
1 
1 
1 
1 
1 
1 
1 
1 
1 
1 
1 
1 
1 
1 
1 
1 
1 
1 
1 
1 
1 
1 
1 
1 
1 
1 
1 
1 
1 
1 
1 
1 
1 
1 
1 
1 
1 
1 
1 
1 
1 
1 
1 
1 
1 
1 
1 
1 
1 
1 
1 
1 
1 
1 
1 
1 
1 
1 
1 
1 
1 
1 
1 
1 
1 
1 
1 
1 
1 
1 
1 
1 
1 
1 
1 
1 
1 
1 
1 
1 
1 
1 
1 
1 
1 
1 
1 
1 
1 
1 
1 
1 
1 
1 
1 
1 
1 
1 
1 
1 
1 
1 
1 
1 
1 
1 
1 
1 
1 
1 
1 
1 
1 
1 
1 
1 
1 
1 
1 
1 
1 
1 
1 
1 
1 
1 
1 
1 
1 
1 
1 
1 
1 
1 
1 
1 
1 
1 
1 
1 
1 
1 
1 
1 
1 
1 
1 
1 
1 
1 
1 
1 
1 
1 
1 
1 
1 
1 
1 
1 
1 
1 
1 
1 
1 
1 
1 
1 
1 
1 
1 
1 
1 
1 
1 
1 
1 
1 
1 
1 
1 
1 
1 
1 
1 
1 
1 
1 
1 
1 
1 
1 
1 
1 
1 
1 
1 
1 
1 
1 
1 
1 
1 
1 
1 
1 
1 
1 
1 
1 
1 
1 
1 
1 
1 
1 
1 
1 
1 
1 
1 
1 
1 
1 
1 
1 
1 
1 
1 
1 
1 
1 
1 
1 
1 
1 
1 
1 
1 
1 
1 
1 
1 
1 
1 
1 
1 
1 
1 
1 
1 
1 
1 
1 
1 
1 
1 
1 
1 
1 
1 
1 
1 
1 
1 
1 
1 
1 
1 
1 
1 
1 
1 
1 
1 
1 
1 
1 
1 
1 
1 
1 
1 
1 
1 
1 
1 
1 
1 
1 
1 
1 
1 
1 
1 
1 
1 
1 
1 
1 
1 
1 
1 
1 
1 
1 
1 
1 
1 
1 
1 
1 
1 
1 
1 
1 
1 
1 
1 
1 
1 
1 
1 
1 
1 
1 
1 
1 
1 
1 
1 
1 
1 
1 
1 
1 
1 
1 
1 
1 
1 
1 
1 
1 
1 
1 
1 
1 
1 
1 
1 
1 
1 
1 
1 
1 
1 
1 
1 
1 
1 
1 
1 
1 
1 
1 
1 
1 
1 
1 
1 
1 
1 
1 
1 
1 
1 
1 
1 
1 
1 
1 
1 
1 
1 
1 
1 
1 
1 
1 
1 
1 
1 
1 
1 
1 
1 
1 
1 
1 
1 
1 
1 
1 
1 
1 
1 
1 
1 
1 
1 
1 
1 
1 
1 
1 
1 
1 
1 
1 
1 
1 
1 
1 
1 
1 
1 
1 
1 
1 
1 
1 
1 
1 
1 
1 
1 
1 
1 
1 
1 
1 
1 
1 
1 
1 
1 
1 
1 
1 
1 
1 
1 
1 
1 
1 
1 
1 
1 
1 
1 
1 
1 
1 
1 
1 
1 
1 
1 
1 
1 
1 
1 
1 
1 
1 
1 
1 
1 
1 
1 
1 
1 
1 
1 
1 
1 
1 
1 
1 
1 
1 
1 
1 
1 
1 
1 
1 
1 
1 
1 
1 
1 
1 
1 
1 
1 
1 
1 
1 
1 
1 
1 
1 
1 
1 
1 
1 
1 
1 
1 
1 
1 
1 
1 
1 
1 
1 
1 
1 
1 
1 
1 
1 
1 
1 
1 
1 
1 
1 
1 
1 
1 
1 
1 
1 
1 
1 
1 
1 
1 
1 
1 
1 
1 
1 
1 
1 
1 
1 
1 
1 
1 
1 
1 
1 
1 
1 
1 
1 
1 
1 
1 
1 
1 
1 
1 
1 
1 
1 
1 
1 
1 
1 
1 
1 
1 
1 
1 
1 
1 
1 
1 
1 
1 
1 
1 
1 
1 
1 
1 
1 
1 
1 
1 
1 
1 
1 
1 
1 
1 
1 
1 
1 
1 
1 
1 
1 
1 
1 
1 
1 
1 
1 
1 
1 
1 
1 
1 
1 
1 
1 
1 
1 
1 
1 
1 
1 
1 
1 
1 
1 
1 
1 
1 
1 
1 
1 
1 
1 
1 
1 
1 
1 
1 
1 
1 
1 
1 
1 
1 
1 
1 
1 
1 
1 
1 
1 
1 
1 
1 
1 
1 
1 
1 
1 
1 
1 
1 
1 
1 
1 
1 
1 
1 
1 
1 
1 
1 
1 
1 
1 
1 
1 
1 
1 
1 
1 
1 
1 
1 
1 
1 
1 
1 
1 
1 
1 
1 
1 
1 
1 
1 
1 
1 
1 
1 
1 
1 
1 
1 
1 
1 
1 
1 
1 
1 
1 
1 
1 
1 
1 
1 
1 
1 
1 
1 
1 
1 
1 
1 
1 
1 
1 
1 
1 
1 
1 
1 
1 
1 
1 
1 
1 
1 
1 
1 
1 
1 
1 
1 
1 
1 
1 
1 
1 
1 
1 
1 
1 
1 
1 
1 
1 
1 
1 
1 
1 
1 
1 
1 
1 
1 
1 
1 
1 
1 
1 
1 
1 
1 
1 
1 
1 
1 
1 
1 
1 
1 
1 
1 
1 
1 
1 
1 
1 
1 
1 
1 
1 
1 
1 
1 
1 
1 
1 
1 
1 
1 
1 
1 
1 
1 
1 
1 
1 
1 
1 
1 
1 
1 
1 
1 
1 
1 
1 
1 
1 
1 
1 
1 
1 
1 
1 
1 
1 
1 
1 
1 
1 
1 
1 
1 
1 
1 
1 
1 
1 
1 
1 
1 
1 
1 
1 
1 
1 
1 
1 
1 
1 
1 
1 
1 
1 
1 
1 
1 
1 
1 
1 
1 
1 
1 
1 
1 
1 
1 
1 
1 
1 
1 
1 
1 
1 
1 
1 
1 
1 
1 
1 
1 
1 
1 
1 
1 
1 
1 
1 
1 
1 
1 
1 
1 
1 
1 
1 
1 
1 
1 
1 
1 
1 
1 
1 
1 
1 
1 
1 
1 
1 
1 
1 
1 
1 
1 
1 
1 
1 
1 
1 
1 
1 
1 
1 
1 
1 
1 
1 
1 
1 
1 
1 
1 
1 
1 
1 
1 
1 
1 
1 
1 
1 
1 
1 
1 
1 
1 
1 
1 
1 
1 
1 
1 
1 
1 
1 
1 
1 
1 
1 
1 
1 
1 
1 
1 
1 
1 
1 
1 
1 
1 
1 
1 
1 
1 
1 
1 
1 
1 
1 
1 
1 
1 
1 
1 
1 
1 
1 
1 
1 
1 
1 
1 
1 
1 
1 
1 
1 
1 
1 
1 
1 
1 
1 
1 
1 
1 
1 
1 
1 
1 
1 
1 
1 
1 
1 
1 
1 
1 
1 
1 
1 
1 
1 
1 
1 
1 
1 
1 
1 
1 
1 
1 
1 
1 
1 
1 
1 
1 
1 
1 
1 
1 
1 
1 
1 
1 
1 
1 
1 
1 
1 
1 
1 
1 
1 
1 
1 
1 
1 
1 
1 
1 
1 
1 
1 
1 
1 
1 
1 
1 
1 
1 
1 
1 
1 
1 
1 
1 
1 
1 
1 
1 
1 
1 
1 
1 
1 
1 
1 
1 
1 
1 
1 
1 
1 
1 
1 
1 
1 
1 
1 
1 
1 
1 
1 
1 
1 
1 
1 
1 
1 
1 
1 
1 
1 
1 
1 
1 
1 
1 
1 
1 
1 
1 
1 
1 
1 
1 
1 
1 
1 
1 
1 
1 
1 
1 
1 
1 
1 
1 
1 
1 
1 
1 
1 
1 
1 
1 
1 
1 
1 
1 
1 
1 
1 
1 
1 
1 
1 
1 
1 
1 
1 
1 
1 
1 
1 
1 
1 
1 
1 
1 
1 
1 
1 
1 
1 
1 
1 
1 
1 
1 
1 
1 
1 
1 
1 
1 
1 
1 
1 
1 
1 
1 
1 
1 
1 
1 
1 
1 
1 
1 
1 
1 
1 
1 
1 
1 
1 
1 
1 
1 
1 
1 
1 
1 
1 
1 
1 
1 
1 
1 
1 
1 
1 
1 
1 
1 
1 
1 
1 
1 
1 
1 
1 
1 
1 
1 
1 
1 
1 
1 
1 
1 
1 
1 
1 
1 
1 
1 
1 
1 
1 
1 
1 
1 
1 
1 
1 
1 
1 
1 
1 
1 
1 
1 
1 
1 
1 
1 
1 
1 
1 
1 
1 
1 
1 
1 
1 
1 
1 
1 
1 
1 
1 
1 
1 
1 
1 
1 
1 
1 
1 
1 
1 
1 
1 
1 
1 
1 
1 
1 
1 
1 
1 
1 
1 
1 
1 
1 
1 
1 
1 
1 
1 
1 
1 
1 
1 
1 
1 
1 
1 
1 
1 
1 
1 
1 
1 
1 
1 
1 
1 
1 
1 
1 
1 
1 
1 
1 
1 
1 
1 
1 
1 
1 
1 
1 
1 
1 
1 
1 
1 
1 
1 
1 
1 
1 
1 
1 
1 
1 
1 
1 
1 
1 
1 
1 
1 
1 
1 
1 
1 
1 
1 
1 
1 
1 
1 
1 
1 
1 
1 
1 
1 
1 
1 
1 
1 
1 
1 
1 
1 
1 
1 
1 
1 
1 
1 
1 
1 
1 
1 
1 
1 
1 
1 
1 
1 
1 
1 
1 
1 
1 
1 
1 
1 
1 
1 
1 
1 
1 
1 
1 
1 
1 
1 
1 
1 
1 
1 
1 
1 
1 
1 
1 
1 
1 
1 
1 
1 
1 
1 
1 
1 
1 
1 
1 
1 
1 
1 
1 
1 
1 
1 
1 
1 
1 
1 
1 
1 
1 
1 
1 
1 
1 
1 
1 
1 
1 
1 
1 
1 
1 
1 
1 
1 
1 
1 
1 
1 
1 
1 
1 
1 
1 
1 
1 
1 
1 
1 
1 
1 
1 
1 
1 
1 
1 
1 
1 
1 
1 
1 
1 
1 
1 
1 
1 
1 
1 
1 
1 
1 
1 
1 
1 
1 
1 
1 
1 
1 
1 
1 
1 
1 
1 
1 
1 
1 
1 
1 
1 
1 
1 
1 
1 
1 
1 
1 
1 
1 
1 
1 
1 
1 
1 
1 
1 
1 
1 
1 
1 
1 
1 
1 
1 
1 
1 
1 
1 
1 
1 
1 
1 
1 
1 
1 
1 
1 
1 
1 
1 
1 
1 
1 
1 
1 
1 
1 
1 
1 
1 
1 
1 
1 
1 
1 
1 
1 
1 
1 
1 
1 
1 
1 
1 
1 
1 
1 
1 
1 
1 
1 
1 
1 
1 
1 
1 
1 
1 
1 
1 
1 
1 
1 
1 
1 
1 
1 
1 
1 
1 
1 
1 
1 
1 
1 
1 
1 
1 
1 
1 
1 
1 
1 
1 
1 
1 
1 
1 
1 
1 
1 
1 
1 
1 
1 
1 
1 
1 
1 
1 
1 
1 
1 
1 
1 
1 
1 
1 
1 
1 
1 
1 
1 
1 
1 
1 
1 
1 
1 
1 
1 
1 
1 
1 
1 
1 
1 
1 
1 
1 
1 
1 
1 
1 
1 
1 
1 
1 
1 
1 
1 
1 
1 
1 
1 
1 
1 
1 
1 
1 
1 
1 
1 
1 
1 
1 
1 
1 
1 
1 
1 
1 
1 
1 
1 
1 
1 
1 
1 
1 
1 
1 
1 
1 
1 
1 
1 
1 
1 
1 
1 
1 
1 
1 
1 
1 
1 
1 
1 
1 
1 
1 
1 
1 
1 
1 
1 
1 
1 
1 
1 
1 
1 
1 
1 
1 
1 
1 
1 
1 
1 
1 
1 
1 
1 
1 
1 
1 
1 
1 
1 
1 
1 
1 
1 
1 
1 
1 
1 
1 
1 
1 
1 
1 
1 
1 
1 
1 
1 
1 
1 
1 
1 
1 
1 
1 
1 
1 
1 
1 
1 
1 
1 
1 
1 
1 
1 
1 
1 
1 
1 
1 
1 
1 
1 
1 
1 
1 
1 
1 
1 
1 
1 
1 
1 
1 
1 
1 
1 
1 
1 
1 
1 
1 
1 
1 
1 
1 
1 
1 
1 
1 
1 
1 
1 
1 
1 
1 
1 
1 
1 
1 
1 
1 
1 
1 
1 
1 
1 
1 
1 
1 
1 
1 
1 
1 
1 
1 
1 
1 
1 
1 
1 
1 
1 
1 
1 
1 
1 
1 
1 
1 
1 
1 
1 
1 
1 
1 
1 
1 
1 
1 
1 
1 
1 
1 
1 
1 
1 
1 
1 
1 
1 
1 
1 
1 
1 
1 
1 
1 
1 
1 
1 
1 
1 
1 
1 
1 
1 
1 
1 
1 
1 
1 
1 
1 
1 
1 
1 
1 
1 
1 
1 
1 
1 
1 
1 
1 
1 
1 
1 
1 
1 
1 
1 
1 
1 
1 
1 
1 
1 
1 
1 
1 
1 
1 
1 
1 
1 
1 
1 
1 
1 
1 
1 
1 
1 
1 
1 
1 
1 
1 
1 
1 
1 
1 
1 
1 
1 
1 
1 
1 
1 
1 
1 
1 
1 
1 
1 
1 
1 
1 
1 
1 
1 
1 
1 
1 
1 
1 
1 
1 
1 
1 
1 
1 
1 
1 
1 
1 
1 
1 
1 
1 
1 
1 
1 
1 
1 
1 
1 
1 
1 
1 
1 
1 
1 
1 
1 
1 
1 
1 
1 
1 
1 
1 
1 
1 
1 
1 
1 
1 
1 
1 
1 
1 
1 
1 
1 
1 
1 
1 
1 
1 
1 
1 
1 
1 
1 
1 
1 
1 
1 
1 
1 
1 
1 
1 
1 
1 
1 
1 
1 
1 
1 
1 
1 
1 
1 
1 
1 
1 
1 
1 
1 
1 
1 
1 
1 
1 
1 
1 
1 
1 
1 
1 
1 
1 
1 
1 
1 
1 
1 
1 
1 
1 
1 
1 
1 
1 
1 
1 
1 
1 
1 
1 
1 
1 
1 
1 
1 
1 
1 
1 
1 
1 
1 
1 
1 
1 
1 
1 
1 
1 
1 
1 
1 
1 
1 
1 
1 
1 
1 
1 
1 
1 
1 
1 
1 
1 
1 
1 
1 
1 
1 
1 
1 
1 
1 
1 
1 
1 
1 
1 
1 
1 
1 
1 
1 
1 
1 
1 
1 
1 
1 
1 
1 
1 
1 
1 
1 
1 
1 
1 
1 
1 
1 
1 
1 
1 
1 
1 
1 
1 
1 
1 
1 
1 
1 
1 
1 
1 
1 
1 
1 
1 
1 
1 
1 
1 
1 
1 
1 
1 
1 
1 
1 
1 
1 
1 
1 
1 
1 
1 
1 
1 
1 
1 
1 
1 
1 
1 
1 
1 
1 
1 
1 
1 
1 
1 
1 
1 
1 
1 
1 
1 
1 
1 
1 
1 
1 
1 
1 
1 
1 
1 
1 
1 
1 
1 
1 
1 
1 
1 
1 
1 
1 
1 
1 
1 
1 
1 
1 
1 
1 
1 
1 
1 
1 
1 
1 
1 
1 
1 
1 
1 
1 
1 
1 
1 
1 
1 
1 
1 
1 
1 
1 
1 
1 
1 
1 
1 
1 
1 
1 
1 
1 
1 
1 
1 
1 
1 
1 
1 
1 
1 
1 
1 
1 
1 
1 
1 
1 
1 
1 
1 
1 
1 
1 
1 
1 
1 
1 
1 
1 
1 
1 
1 
1 
1 
1 
1 
1 
1 
1 
1 
1 
1 
1 
1 
1 
1 
1 
1 
1 
1 
1 
1 
1 
1 
1 
1 
1 
1 
1 
1 
1 
1 
1 
1 
1 
1 
1 
1 
1 
1 
1 
1 
1 
1 
1 
1 
1 
1 
1 
1 
1 
1 
1 
1 
1 
1 
1 
1 
1 
1 
1 
1 
1 
1 
1 
1 
1 
1 
1 
1 
1 
1 
1 
1 
1 
1 
1 
1 
1 
1 
1 
1 
1 
1 
1 
1 
1 
1 
1 
1 
1 
1 
1 
1 
1 
1 
1 
1 
1 
1 
1 
1 
1 
1 
1 
1 
1 
1 
1 
1 
1 
1 
1 
1 
1 
1 
1 
1 
1 
1 
1 
1 
1 
1 
1 
1 
1 
1 
1 
1 
1 
1 
1 
1 
1 
1 
1 
1 
1 
1 
1 
1 
1 
1 
1 
1 
1 
1 
1 
1 
1 
1 
1 
1 
1 
1 
1 
1 
1 
1 
1 
1 
1 
1 
1 
1 
1 
1 
1 
1 
1 
1 
1 
1 
1 
1 
1 
1 
1 
1 
1 
1 
1 
1 
1 
1 
1 
1 
1 
1 
1 
1 
1 
1 
1 
1 
1 
1 
1 
1 
1 
1 
1 
1 
1 
1 
1 
1 
1 
1 
1 
1 
1 
1 
1 
1 
1 
1 
1 
1 
1 
1 
1 
1 
1 
1 
1 
1 
1 
1 
1 
1 
1 
1 
1 
1 
1 
1 
1 
1 
1 
1 
1 
1 
1 
1 
1 
1 
1 
1 
1 
1 
1 
1 
1 
1 
1 
1 
1 
1 
1 
1 
1 
1 
1 
1 
1 
1 
1 
1 
1 
1 
1 
1 
1 
1 
1 
1 
1 
1 
1 
1 
1 
1 
1 
1 
1 
1 
1 
1 
1 
1 
1 
1 
1 
1 
1 
1 
1 
1 
1 
1 
1 
1 
1 
1 
1 
1 
1 
1 
1 
1 
1 
1 
1 
1 
1 
1 
1 
1 
1 
1 
1 
1 
1 
1 
1 
1 
1 
1 
1 
1 
1 
1 
1 
1 
1 
1 
1 
1 
1 
1 
1 
1 
1 
1 
1 
1 
1 
1 
1 
1 
1 
1 
1 
1 
1 
1 
1 
1 
1 
1 
1 
1 
1 
1 
1 
1 
1 
1 
1 
1 
1 
1 
1 
1 
1 
1 
1 
1 
1 
1 
1 
1 
1 
1 
1 
1 
1 
1 
1 
1 
1 
1 
1 
1 
1 
1 
1 
1 
1 
1 
1 
1 
1 
1 
1 
1 
1 
1 
1 
1 
1 
1 
1 
1 
1 
1 
1 
1 
1 
1 
1 
1 
1 
1 
1 
1 
1 
1 
1 
1 
1 
1 
1 
1 
1 
1 
1 
1 
1 
1 
1 
1 
1 
1 
1 
1 
1 
1 
1 
1 
1 
1 
1 
1 
1 
1 
1 
1 
1 
1 
1 
1 
1 
1 
1 
1 
1 
1 
1 
1 
1 
1 
1 
1 
1 
1 
1 
1 
1 
1 
1 
1 
1 
1 
1 
1 
1 
1 
1 
1 
1 
1 
1 
1 
1 
1 
1 
1 
1 
1 
1 
1 
1 
1 
1 
1 
1 
1 
1 
1 
1 
1 
1 
1 
1 
1 
1 
1 
1 
1 
1 
1 
1 
1 
1 
1 
1 
1 
1 
1 
1 
1 
1 
1 
1 
1 
1 
1 
1 
1 
1 
1 
1 
1 
1 
1 
1 
1 
1 
1 
1 
1 
1 
1 
1 
1 
1 
1 
1 
1 
1 
1 
1 
1 
1 
1 
1 
1 
1 
1 
1 
1 
1 
1 
1 
1 
1 
1 
1 
1 
1 
1 
1 
1 
1 
1 
1 
1 
1 
1 
1 
1 
1 
1 
1 
1 
1 
1 
1 
1 
1 
1 
1 
1 
1 
1 
1 
1 
1 
1 
1 
1 
1 
1 
1 
1 
1 
1 
1 
1 
1 
1 
1 
1 
1 
1 
1 
1 
1 
1 
1 
1 
1 
1 
1 
1 
1 
1 
1 
1 
1 
1 
1 
1 
1 
1 
1 
1 
1 
1 
1 
1 
1 
1 
1 
1 
1 
1 
1 
1 
1 
1 
1 
1 
1 
1 
1 
1 
1 
1 
1 
1 
1 
1 
1 
1 
1 
1 
1 
1 
1 
1 
1 
1 
1 
1 
1 
1 
1 
1 
1 
1 
1 
1 
1 
1 
1 
1 
1 
1 
1 
1 
1 
1 
1 
1 
1 
1 
1 
1 
1 
1 
1 
1 
1 
1 
1 
1 
1 
1 
1 
1 
1 
1 
1 
1 
1 
1 
1 
1 
1 
1 
1 
1 
1 
1 
1 
1 
1 
1 
1 
1 
1 
1 
1 
1 
1 
1 
1 
1 
1 
1 
1 
1 
1 
1 
1 
1 
1 
1 
1 
1 
1 
1 
1 
1 
1 
1 
1 
1 
1 
1 
1 
1 
1 
1 
1 
1 
1 
1 
1 
1 
1 
1 
1 
1 
1 
1 
1 
1 
1 
1 
1 
1 
1 
1 
1 
1 
1 
1 
1 
1 
1 
1 
1 
1 
1 
1 
1 
1 
1 
1 
1 
1 
1 
1 
1 
1 
1 
1 
1 
1 
1 
1 
1 
1 
1 
1 
1 
1 
1 
1 
1 
1 
1 
1 
1 
1 
1 
1 
1 
1 
1 
1 
1 
1 
1 
1 
1 
1 
1 
1 
1 
1 
1 
1 
1 
1 
1 
1 
1 
1 
1 
1 
1 
1 
1 
1 
1 
1 
1 
1 
1 
1 
1 
1 
1 
1 
1 
1 
1 
1 
1 
1 
1 
1 
1 
1 
1 
1 
1 
1 
1 
1 
1 
1 
1 
1 
1 
1 
1 
1 
1 
1 
1 
1 
1 
1 
1 
1 
1 
1 
1 
1 
1 
1 
1 
1 
1 
1 
1 
1 
1 
1 
1 
1 
1 
1 
1 
1 
1 
1 
1 
1 
1 
1 
1 
1 
1 
1 
1 
1 
1 
1 
1 
1 
1 
1 
1 
1 
1 
1 
1 
1 
1 
1 
1 
1 
1 
1 
1 
1 
1 
1 
1 
1 
1 
1 
1 
1 
1 
1 
1 
1 
1 
1 
1 
1 
1 
1 
1 
1 
1 
1 
1 
1 
1 
1 
1 
1 
1 
1 
1 
1 
1 
1 
1 
1 
1 
1 
1 
1 
1 
1 
1 
1 
1 
1 
1 
1 
1 
1 
1 
1 
1 
1 
1 
1 
1 
1 
1 
1 
1 
1 
1 
1 
1 
1 
1 
1 
1 
1 
1 
1 
1 
1 
1 
1 
1 
1 
1 
1 
1 
1 
1 
1 
1 
1 
1 
1 
1 
1 
1 
1 
1 
1 
1 
1 
1 
1 
1 
1 
1 
1 
1 
1 
1 
1 
1 
1 
1 
1 
1 
1 
1 
1 
1 
1 
1 
1 
1 
1 
1 
1 
1 
1 
1 
1 
1 
1 
1 
1 
1 
1 
1 
1 
1 
1 
1 
1 
1 
1 
1 
1 
1 
1 
1 
1 
1 
1 
1 
1 
1 
1 
1 
1 
1 
1 
1 
1 
1 
1 
1 
1 
1 
1 
1 
1 
1 
1 
1 
1 
1 
1 
1 
1 
1 
1 
1 
1 
1 
1 
1 
1 
1 
1 
1 
1 
1 
1 
1 
1 
1 
1 
1 
1 
1 
1 
1 
1 
1 
1 
1 
1 
1 
1 
1 
1 
1 
1 
1 
1 
1 
1 
1 
1 
1 
1 
1 
1 
1 
1 
1 
1 
1 
1 
1 
1 
1 
1 
1 
1 
1 
1 
1 
1 
1 
1 
1 
1 
1 
1 
1 
1 
1 
1 
1 
1 
1 
1 
1 
1 
1 
1 
1 
1 
1 
1 
1 
1 
1 
1 
1 
1 
1 
1 
1 
1 
1 
1 
1 
1 
1 
1 
1 
1 
1 
1 
1 
1 
1 
1 
1 
1 
1 
1 
1 
1 
1 
1 
1 
1 
1 
1 
1 
1 
1 
1 
1 
1 
1 
1 
1 
1 
1 
1 
1 
1 
1 
1 
1 
1 
1 
1 
1 
1 
1 
1 
1 
1 
1 
1 
1 
1 
1 
1 
1 
1 
1 
1 
1 
1 
1 
1 
1 
1 
1 
1 
1 
1 
1 
1 
1 
1 
1 
1 
1 
1 
1 
1 
1 
1 
1 
1 
1 
1 
1 
1 
1 
1 
1 
1 
1 
1 
1 
1 
1 
1 
1 
1 
1 
1 
1 
1 
1 
1 
1 
1 
1 
1 
1 
1 
1 
1 
1 
1 
1 
1 
1 
1 
1 
1 
1 
1 
1 
1 
1 
1 
1 
1 
1 
1 
1 
1 
1 
1 
1 
1 
1 
1 
1 
1 
1 
1 
1 
1 
1 
1 
1 
1 
1 
1 
1 
1 
1 
1 
1 
1 
1 
1 
1 
1 
1 
1 
1 
1 
1 
1 
1 
1 
1 
1 
1 
1 
1 
1 
1 
1 
1 
1 
1 
1 
1 
1 
1 
1 
1 
1 
1 
1 
1 
1 
1 
1 
1 
1 
1 
1 
1 
1 
1 
1 
1 
1 
1 
1 
1 
1 
1 
1 
1 
1 
1 
1 
1 
1 
1 
1 
1 
1 
1 
1 
1 
1 
1 
1 
1 
1 
1 
1 
1 
1 
1 
1 
1 
1 
1 
1 
1 
1 
1 
1 
1 
1 
1 
1 
1 
1 
1 
1 
1 
1 
1 
1 
1 
1 
1 
1 
1 
1 
1 
1 
1 
1 
1 
1 
1 
1 
1 
1 
1 
1 
1 
1 
1 
1 
1 
1 
1 
1 
1 
1 
1 
1 
1 
1 
1 
1 
1 
1 
1 
1 
1 
1 
1 
1 
1 
1 
1 
1 
1 
1 
1 
1 
1 
1 
1 
1 
1 
1 
1 
1 
1 
1 
1 
1 
1 
1 
1 
1 
1 
1 
1 
1 
1 
1 
1 
1 
1 
1 
1 
1 
1 
1 
1 
1 
1 
1 
1 
1 
1 
1 
1 
1 
1 
1 
1 
1 
1 
1 
1 
1 
1 
1 
1 
1 
1 
1 
1 
1 
1 
1 
1 
1 
1 
1 
1 
1 
1 
1 
1 
1 
1 
1 
1 
1 
1 
1 
1 
1 
1 
1 
1 
1 
1 
1 
1 
1 
1 
1 
1 
1 
1 
1 
1 
1 
1 
1 
1 
1 
1 
1 
1 
1 
1 
1 
1 
1 
1 
1 
1 
1 
1 
1 
1 
1 
1 
1 
1 
1 
1 
1 
1 
1 
1 
1 
1 
1 
1 
1 
1 
1 
1 
1 
1 
1 
1 
1 
1 
1 
1 
1 
1 
1 
1 
1 
1 
1 
1 
1 
1 
1 
1 
1 
1 
1 
1 
1 
1 
1 
1 
1 
1 
1 
1 
1 
1 
1 
1 
1 
1 
1 
1 
1 
1 
1 
1 
1 
1 
1 
1 
1 
1 
1 
1 
1 
1 
1 
1 
1 
1 
1 
1 
1 
1 
1 
1 
1 
1 
1 
1 
1 
1 
1 
1 
1 
1 
1 
1 
1 
1 
1 
1 
1 
1 
1 
1 
1 
1 
1 
1 
1 
1 
1 
1 
1 
1 
1 
1 
1 
1 
1 
1 
1 
1 
1 
1 
1 
1 
1 
1 
1 
1 
1 
1 
1 
1 
1 
1 
1 
1 
1 
1 
1 
1 
1 
1 
1 
1 
1 
1 
1 
1 
1 
1 
1 
1 
1 
1 
1 
1 
1 
1 
1 
1 
1 
1 
1 
1 
1 
1 
1 
1 
1 
1 
1 
1 
1 
1 
1 
1 
1 
1 
1 
1 
1 
1 
1 
1 
1 
1 
1 
1 
1 
1 
1 
1 
1 
1 
1 
1 
1 
1 
1 
1 
1 
1 
1 
1 
1 
1 
1 
1 
1 
1 
1 
1 
1 
1 
1 
1 
1 
1 
1 
1 
1 
1 
1 
1 
1 
1 
1 
1 
1 
1 
1 
1 
1 
1 
1 
1 
1 
1 
1 
1 
1 
1 
1 
1 
1 
1 
1 
1 
1 
1 
1 
1 
1 
1 
1 
1 
1 
1 
1 
1 
1 
1 
1 
1 
1 
1 
1 
1 
1 
1 
1 
1 
1 
1 
1 
1 
1 
1 
1 
1 
1 
1 
1 
1 
1 
1 
1 
1 
1 
1 
1 
1 
1 
1 
1 
1 
1 
1 
1 
1 
1 
1 
1 
1 
1 
1 
1 
1 
1 
1 
1 
1 
1 
1 
1 
1 
1 
1 
1 
1 
1 
1 
1 
1 
1 
1 
1 
1 
1 
1 
1 
1 
1 
1 
1 
1 
1 
1 
1 
1 
1 
1 
1 
1 
1 
1 
1 
1 
1 
1 
1 
1 
1 
1 
1 
1 
1 
1 
1 
1 
1 
1 
1 
1 
1 
1 
1 
1 
1 
1 
1 
1 
1 
1 
1 
1 
1 
1 
1 
1 
1 
1 
1 
1 
1 
1 
1 
1 
1 
1 
1 
1 
1 
1 
1 
1 
1 
1 
1 
1 
1 
1 
1 
1 
1 
1 
1 
1 
1 
1 
1 
1 
1 
1 
1 
1 
1 
1 
1 
1 
1 
1 
1 
1 
1 
1 
1 
1 
1 
1 
1 
1 
1 
1 
1 
1 
1 
1 
1 
1 
1 
1 
1 
1 
1 
1 
1 
1 
1 
1 
1 
1 
1 
1 
1 
1 
1 
1 
1 
1 
1 
1 
1 
1 
1 
1 
1 
1 
1 
1 
1 
1 
1 
1 
1 
1 
1 
1 
1 
1 
1 
1 
1 
1 
1 
1 
1 
1 
1 
1 
1 
1 
1 
1 
1 
1 
1 
1 
1 
1 
1 
1 
1 
1 
1 
1 
1 
1 
1 
1 
1 
1 
1 
1 
1 
1 
1 
1 
1 
1 
1 
1 
1 
1 
1 
1 
1 
1 
1 
1 
1 
1 
1 
1 
1 
1 
1 
1 
1 
1 
1 
1 
1 
1 
1 
1 
1 
1 
1 
1 
1 
1 
1 
1 
1 
1 
1 
1 
1 
1 
1 
1 
1 
1 
1 
1 
1 
1 
1 
1 
1 
1 
1 
1 
1 
1 
1 
1 
1 
1 
1 
1 
1 
1 
1 
1 
1 
1 
1 
1 
1 
1 
1 
1 
1 
1 
1 
1 
1 
1 
1 
1 
1 
1 
1 
1 
1 
1 
1 
1 
1 
1 
1 
1 
1 
1 
1 
1 
1 
1 
1 
1 
1 
1 
1 
1 
1 
1 
1 
1 
1 
1 
1 
1 
1 
1 
1 
1 
1 
1 
1 
1 
1 
1 
1 
1 
1 
1 
1 
1 
1 
1 
1 
1 
1 
1 
1 
1 
1 
1 
1 
1 
1 
1 
1 
1 
1 
1 
1 
1 
1 
1 
1 
1 
1 
1 
1 
1 
1 
1 
1 
1 
1 
1 
1 
1 
1 
1 
1 
1 
1 
1 
1 
1 
1 
1 
1 
1 
1 
1 
1 
1 
1 
1 
1 
1 
1 
1 
1 
1 
1 
1 
1 
1 
1 
1 
1 
1 
1 
1 
1 
1 
1 
1 
1 
1 
1 
1 
1 
1 
1 
1 
1 
1 
1 
1 
1 
1 
1 
1 
1 
1 
1 
1 
1 
1 
1 
1 
1 
1 
1 
1 
1 
1 
1 
1 
1 
1 
1 
1 
1 
1 
1 
1 
1 
1 
1 
1 
1 
1 
1 
1 
1 
1 
1 
1 
1 
1 
1 
1 
1 
1 
1 
1 
1 
1 
1 
1 
1 
1 
1 
1 
1 
1 
1 
1 
1 
1 
1 
1 
1 
1 
1 
1 
1 
1 
1 
1 
1 
1 
1 
1 
1 
1 
1 
1 
1 
1 
1 
1 
1 
1 
1 
1 
1 
1 
1 
1 
1 
1 
1 
1 
1 
1 
1 
1 
1 
1 
1 
1 
1 
1 
1 
1 
1 
1 
1 
1 
1 
1 
1 
1 
1 
1 
1 
1 
1 
1 
1 
1 
1 
1 
1 
1 
1 
1 
1 
1 
1 
1 
1 
1 
1 
1 
1 
1 
1 
1 
1 
1 
1 
1 
1 
1 
1 
1 
1 
1 
1 
POINT_DATA 5000
VECTORS Stress float
-429.706 -905.356 0.
-28.8479 -679.885 0.
11.3771 -586.027 0.
-194.047 -639.709 0.
-259.227 -792.548 0.
-324.406 -945.388 0.
205.102 -893.213 0.
71.0132 -1206.26 0.
-63.0759 -1519.3 0.
81.8422 -1502.79 0.
122.932 -1406.97 0.
164.022 -1311.14 0.
80.0065 -1372.07 0.
59.2274 -1420.75 0.
-632.269 -1723.15 0.
-462.301 -1326.71 0.
-292.334 -930.264 0.
172.606 -615.118 0.
-10.8796 -1043.54 0.
-194.365 -1471.96 0.
-223.232 -1636.81 0.
-211.425 -1609.3 0.
-199.619 -1581.79 0.
204.651 -1362.49 0.
233.808 -1294.66 0.
391.432 -1171.79 0.
-976.88 -1393.68 0.
-782.675 -940.11 0.
-47.24 -401.512 0.
-228.656 -825.266 0.
-410.071 -1249.02 0.
-507.003 -1467.1 0.
-486.383 -1417.96 0.
-465.763 -1368.82 0.
-437.855 -1435.86 0.
-512.167 -1609.04 0.
-586.48 -1782.22 0.
-510.447 -1756.58 0.
-504.494 -1742.61 0.
-1606.63 -2166.04 0.
-1403.35 -1691.95 0.
-1200.08 -1217.85 0.
-2008.78 -1201.56 0.
-1847.03 -822.936 0.
-1685.28 -444.312 0.
-3957.24 -1692.29 0.
-4361.26 -2634.06 0.
-4765.27 -3575.82 0.
16167.7 6242.61 0.
16875.5 7895.62 0.
-109806 -45047.5 0.
16388.8 7716.87 0.
15697.2 6101.55 0.
-3529.86 -3067.66 0.
-3357.21 -2665.13 0.
-3184.56 -2262.6 0.
-2037.21 -1590.14 0.
-2039.71 -1596 0.
-2042.21 -1601.87 0.
-1470.99 -1231.42 0.
-1371.44 -998.96 0.
-1271.89 -766.496 0.
-1206.72 -891.981 0.
-1305.72 -1122.81 0.
-416.92 -948.047 0.
-584.414 -1338.91 0.
-751.909 -1729.77 0.
223.497 -1437.39 0.
338.825 -1168.38 0.
454.154 -899.379 0.
-232.401 -1123.08 0.
-250.885 -1165.96 0.
-269.369 -1208.84 0.
-1264.78 -1380.17 0.
-1091.51 -976.043 0.
-32.8731 -216.168 0.
-250.711 -793.433 0.
-504.553 -1386.12 0.
-41.3399 -1549.15 0.
-42.6103 -1551.98 0.
-43.8807 -1554.82 0.
435.483 -1337.02 0.
449.579 -1303.63 0.
463.674 -1270.24 0.
447.438 -1017.39 0.
632.985 -583.566 0.
818.531 -149.744 0.
-740.984 -1079.67 0.
-902.552 -1457.55 0.
-324.024 -1450.48 0.
-244.334 -1264.27 0.
-164.643 -1078.06 0.
123.871 -860.685 0.
122.752 -863.806 0.
121.634 -866.927 0.
293.154 -761.992 0.
322.496 -693.807 0.
351.837 -625.623 0.
-83.0259 -825.285 0.
-99.87 -862.952 0.
-124.81 -744.773 0.
-182.266 -716.884 0.
-142.177 -623.345 0.
-98.0201 -565.288 0.
-162.82 -718.749 0.
-227.62 -872.211 0.
133.131 -892.481 0.
-0.765201 -1205.41 0.
-134.662 -1518.35 0.
366.695 -1349.95 0.
407.825 -1254.13 0.
448.954 -1158.31 0.
-310.19 -1507.71 0.
-330.847 -1556.5 0.
-434.898 -1607.77 0.
-264.762 -1211.23 0.
-94.6254 -814.695 0.
100.972 -614.524 0.
-82.3379 -1043.11 0.
-265.648 -1471.69 0.
528.149 -1284.12 0.
539.974 -1256.65 0.
551.8 -1229.17 0.
-237.533 -1519.86 0.
-208.365 -1452.43 0.
-509.896 -1526.72 0.
-883.213 -1322.05 0.
-689.357 -868.453 0.
-236.211 -451.382 0.
-417.295 -875.263 0.
-598.378 -1299.14 0.
-511.914 -1438.57 0.
-491.907 -1388.8 0.
-471.9 -1339.03 0.
-284.313 -1339.63 0.
-358.76 -1512.7 0.
-433.206 -1685.77 0.
-295.837 -1633.78 0.
-289.881 -1619.63 0.
-1323.86 -2012.75 0.
-1120.37 -1538.59 0.
-916.886 -1064.43 0.
-2071.16 -1197.95 0.
-1910.03 -818.336 0.
-1748.89 -438.721 0.
-2044.39 -844.621 0.
-2449.59 -1787.24 0.
-2854.78 -2729.87 0.
13739.9 5235.79 0.
14445.4 6886.69 0.
-92226.1 -37481.8 0.
14218.5 6818.89 0.
13529.2 5205.17 0.
-2246.16 -2485.85 0.
-2073.19 -2083.22 0.
-1900.22 -1680.59 0.
-1768.97 -1444.07 0.
-1771.47 -1449.98 0.
-1773.97 -1455.89 0.
-945.333 -975.671 0.
-845.831 -742.94 0.
-746.33 -510.209 0.
-1249.41 -878.863 0.
-1348.53 -1109.59 0.
-315.786 -873.498 0.
-483.249 -1264.36 0.
-650.712 -1655.23 0.
390.413 -1334.18 0.
505.824 -1065.18 0.
621.235 -796.174 0.
-36.8313 -1008.15 0.
-55.5012 -1050.97 0.
-74.171 -1093.79 0.
-1352.73 -1387.2 0.
-1179.4 -983.259 0.
-740.564 -486.747 0.
-883.218 -1031.96 0.
-1136.75 -1624.7 0.
1007.41 -1068.48 0.
1006.04 -1071.29 0.
1004.67 -1074.09 0.
441.346 -1303.34 0.
455.145 -1269.63 0.
468.945 -1235.92 0.
-306.46 -1310.24 0.
-121.632 -876.338 0.
63.1949 -442.433 0.
-527.773 -957.274 0.
-688.866 -1335.83 0.
-211.216 -1371.56 0.
-131.747 -1185.34 0.
-52.2785 -999.126 0.
288.603 -758.788 0.
287.692 -762.447 0.
286.782 -766.106 0.
0.0142893 -855.858 0.
29.5395 -787.804 0.
59.0648 -719.749 0.
20.2531 -748.926 0.
2.61011 -785.187 0.
-62.3081 -1147.58 0.
-503.868 -1144.6 0.
-432.358 -976.344 0.
-585.051 -1859.33 0.
-327.456 -1257.47 0.
-688.28 -2098.59 0.
-1428 -4370.25 0.
-1217.23 -3879.37 0.
-2796.09 -7564.27 0.
-3652.99 -11239.8 0.
-1201.15 -5519.65 0.
-1294.25 -5737.67 0.
-2519.2 -5889.86 0.
-2718.02 -6350.36 0.
-3715.31 -9616.17 0.
-1174.82 -3685.19 0.
-1413.55 -4239.06 0.
-1637.89 -4509.95 0.
-2003.15 -5362.4 0.
-4979.79 -12308.1 0.
-11449.4 -30632 0.
-3134.05 -11227.9 0.
-2188.87 -9020.82 0.
-2947.24 -6971.07 0.
-2216.64 -5266.11 0.
-3071.11 -7315.87 0.
-2311.48 -4798.7 0.
-2232.36 -4613.75 0.
-1849.39 -3837.63 0.
-1870.77 -3884.79 0.
-3191.65 -6964.12 0.
-5834.27 -13815.1 0.
-2886.84 -6940.95 0.
-2736.84 -6594.12 0.
-2603.66 -7008.48 0.
-3537.92 -9191.84 0.
-9007.22 -21957 0.
-9624.4 -23779.5 0.
-6576.57 -16668.3 0.
-6162.23 -13813.1 0.
-4053.83 -8893.7 0.
-4074.61 -8942.43 0.
-4283.41 -6210.33 0.
-3206.03 -3699.55 0.
-3298.9 -3919.37 0.
-2162.66 -4727.75 0.
-2761.95 -6125.4 0.
-8999.26 -20678.4 0.
8745.14 -1763.47 0.
9183.25 -735.88 0.
-73910.2 -38796.8 0.
9005.95 -1176.6 0.
8289.71 -2853.51 0.
-8744.53 -20067.3 0.
-3415.19 -7631.88 0.
-3933.89 -8841.94 0.
-4279.02 -7783.01 0.
-3575.86 -6141.17 0.
-4552.12 -8417.95 0.
-3247.8 -7326.51 0.
-2173.94 -4821.77 0.
-2417.15 -5390.21 0.
-2821.33 -4431.6 0.
-2831.92 -4457.34 0.
-3350.96 -8117.83 0.
-3449.26 -8347.07 0.
-6082.16 -14490.4 0.
-12313.2 -31264 0.
-3791.03 -11378.3 0.
-3372.88 -10402.1 0.
-3262.49 -8874.83 0.
-2711.6 -7590.45 0.
-4447.62 -11642.2 0.
-2608.26 -4118.39 0.
-2211.89 -3193.06 0.
-2958.09 -4429.01 0.
-2265.92 -3029.29 0.
-3166.3 -5127.88 0.
-6937.88 -21572.8 0.
-6122.04 -19668.7 0.
-11461 -32125.8 0.
-9831.32 -25252 0.
-4928.41 -13811.9 0.
-4303.96 -12354.9 0.
-2273.87 -4435.93 0.
-1332.77 -2242.88 0.
-2133.39 -4113.84 0.
-1637.58 -3916.16 0.
-1832.75 -4372.02 0.
-2733.7 -7451.97 0.
-686.229 -2672.76 0.
-571.469 -2403.56 0.
-377.278 -2593 0.
-229.676 -2248.72 0.
-1168.34 -4439.07 0.
-1199.83 -3073.88 0.
-393.404 -1190.87 0.
-150.161 -622.093 0.
-171.05 -1355.35 0.
-1240.86 -3855.51 0.
269.474 42.8516 0.
136.91 -10.5926 0.
103.101 -88.1815 0.
261.1 -74.8115 0.
254.737 -86.8258 0.
248.374 -98.8395 0.
687.477 323.478 0.
994.936 1040.42 0.
1302.39 1757.36 0.
1564.31 1984.86 0.
1486.11 1801.33 0.
1407.9 1617.8 0.
1037.72 1596.13 0.
1130.59 1815.44 0.
1245.14 1999.65 0.
1078.32 1613.4 0.
911.488 1227.14 0.
868.849 1265.42 0.
1318.54 2314.42 0.
1768.24 3363.41 0.
2851.04 4000.52 0.
2631.32 3487.45 0.
2411.61 2974.38 0.
1253.73 2227.47 0.
1148.71 1982.57 0.
1593.62 1973.28 0.
639.548 1285.75 0.
494.571 947.413 0.
302.375 787.052 0.
652.266 1606.65 0.
1002.16 2426.26 0.
1325.5 2834.57 0.
1197.75 2534.69 0.
1070 2234.81 0.
1504.11 2863.07 0.
1928.81 3851.96 0.
2353.51 4840.86 0.
2358.42 4918.38 0.
2343.7 4883.75 0.
1949.58 4599.97 0.
1508 3569.99 0.
1066.41 2540.02 0.
103.174 1399.71 0.
-159.736 784.853 0.
-422.643 169.994 0.
626.334 448.603 0.
675.723 563.337 0.
725.114 678.072 0.
9660.61 4856.93 0.
9889.67 5395.06 0.
-29184.4 -10910.7 0.
9947.29 5494.22 0.
9758.15 5047.29 0.
971.888 1079.55 0.
1130.25 1448.13 0.
1288.62 1816.7 0.
298.811 1634.4 0.
386.819 1840.81 0.
474.827 2047.22 0.
1148.77 2092.08 0.
921.262 1560.97 0.
693.757 1029.85 0.
65.1794 1028.75 0.
245.649 1448 0.
1103.19 2239.68 0.
1614.17 3431.36 0.
2125.15 4623.04 0.
2811.26 5286.91 0.
2423.95 4382.4 0.
2036.64 3477.89 0.
1632.33 3008.76 0.
1646.53 3040.22 0.
1660.74 3071.68 0.
775.627 2160.42 0.
421.387 1336.68 0.
-125.085 470.68 0.
423.607 1912.22 0.
1055.9 3389.59 0.
3640.56 5474.2 0.
3782.44 5805.28 0.
3924.31 6136.37 0.
3181.1 5714.93 0.
2897.74 5053.33 0.
2614.38 4391.73 0.
1334.54 3032.24 0.
850.03 1899.73 0.
365.525 767.225 0.
790.076 996.304 0.
858.733 1156.83 0.
929.65 1242.66 0.
741.112 803.482 0.
552.573 364.301 0.
648.779 206.323 0.
679.997 279.4 0.
711.214 352.477 0.
339.788 199.273 0.
325.457 167.398 0.
311.125 135.522 0.
550.552 258.02 0.
568.897 298.889 0.
68.0939 -10.8852 0.
343.045 109.294 0.
309.214 31.5501 0.
377.229 6.28863 0.
370.101 -5.47679 0.
362.974 -17.2413 0.
831.272 416.61 0.
1138.61 1133.72 0.
1445.94 1850.84 0.
1028.9 1786.58 0.
950.876 1603.19 0.
872.846 1419.8 0.
1481.25 1817.55 0.
1574.41 2036.69 0.
1239.82 2028.66 0.
1073.05 1642.38 0.
906.279 1256.1 0.
923.979 1320.4 0.
1373.74 2369.42 0.
1823.5 3418.44 0.
2204.45 3756.66 0.
1985.39 3243.08 0.
1766.34 2729.5 0.
1587.11 2401.66 0.
1482.07 2156.59 0.
2072.98 2209.69 0.
1077.18 1505.6 0.
932.252 1166.98 0.
526.727 914.463 0.
876.495 1734.23 0.
1226.26 2553.99 0.
1371.37 2885.14 0.
1243.24 2585.75 0.
1115.11 2286.37 0.
1369.23 2835.1 0.
1793.43 3824.19 0.
2217.63 4813.28 0.
1988.24 4792.6 0.
1973.47 4757.98 0.
2236.26 4754.36 0.
1794.53 3724.69 0.
1352.8 2695.02 0.
1497.58 2028.01 0.
1234.02 1413.32 0.
970.452 798.64 0.
1339.37 781.065 0.
1389.12 895.445 0.
1438.87 1009.83 0.
7324.39 3890.05 0.
7553.39 4426.39 0.
-7079.96 -1405.94 0.
7614.98 4526.55 0.
7426.34 4080.83 0.
1788.26 1459.59 0.
1947.17 1828.23 0.
2106.07 2196.86 0.
978.597 1956.37 0.
1066.63 2162.77 0.
1154.66 2369.16 0.
1606.58 2320.22 0.
1378.81 1789.16 0.
1151.03 1258.09 0.
751.526 1355.39 0.
932.376 1774.72 0.
1138.2 2285.87 0.
1649.44 3477.41 0.
2160.68 4668.96 0.
2166.34 5042.56 0.
1779.54 4137.9 0.
1392.74 3233.25 0.
1406.62 2944.47 0.
1420.98 2975.61 0.
1435.33 3006.76 0.
1642.12 2565.3 0.
1286.95 1741.75 0.
563.066 794.928 0.
1139.74 2249.13 0.
1772.53 3727.39 0.
2416.26 4981.42 0.
2558.36 5312.64 0.
2700.45 5643.85 0.
2880.58 5618.37 0.
2597.43 4956.86 0.
2314.27 4295.35 0.
1850.11 3283.8 0.
1365.15 2151.09 0.
880.191 1018.38 0.
1201.47 1204.14 0.
1269.77 1364.7 0.
868.64 1246.77 0.
680.244 807.256 0.
491.848 367.741 0.
453.527 155.945 0.
484.651 229.123 0.
515.774 302.3 0.
523.77 309.354 0.
509.363 277.513 0.
494.957 245.672 0.
604.652 314.074 0.
622.552 355.872 0.
-257.928 -460.089 0.
146.603 -382.596 0.
113.399 -463.294 0.
221.428 -488.144 0.
178.495 -590.498 0.
135.563 -692.852 0.
272.275 -813.708 0.
108.837 -1196.32 0.
-54.6009 -1578.93 0.
-659.888 -1852.82 0.
-573.777 -1652.04 0.
-487.664 -1451.25 0.
397.001 -1094.23 0.
366.865 -1165.85 0.
-231.028 -1480.3 0.
-256.269 -1536.71 0.
-281.51 -1593.12 0.
-333.578 -1729.25 0.
-470.475 -2041.61 0.
-607.37 -2353.96 0.
-607.774 -2289.43 0.
-425.989 -1867.21 0.
-244.205 -1444.99 0.
9.04568 -1317.57 0.
-32.5597 -1418.75 0.
441.708 -1298.74 0.
100.249 -1288.59 0.
186.051 -1089.28 0.
-213.472 -1191.83 0.
-359.402 -1534.84 0.
-505.332 -1877.85 0.
-747.093 -2007.08 0.
-579.304 -1622.26 0.
-411.514 -1237.44 0.
-450.287 -1462.83 0.
-703.919 -2056.05 0.
-957.552 -2649.27 0.
-1096.62 -2620.45 0.
-1009.78 -2419.36 0.
-514.436 -2054.57 0.
-489.679 -2000.19 0.
-464.921 -1945.81 0.
506.433 -1525.99 0.
464.359 -1624.66 0.
422.284 -1723.33 0.
643.059 -1406.07 0.
891.035 -830.278 0.
1139.01 -254.485 0.
4269.62 -24.648 0.
3446.34 -1943.49 0.
-745.6 -5306.47 0.
3341.02 -2122.36 0.
4095.42 -366.246 0.
1229.14 -612.393 0.
944.308 -1265.65 0.
659.475 -1918.9 0.
-559.45 -2582.96 0.
-385.22 -2180.69 0.
-210.99 -1778.42 0.
174.7 -1453.02 0.
214.366 -1358.51 0.
254.033 -1264 0.
-153.27 -1444.24 0.
-162.341 -1465.02 0.
-480.395 -1647.9 0.
-613.716 -1958.18 0.
-747.037 -2268.46 0.
-1126.89 -2489.48 0.
-963.43 -2105.72 0.
-799.966 -1721.96 0.
-662.144 -1612.08 0.
-735.779 -1782.77 0.
-809.413 -1953.47 0.
284.415 -1223.33 0.
477.286 -780.299 0.
215.089 -544.471 0.
-39.5694 -1063.05 0.
-255.964 -1565.22 0.
-1004.62 -2240.94 0.
-1106.89 -2477.45 0.
-1209.17 -2713.96 0.
-604.151 -2495.49 0.
-531.379 -2325.72 0.
-458.608 -2155.95 0.
-156.5 -1814.05 0.
-26.3797 -1513.77 0.
103.74 -1213.48 0.
306.445 -1060.89 0.
330.509 -1000.83 0.
-253.231 -1187.4 0.
-185.134 -1025.26 0.
-117.038 -863.121 0.
-0.54872 -775.52 0.
-65.4689 -920.579 0.
-130.389 -1065.64 0.
14.9241 -986.95 0.
70.4897 -857.816 0.
126.056 -728.682 0.
134.713 -666.456 0.
159.109 -608.982 0.
-362.089 -476.013 0.
17.747 -406.425 0.
-15.9865 -486.621 0.
281.076 -433.084 0.
238.396 -535.873 0.
195.715 -638.662 0.
78.6 -864.606 0.
-85.1427 -1247.46 0.
-248.886 -1630.31 0.
-416.847 -1718.04 0.
-330.707 -1517.51 0.
-244.566 -1316.97 0.
381.338 -1070.92 0.
351.029 -1142.77 0.
-113.029 -1398.99 0.
-138.602 -1455.26 0.
-164.175 -1511.54 0.
-250.294 -1661.72 0.
-386.555 -1974.99 0.
-522.816 -2288.26 0.
-482.778 -2204.18 0.
-301.01 -1781.95 0.
-119.241 -1359.72 0.
-242.767 -1395.41 0.
-284.386 -1496.43 0.
-850.983 -1822.48 0.
225.409 -1204.77 0.
310.628 -1005.39 0.
-1.66684 -1070.73 0.
-148.16 -1413.33 0.
-294.653 -1755.93 0.
-803.57 -2001.11 0.
-636.506 -1615.76 0.
-469.441 -1230.41 0.
-245.878 -1346.1 0.
-499.569 -1939.18 0.
-753.26 -2532.27 0.
-497.055 -2333.65 0.
-410.227 -2132.38 0.
-348.819 -1952.98 0.
-323.849 -1898.99 0.
-298.88 -1845.01 0.
447.92 -1520.42 0.
405.847 -1619.22 0.
363.773 -1718.02 0.
547.892 -1418.32 0.
795.93 -842.858 0.
1043.97 -267.39 0.
3216.2 -445.644 0.
2394.49 -2363.54 0.
-1717.43 -5693.03 0.
2203.32 -2580.8 0.
2956.98 -826.127 0.
1231.37 -578.009 0.
947.196 -1231.64 0.
663.02 -1885.27 0.
-206.248 -2402.62 0.
-32.4097 -1999.84 0.
141.429 -1597.05 0.
215.136 -1405.89 0.
254.694 -1311.2 0.
294.251 -1216.51 0.
-88.2063 -1385.5 0.
-97.2045 -1406.69 0.
-316.771 -1546.83 0.
-450.438 -1857.09 0.
-584.105 -2167.36 0.
-636.221 -2247.34 0.
-472.441 -1863.68 0.
-308.66 -1480.02 0.
-691.783 -1594.44 0.
-765.141 -1765.27 0.
-838.498 -1936.09 0.
113.423 -1264.94 0.
305.915 -821.25 0.
149.367 -541.995 0.
-117.325 -1065.59 0.
-333.535 -1567.54 0.
-586.785 -2032.3 0.
-688.884 -2268.47 0.
-790.983 -2504.64 0.
-309.002 -2338.99 0.
-235.846 -2169.26 0.
-162.689 -1999.53 0.
-202.448 -1803.45 0.
-72.3498 -1503.13 0.
57.748 -1202.81 0.
86.6807 -1124.91 0.
111.478 -1065.7 0.
-350.842 -1197.89 0.
-282.465 -1036.31 0.
-214.089 -874.744 0.
72.5802 -712.489 0.
8.41377 -858.229 0.
-55.7526 -1003.97 0.
-8.47947 -967.377 0.
46.5825 -837.777 0.
101.645 -708.177 0.
-12.9347 -698.081 0.
10.9242 -640.471 0.
-513.736 -572.24 0.
16.1808 -147.74 0.
-79.149 -365.629 0.
158.032 -805.62 0.
398.165 -244.173 0.
546.937 104.117 0.
-365.993 -1502.78 0.
518.768 562.901 0.
413.705 318.582 0.
250.85 -602.645 0.
-206.217 -1667.67 0.
151.175 -832.306 0.
706.808 -242.216 0.
627.853 -429.472 0.
31.4804 -1241.9 0.
483.249 -195.198 0.
257.902 -728.44 0.
-150.586 -1541.35 0.
-75.7727 -1368 0.
226.58 -663.758 0.
291.184 -610.057 0.
323.013 -537.072 0.
368.022 -433.377 0.
12.7558 -302.444 0.
-223.83 -852.385 0.
-74.1377 -391.677 0.
776.15 -118.392 0.
311.752 -1208.51 0.
126.362 -1132.78 0.
681.138 155.805 0.
1148.72 1240.95 0.
-852.176 -1989.42 0.
-454.209 -1061.7 0.
-7.84464 -20.9757 0.
717.371 539.824 0.
-228.823 -1665.82 0.
-999.454 -3461.91 0.
-95.8914 -2498.91 0.
416.677 -1300.47 0.
-11.4145 -1460.67 0.
108.506 -1178.52 0.
432.678 -419.87 0.
782.037 -597.432 0.
573.713 -1084.66 0.
1204.85 386.742 0.
1057.02 -26.7338 0.
675.789 -912.779 0.
853.352 -495.029 0.
2091.87 -1048.39 0.
2773.56 547.681 0.
-1562.19 -2060.52 0.
2430.51 128.163 0.
2173.95 -468.518 0.
1086.99 -872.851 0.
741.597 -1680.41 0.
409.919 -2455.94 0.
1028.03 -168.928 0.
1525.95 993.527 0.
1384.05 663.1 0.
490.078 -817.736 0.
99.6452 -1731.43 0.
1279.08 1017.99 0.
541.565 -10.2971 0.
-290.454 -1946.15 0.
-350.824 -1902.04 0.
668.577 474.596 0.
150.321 -736.664 0.
272.389 -1013.08 0.
205.938 -1169.08 0.
446.523 -608.629 0.
-656.953 -1430.03 0.
186.156 537.655 0.
43.2596 204.721 0.
-69.1603 -1335.33 0.
-253.656 -1763.14 0.
493.842 -34.045 0.
-81.9967 -818.402 0.
-432.041 -1635.81 0.
587.741 -40.5598 0.
112.133 -1149.89 0.
127.575 -1113.36 0.
533.749 -895.54 0.
665.911 -585.766 0.
760.299 -364.068 0.
-160.5 -1593.06 0.
-106.524 -1466.25 0.
-477.42 -2330.85 0.
55.5734 -741.199 0.
435.449 143.734 0.
227.465 358.325 0.
171.78 222.843 0.
97.5989 44.042 0.
436.345 35.9846 0.
416.888 -8.17115 0.
882.004 1078.35 0.
399.115 56.5296 0.
233.595 -330.699 0.
175.953 -466.175 0.
331.492 410.048 0.
-31.7404 -435.293 0.
-172.897 -483.244 0.
114.287 -417.324 0.
106.495 -432.097 0.
154.333 -404.489 0.
184.774 -333.085 0.
215.214 -261.68 0.
209.87 -316.554 0.
104.999 -558.373 0.
0.128173 -800.192 0.
141.013 -916.53 0.
47.1433 -1135.74 0.
-46.7265 -1354.94 0.
229.408 -1235.76 0.
251.081 -1187.92 0.
-54.0192 -1258.74 0.
115.438 -868.47 0.
284.896 -478.196 0.
430.445 -330.238 0.
188.741 -894.844 0.
-52.963 -1459.45 0.
-73.2697 -1658.38 0.
-48.2079 -1601.06 0.
-23.1458 -1543.73 0.
-311.34 -1409.97 0.
-140.732 -1010.67 0.
25.1722 -613.219 0.
185.43 -832.773 0.
31.4209 -1197.14 0.
-71.2441 -1454.67 0.
5.23397 -1280.65 0.
81.712 -1106.63 0.
-236.029 -1186.04 0.
-265.201 -1255.39 0.
-294.373 -1324.74 0.
107.378 -1115.77 0.
146.751 -1020.22 0.
186.124 -924.668 0.
643.146 -916.067 0.
524.171 -1190.97 0.
-49.4201 -1613.34 0.
38.8707 -1405.6 0.
127.161 -1197.86 0.
616.417 -908.773 0.
563.135 -1034.34 0.
509.854 -1159.9 0.
514.429 -1184.33 0.
531.883 -1143.12 0.
549.337 -1101.91 0.
1943.99 -631.921 0.
1855.59 -834.75 0.
-104.215 -1836.97 0.
1619.9 -912.033 0.
1715.75 -685.028 0.
998.67 -827.604 0.
1054.98 -697.121 0.
1111.29 -566.638 0.
741.839 -855.619 0.
513.853 -1387.16 0.
285.866 -1918.71 0.
22.7314 -1923.35 0.
217.641 -1469.37 0.
412.55 -1015.39 0.
-9.86336 -1195.69 0.
-33.8069 -1246.71 0.
179.396 -1232.64 0.
29.3309 -1584.84 0.
-120.734 -1937.05 0.
-262.183 -2049.91 0.
-62.1714 -1583.46 0.
137.84 -1117.01 0.
-234.727 -1124.17 0.
-245.295 -1147.87 0.
-255.863 -1171.57 0.
-124.179 -1012.98 0.
-56.101 -850.393 0.
135.759 -642.116 0.
-52.8084 -1021.41 0.
-209.555 -1387.07 0.
-3.21731 -1538.13 0.
-35.3902 -1612.95 0.
-67.5628 -1687.77 0.
233.742 -1488.94 0.
354.102 -1206.57 0.
474.462 -924.201 0.
-4.48611 -878.351 0.
131.268 -560.339 0.
267.022 -242.327 0.
163.712 -587.466 0.
-19.8834 -1015.91 0.
-342.2 -1432.16 0.
-235.522 -1186.89 0.
-128.844 -941.611 0.
-146.671 -831.612 0.
-161.616 -864.535 0.
-176.56 -897.459 0.
-17.2355 -788.727 0.
29.7267 -680.278 0.
76.6887 -571.828 0.
57.9255 -519.851 0.
85.6677 -453.6 0.
213.563 -287.793 0.
392.588 -266.555 0.
385.136 -281.616 0.
-43.9935 -457.461 0.
-13.3891 -386.476 0.
17.2154 -315.491 0.
308.543 -243.772 0.
203.25 -485.046 0.
97.9572 -726.32 0.
188.716 -863.554 0.
95.2214 -1083.48 0.
1.72696 -1303.4 0.
182.692 -1224.76 0.
204.217 -1176.77 0.
-132.639 -1259.78 0.
36.1043 -869.232 0.
204.848 -478.68 0.
522.262 -260.723 0.
280.399 -825.275 0.
38.5371 -1389.83 0.
47.3175 -1574.99 0.
72.2547 -1517.56 0.
97.192 -1460.13 0.
-110.481 -1292.72 0.
60.5991 -893.623 0.
213.393 -502.154 0.
-145.991 -943.356 0.
-300.328 -1307.04 0.
-128.876 -1448.97 0.
-53.1178 -1274.71 0.
22.6409 -1100.45 0.
113.416 -1006.15 0.
84.1527 -1075.66 0.
54.8902 -1145.17 0.
245.738 -1024.88 0.
284.58 -929.072 0.
323.422 -833.261 0.
734.74 -844.439 0.
615.726 -1119.56 0.
1.05366 -1558.77 0.
89.4401 -1351.61 0.
177.826 -1144.46 0.
593.396 -888.107 0.
540.216 -1013.25 0.
487.036 -1138.4 0.
473.656 -1171.13 0.
492.005 -1130.23 0.
510.354 -1089.34 0.
1562.29 -762.696 0.
1474.61 -965.842 0.
224.346 -1666.51 0.
1187.64 -1067.52 0.
1283.09 -840.386 0.
883.253 -846.044 0.
939.293 -715.297 0.
995.333 -584.55 0.
768.469 -812.542 0.
540.58 -1344.18 0.
312.691 -1875.81 0.
46.5647 -1882.99 0.
240.889 -1427.98 0.
435.212 -972.966 0.
-47.0038 -1181.64 0.
-70.5745 -1232.93 0.
494.818 -1063.82 0.
345.08 -1416.13 0.
195.342 -1768.45 0.
-355.65 -2057.79 0.
-155.86 -1591.06 0.
43.9297 -1124.33 0.
137.856 -934.932 0.
127.105 -958.329 0.
116.354 -981.725 0.
-344.36 -1075.8 0.
-276.648 -913.179 0.
377.243 -508.225 0.
105.112 -923.089 0.
-51.6691 -1288.49 0.
75.3882 -1474.01 0.
43.4232 -1548.49 0.
11.4583 -1622.98 0.
193.921 -1474.51 0.
314.484 -1191.99 0.
435.047 -909.477 0.
-171.157 -916.579 0.
-35.472 -598.471 0.
100.213 -280.364 0.
232.018 -526.656 0.
47.8446 -954.76 0.
-84.4197 -1290.96 0.
21.8326 -1044.95 0.
128.085 -798.944 0.
-389.935 -906.061 0.
-405.119 -938.963 0.
-420.303 -971.864 0.
-67.0515 -778.883 0.
-20.0388 -670.368 0.
26.9738 -561.852 0.
226.874 -417.229 0.
254.79 -351.281 0.
141.778 -812.792 0.
208.557 -900.748 0.
122.936 -1103.72 0.
-450.485 -1454.36 0.
-363.726 -1252.56 0.
-276.967 -1050.76 0.
74.5969 -806.618 0.
64.1366 -833.835 0.
53.6761 -861.052 0.
132.795 -869.104 0.
107.28 -927.808 0.
81.7644 -986.512 0.
249.623 -986.139 0.
206.477 -1083.35 0.
-175.449 -1334.94 0.
-249.513 -1505.46 0.
-323.576 -1675.97 0.
-14.5922 -1618.76 0.
26.1245 -1523.53 0.
66.8413 -1428.3 0.
145.69 -1335.64 0.
167.728 -1285.39 0.
189.766 -1235.14 0.
-69.327 -1340.56 0.
-73.063 -1349.24 0.
208.297 -1235.68 0.
-420.198 -1526.56 0.
-428.975 -1549.81 0.
-128.1 -1452.84 0.
-151.717 -1506.12 0.
-175.333 -1559.4 0.
-27.7106 -1500.27 0.
0.108642 -1438.46 0.
27.9276 -1376.64 0.
178.689 -1374.61 0.
119.066 -1513.49 0.
59.442 -1652.38 0.
442.474 -1469.03 0.
456.113 -1433.97 0.
55.2647 -1573.52 0.
90.6111 -1486.04 0.
125.958 -1398.55 0.
368.759 -1257.45 0.
346.459 -1302.48 0.
324.159 -1347.51 0.
332.486 -1403.39 0.
288.391 -1507.07 0.
244.296 -1610.75 0.
1104.56 -1213.99 0.
1138.56 -1139.22 0.
-559.945 -1806.04 0.
936.704 -1214.83 0.
910.393 -1276.13 0.
468.203 -1522.28 0.
407.581 -1661.96 0.
346.957 -1801.63 0.
280.069 -1828.77 0.
356.533 -1650.05 0.
432.996 -1471.32 0.
215.515 -1429.96 0.
283.625 -1271.71 0.
351.734 -1113.46 0.
-102.214 -1462.33 0.
-200.903 -1695.1 0.
235.146 -1664.29 0.
265.999 -1589.24 0.
296.85 -1514.2 0.
-197.499 -1703.65 0.
-229.726 -1777.32 0.
-261.954 -1850.99 0.
44.7335 -1607.13 0.
166.674 -1324.36 0.
288.615 -1041.6 0.
-473.734 -1415.54 0.
-530.55 -1552.29 0.
-31.4072 -1449.26 0.
-234.341 -1685.8 0.
-312.875 -1869.06 0.
-81.9102 -1873.23 0.
-59.2966 -1819.17 0.
-36.683 -1765.11 0.
62.5859 -1657.66 0.
106.652 -1554.32 0.
150.717 -1450.98 0.
-455.419 -1603.36 0.
-397.295 -1469.07 0.
-339.172 -1334.78 0.
-80.0851 -1120.01 0.
-27.0189 -999.689 0.
168.49 -848.811 0.
117.223 -967.737 0.
65.9559 -1086.66 0.
-535.357 -1327.19 0.
-423.138 -1068.82 0.
-310.919 -810.456 0.
-63.0161 -706.11 0.
-143.311 -892.096 0.
-223.605 -1078.08 0.
73.3807 -867.814 0.
148.614 -696.304 0.
148.852 -776.675 0.
192.876 -875.461 0.
107.26 -1078.56 0.
-180.368 -1307.16 0.
-93.6259 -1105.3 0.
-6.88351 -903.436 0.
36.5465 -791.246 0.
25.8758 -818.19 0.
15.2051 -845.134 0.
-9.46111 -899.919 0.
-34.8033 -958.794 0.
-60.1457 -1017.67 0.
238.68 -960.124 0.
195.386 -1057.23 0.
-98.5836 -1270.76 0.
-172.491 -1441.48 0.
-246.399 -1612.21 0.
44.1881 -1562 0.
84.7663 -1466.9 0.
125.344 -1371.8 0.
46.307 -1345.66 0.
68.6808 -1295.56 0.
91.0546 -1245.46 0.
-89.1929 -1320.07 0.
-92.844 -1329.04 0.
515.548 -1075.63 0.
-120.563 -1365.8 0.
-128.954 -1389.7 0.
-41.2565 -1382.68 0.
-65.007 -1436.46 0.
-88.7575 -1490.24 0.
-162.062 -1528.38 0.
-134.832 -1466.49 0.
-107.603 -1404.61 0.
284.226 -1297.84 0.
223.377 -1436.11 0.
162.527 -1574.38 0.
327.169 -1487.49 0.
340.118 -1451.96 0.
188.465 -1485.62 0.
223.589 -1398.46 0.
258.714 -1311.29 0.
242.856 -1280.56 0.
221.125 -1326.07 0.
199.393 -1371.58 0.
296.375 -1386.22 0.
252.317 -1489.9 0.
208.259 -1593.59 0.
877.667 -1281.83 0.
910.722 -1206.32 0.
500.892 -1320.78 0.
925.344 -1188.08 0.
898.426 -1248.99 0.
308.798 -1559.57 0.
247.951 -1699.4 0.
187.103 -1839.22 0.
160.646 -1848.58 0.
236.936 -1670.28 0.
313.224 -1491.98 0.
156.106 -1423.02 0.
223.734 -1264.69 0.
291.362 -1106.35 0.
140.466 -1326.69 0.
41.4727 -1559.1 0.
-54.295 -1758.43 0.
-23.2957 -1682.92 0.
7.70324 -1607.4 0.
-68.4926 -1617.96 0.
-100.977 -1691.02 0.
-133.463 -1764.08 0.
180.92 -1519.43 0.
303.098 -1236.83 0.
425.277 -954.237 0.
-181.907 -1256.61 0.
-238.529 -1393.78 0.
-520.449 -1628.26 0.
-380.085 -1717.31 0.
-458.779 -1900.23 0.
-107.864 -1854 0.
-85.1777 -1799.4 0.
-62.4914 -1744.8 0.
2.42154 -1653.61 0.
46.335 -1550.11 0.
90.2482 -1446.61 0.
-220.368 -1469.75 0.
-162.483 -1335.09 0.
-104.598 -1200.42 0.
-245.11 -1160.8 0.
-192.408 -1039.61 0.
98.6788 -846.718 0.
47.7401 -965.853 0.
-3.19892 -1084.99 0.
-178.457 -1143.53 0.
-67.0188 -884.023 0.
44.4193 -624.516 0.
-51.4931 -670.725 0.
-131.969 -856.344 0.
-212.444 -1041.96 0.
39.5443 -852.205 0.
115.449 -680.453 0.
402.944 -171.567 0.
444.329 -227.665 0.
1047.83 1182.28 0.
861.074 642.742 0.
525.16 -139.375 0.
526.46 -134.52 0.
306.073 -65.052 0.
347.711 32.0662 0.
606.164 633.828 0.
489.095 561.77 0.
346.008 228.895 0.
32.1006 -502.502 0.
378.059 -586.424 0.
252.356 -881.773 0.
289.176 -474.148 0.
840.333 808.831 0.
635.908 328.772 0.
1031.4 662.396 0.
940.099 449.476 0.
809.071 143.587 0.
765.085 540.412 0.
704.837 399.534 0.
3.74564 -1236.51 0.
224.853 -518.815 0.
621.477 402.366 0.
557.224 -143.222 0.
701.521 4.37083 0.
336.149 -855.075 0.
309.635 -687.845 0.
686.749 188.411 0.
804.455 459.323 0.
392.589 44.7777 0.
213.584 -373.114 0.
224.817 -346.717 0.
1027.32 274.849 0.
1254.3 805.713 0.
1016.01 251.549 0.
1455.38 1401.66 0.
881.876 59.1946 0.
973.464 130.609 0.
745.483 -406.146 0.
771.881 -349.079 0.
371.565 -700.169 0.
801.001 295.569 0.
831.149 359.966 0.
532.204 -736.251 0.
649.706 -463.017 0.
1159.79 726.594 0.
1629.42 929.454 0.
1649.45 975.187 0.
-832.486 1158.84 0.
2142.4 1730.84 0.
1399.48 -5.68089 0.
1186.81 823.488 0.
1030.96 458.938 0.
728.84 -246.231 0.
1131.37 673.777 0.
1021.46 419.263 0.
1067.11 527.167 0.
588.664 -266.428 0.
670.92 -71.6559 0.
895.291 454.191 0.
838.226 -130.606 0.
880.296 -23.671 0.
465.358 29.8087 0.
424.741 -64.3688 0.
526.221 173.334 0.
765.437 121.982 0.
1078.15 847.827 0.
572.019 -337.058 0.
798.054 -303.787 0.
1092.97 384.76 0.
1250.87 753.333 0.
737.031 356.785 0.
1150.56 1324.8 0.
-659.03 -411.755 0.
37.4752 -446.931 0.
392.426 378.636 0.
513.51 -308.888 0.
450.606 -457.398 0.
530.044 -274.007 0.
443.41 -489.182 0.
403.26 -576.258 0.
714.21 155.995 0.
625.721 83.0893 0.
379.581 -487.846 0.
881.137 685.384 0.
169.614 153.162 0.
419.356 739.577 0.
337.176 -129.616 0.
452.967 141.351 0.
420.773 66.8886 0.
214.977 -865.952 0.
745.086 368.406 0.
756.401 391.679 0.
-129.246 -834.692 0.
310.782 189.983 0.
222.253 -18.4656 0.
249.964 -274.342 0.
112.903 -590.258 0.
299.199 -471.842 0.
312.249 -445.49 0.
324.926 -414.401 0.
282.366 -452.068 0.
166.155 -720.609 0.
49.9443 -989.15 0.
-106.004 -1180.45 0.
-98.0054 -1161.69 0.
-90.0072 -1142.93 0.
-220.088 -1325.16 0.
-328.976 -1578.59 0.
-437.863 -1832.01 0.
-115.135 -1546.38 0.
-11.5798 -1303.93 0.
127.607 -1064.72 0.
103.986 -1121.51 0.
80.3655 -1178.31 0.
254.77 -1130.79 0.
265.259 -1106.27 0.
275.748 -1081.76 0.
16.3023 -1168.28 0.
30.9007 -1134.96 0.
45.4989 -1101.64 0.
-34.8842 -1309.61 0.
-153.694 -1590.1 0.
88.0336 -1716.28 0.
0.802588 -1577.3 0.
100.439 -1349.55 0.
1.08132 -1268.64 0.
-51.4305 -1395.67 0.
-103.942 -1522.7 0.
-77.5911 -1572.79 0.
-81.3182 -1582.19 0.
-85.0456 -1591.58 0.
179.914 -1517.42 0.
148.961 -1589.21 0.
118.008 -1661 0.
27.7481 -1661.7 0.
53.8145 -1601.93 0.
324.104 -1456.1 0.
259.547 -1609.67 0.
194.989 -1763.24 0.
-91.0572 -1861.93 0.
79.9866 -1467.22 0.
251.031 -1072.51 0.
340.159 -896.28 0.
336.447 -908.714 0.
332.736 -921.147 0.
689.809 -838.801 0.
645.314 -944.643 0.
-1707.09 -2039.96 0.
866.679 -1069.64 0.
797.866 -1231.75 0.
142.608 -1567.77 0.
255.63 -1303.66 0.
368.653 -1039.55 0.
228.817 -1036.21 0.
165.481 -1183.25 0.
102.145 -1330.3 0.
142.237 -1424.59 0.
83.4204 -1561.38 0.
24.6032 -1698.17 0.
101.017 -1633.12 0.
121.247 -1580.91 0.
-148.446 -1655.46 0.
-140.503 -1637.24 0.
-132.559 -1619.03 0.
-39.635 -1556.95 0.
-22.1453 -1516.93 0.
-4.65548 -1476.92 0.
260.167 -1349.69 0.
258.984 -1351.02 0.
257.8 -1352.35 0.
26.5786 -1488.64 0.
3.9697 -1538.13 0.
-465.932 -1777.61 0.
-288.174 -1624.57 0.
-245.731 -1529.46 0.
-210.113 -1464.91 0.
-224.653 -1501.12 0.
-239.193 -1537.33 0.
40.7763 -1368.14 0.
103.067 -1215.2 0.
165.357 -1062.26 0.
164.925 -1092.44 0.
110.582 -1216.54 0.
56.2405 -1340.64 0.
-184.186 -1288.34 0.
-90.1282 -1068.16 0.
-123.743 -927.493 0.
-127.477 -936.17 0.
-131.211 -944.848 0.
160.703 -817.932 0.
183.242 -770.044 0.
205.781 -722.156 0.
105.881 -615.996 0.
229.278 -331.602 0.
352.675 -47.2077 0.
63.8906 -171.257 0.
31.0347 -244.858 0.
345.337 -422.405 0.
280.698 -428.969 0.
293.623 -398.19 0.
165.106 -470.324 0.
48.445 -738.83 0.
-68.2158 -1007.34 0.
-8.58321 -1106.71 0.
-0.710771 -1088.17 0.
7.16153 -1069.63 0.
-81.9468 -1234.4 0.
-190.469 -1487.94 0.
-298.991 -1741.47 0.
-200.378 -1551.46 0.
-97.3532 -1308.68 0.
254.098 -980.931 0.
230.433 -1037.7 0.
206.768 -1094.46 0.
261.126 -1096.24 0.
271.329 -1071.83 0.
281.531 -1047.42 0.
15.1014 -1136.26 0.
30.279 -1102.97 0.
45.4566 -1069.68 0.
79.2299 -1229.93 0.
-40.1594 -1509.85 0.
234.885 -1621.1 0.
-10.6295 -1552.17 0.
89.185 -1324.5 0.
-53.4109 -1259.86 0.
-105.703 -1387.2 0.
-157.994 -1514.54 0.
213.118 -1413.77 0.
209.73 -1423.71 0.
206.342 -1433.66 0.
99.6277 -1520.96 0.
68.8081 -1592.53 0.
37.9884 -1664.1 0.
-95.5204 -1682.7 0.
-70.1876 -1622.27 0.
378.218 -1401.92 0.
313.127 -1554.92 0.
248.036 -1707.92 0.
-32.0161 -1807.02 0.
138.6 -1411.97 0.
309.217 -1016.92 0.
204.766 -923.461 0.
201.858 -936.435 0.
198.949 -949.408 0.
485.786 -893.203 0.
441.616 -999.718 0.
-3799.96 -2904.57 0.
790.657 -1069.97 0.
721.581 -1232.52 0.
136.324 -1537.57 0.
249.373 -1273.43 0.
362.421 -1009.28 0.
37.8406 -1087.62 0.
-25.1108 -1234.62 0.
-88.0618 -1381.61 0.
219.274 -1361.28 0.
160.482 -1498.11 0.
101.689 -1634.94 0.
4.95233 -1641.33 0.
25.8398 -1589.42 0.
3.80464 -1557.77 0.
11.5882 -1539.41 0.
19.3717 -1521.04 0.
-130.139 -1565.31 0.
-112.91 -1524.94 0.
-95.6807 -1484.57 0.
164.668 -1359.72 0.
164 -1361.34 0.
163.333 -1362.96 0.
141.565 -1406.73 0.
119.139 -1456.15 0.
494.913 -1335.09 0.
-53.0376 -1492.58 0.
-10.9945 -1397.23 0.
-469.71 -1544.11 0.
-484.422 -1580.23 0.
-499.134 -1616.35 0.
23.488 -1345.65 0.
85.6122 -1192.63 0.
147.736 -1039.62 0.
233.739 -1032.66 0.
179.501 -1157.24 0.
125.262 -1281.81 0.
157.027 -1109.88 0.
251.955 -890.274 0.
-252.317 -950.77 0.
-255.987 -959.542 0.
-259.657 -968.313 0.
86.1092 -817.93 0.
109.143 -770.308 0.
132.177 -722.687 0.
295.451 -503.673 0.
419.396 -219.501 0.
543.341 64.6713 0.
-201.257 -252.781 0.
-233.461 -325.769 0.
84.7679 -522.709 0.
176.758 -642.912 0.
118.53 -781.473 0.
-137.406 -997.192 0.
-174.718 -1086.47 0.
-212.029 -1175.75 0.
8.64793 -1130.54 0.
3.44799 -1144.5 0.
-1.75195 -1158.45 0.
-20.2049 -1069.26 0.
63.1658 -873.723 0.
146.536 -678.182 0.
-59.8538 -1067.77 0.
-260.406 -1533.56 0.
-130.806 -1830.21 0.
-143.674 -1857.86 0.
-156.542 -1885.51 0.
28.657 -1702.83 0.
226.329 -1242.31 0.
424.001 -781.784 0.
185.037 -811.019 0.
85.6334 -1040.54 0.
-13.7705 -1270.06 0.
23.1761 -1255.8 0.
58.0627 -1175.74 0.
756.091 -811.35 0.
184.68 -1106.89 0.
157.881 -1168.2 0.
-30.5387 -1292.6 0.
-23.5555 -1272.54 0.
-16.5718 -1252.47 0.
338.02 -1122.23 0.
303.926 -1204.38 0.
269.834 -1286.53 0.
93.3674 -1448.07 0.
44.7695 -1562.03 0.
-3.8285 -1675.99 0.
-77.3522 -1685.71 0.
-60.6285 -1645.35 0.
358.364 -1425.42 0.
431.892 -1254.88 0.
505.42 -1084.34 0.
141.274 -1144.78 0.
134.983 -1154.83 0.
128.691 -1164.89 0.
121.286 -1075.6 0.
214.521 -852.273 0.
307.755 -628.95 0.
504.504 -712.098 0.
365.673 -1033.68 0.
-4226.61 -3264.49 0.
704.543 -1106.49 0.
729.229 -1050.71 0.
163.871 -1262.98 0.
148.527 -1298.67 0.
133.183 -1334.37 0.
-69.4932 -1352.37 0.
22.6901 -1135.04 0.
114.873 -917.701 0.
441.164 -921.377 0.
281.693 -1290.22 0.
122.222 -1659.07 0.
-86.6487 -1495.4 0.
79.5135 -1108.09 0.
360.839 -743.032 0.
202.352 -1110.72 0.
43.8656 -1478.41 0.
-182.036 -1728.12 0.
-119.367 -1579.08 0.
-56.6979 -1430.04 0.
104.939 -1322.96 0.
89.6793 -1359.16 0.
74.42 -1395.36 0.
206.79 -1329.81 0.
219.148 -1307.04 0.
1077.57 -926.199 0.
37.7281 -1282.15 0.
85.2776 -1172.01 0.
-359.965 -1291 0.
-365.614 -1299.1 0.
-371.262 -1307.2 0.
163.093 -1143.46 0.
94.4256 -1306.04 0.
25.7582 -1468.62 0.
-47.5176 -1495.52 0.
-13.0693 -1420.18 0.
21.379 -1344.84 0.
222.183 -1155.9 0.
283.699 -1016.17 0.
-207.308 -1114.99 0.
-183.209 -1060.57 0.
-159.109 -1006.15 0.
-48.3319 -932.578 0.
-44.7551 -925.26 0.
-41.1785 -917.941 0.
199.662 -783.691 0.
221.947 -727.877 0.
244.231 -672.065 0.
-579.357 -1124.4 0.
-650.037 -1289.53 0.
-453.722 -724.294 0.
207.397 -598.804 0.
148.422 -737.101 0.
-164.861 -978.554 0.
-202.965 -1067.59 0.
-241.068 -1156.63 0.
16.045 -1095.09 0.
10.9431 -1109.54 0.
5.84111 -1123.99 0.
-142.278 -1090.33 0.
-59.1201 -894.727 0.
24.0372 -699.121 0.
-110.122 -1058.46 0.
-310.663 -1523.71 0.
-286.871 -1866.15 0.
-299.532 -1893.85 0.
-312.192 -1921.56 0.
123.249 -1631.13 0.
321.012 -1170.72 0.
518.774 -710.312 0.
284.227 -738.372 0.
184.768 -967.957 0.
85.3093 -1197.54 0.
-165.985 -1305.37 0.
-131.134 -1225.33 0.
104.275 -1059.29 0.
249.456 -1047.82 0.
223.033 -1109.52 0.
129.769 -1192.57 0.
136.78 -1172.28 0.
143.791 -1152 0.
88.3269 -1195.32 0.
54.4765 -1277.77 0.
20.627 -1360.23 0.
114.066 -1407.86 0.
65.1876 -1521.86 0.
16.3089 -1635.85 0.
123.775 -1567.59 0.
140.931 -1526.81 0.
321.061 -1410.66 0.
394.298 -1239.91 0.
467.535 -1069.17 0.
-156.205 -1241.39 0.
-162.591 -1251.95 0.
-168.976 -1262.52 0.
231.617 -995.672 0.
325.14 -773.344 0.
418.664 -551.016 0.
586.901 -643.854 0.
448.514 -966.164 0.
3710.31 168.601 0.
636.4 -1103.78 0.
661.212 -1048.1 0.
-10.6957 -1305.22 0.
-26.3174 -1340.67 0.
-41.9397 -1376.13 0.
156.412 -1226.83 0.
247.993 -1009.18 0.
339.575 -791.527 0.
468.626 -878.54 0.
308.72 -1246.99 0.
148.816 -1615.43 0.
-328.03 -1566.59 0.
-162.557 -1178.94 0.
258.119 -756.941 0.
100.008 -1124.77 0.
-58.1028 -1492.6 0.
-15.9292 -1623.79 0.
47.1366 -1475.07 0.
110.202 -1326.35 0.
49.9132 -1315.64 0.
34.9345 -1352.12 0.
19.9558 -1388.6 0.
212.711 -1294.82 0.
224.558 -1271.62 0.
870.571 -983.36 0.
-145.232 -1329.98 0.
-97.4798 -1220.5 0.
-90.1661 -1143.99 0.
-95.3317 -1152.65 0.
-100.498 -1161.32 0.
346.038 -1033.01 0.
276.862 -1195.62 0.
207.686 -1358.23 0.
-271.257 -1560.6 0.
-237.12 -1485.67 0.
-202.983 -1410.74 0.
120.195 -1168.55 0.
181.5 -1028.71 0.
228.743 -897.274 0.
253.022 -842.828 0.
277.303 -788.382 0.
-152.376 -945.968 0.
-148.814 -938.769 0.
-145.252 -931.571 0.
93.5732 -798.054 0.
116.007 -742.434 0.
138.44 -686.814 0.
-292.165 -969.274 0.
-363.566 -1134.9 0.
-319.104 653.814 0.
528.959 126.8 0.
411.378 -151.458 0.
311.641 220.425 0.
205.987 -30.0937 0.
532.607 729.319 0.
146.053 -770.062 0.
284.967 -447.889 0.
411.76 -154.676 0.
-113.373 -756.975 0.
140.287 -166.235 0.
344.107 308.713 0.
124.167 -388.372 0.
262.245 -63.5094 0.
644.379 639.449 0.
38.8122 -776.535 0.
126.858 -573.758 0.
882.68 -2.84362 0.
1054.61 398.246 0.
908.856 57.946 0.
933.758 620.243 0.
979.212 724.109 0.
1244.87 1342.22 0.
387.838 363.128 0.
744.433 1191.24 0.
608.659 359.843 0.
715.215 -56.6457 0.
905.641 381.824 0.
955.891 472.281 0.
1038.93 666.848 0.
758.606 13.805 0.
595.621 489.306 0.
252.593 -309.42 0.
410.2 59.8985 0.
1239.2 1225.45 0.
1048.82 780.724 0.
810.203 222.997 0.
1358.79 969.735 0.
943.955 2.62761 0.
683.233 -470.74 0.
1168.12 660.09 0.
929.708 102.84 0.
467.74 811.461 0.
77.1199 -101.96 0.
234.386 262.831 0.
1046.14 742.791 0.
608.812 -282.547 0.
746.874 34.6968 0.
985.074 170.036 0.
1650.5 1724.59 0.
-5348.15 -242.744 0.
1492.11 1052.57 0.
936.53 -242.914 0.
-365.402 -1769.72 0.
684.243 677.759 0.
551.444 366.555 0.
955.745 247.946 0.
1066.41 503.314 0.
801.902 -116.271 0.
951.848 246.641 0.
1477.64 1467.77 0.
770.87 -187.366 0.
112.483 -47.2345 0.
324.154 445.128 0.
740.391 598.282 0.
717.143 545.164 0.
504.518 49.706 0.
700.558 -234.746 0.
656.734 -336.997 0.
931.215 303.503 0.
1030.39 1108.29 0.
548.32 -18.1392 0.
424.278 -308.959 0.
548.739 -497.863 0.
610.23 -353.336 0.
1296.14 823.17 0.
151.687 -268.51 0.
500.362 548.953 0.
798.699 458.731 0.
640.511 88.1164 0.
176.326 -997.341 0.
962.481 84.2607 0.
1060.01 310.995 0.
926.208 -1.76618 0.
-0.226492 -474.14 0.
-21.408 -520.829 0.
248.856 112.373 0.
538.351 22.5465 0.
279.03 -576.218 0.
1314.64 843.224 0.
1121.31 397.407 0.
811.234 -321.425 0.
384.877 511.145 0.
585.196 980.817 0.
319.936 364.13 0.
132.907 -471.376 0.
197.751 -321.681 0.
674.219 789.375 0.
638.519 676.619 0.
855.26 1182.86 0.
-1034.86 -1124.53 0.
77.2001 -567.596 0.
98.5783 -518.821 0.
39.1997 -516.711 0.
19.5097 -563.705 0.
-0.179372 -610.7 0.
6.06693 -620.247 0.
19.0778 -591.606 0.
32.0878 -562.965 0.
-146.899 -709.644 0.
-210.317 -857.514 0.
-273.734 -1005.38 0.
-7.70506 -897.778 0.
-0.101067 -880.759 0.
171.358 -775.91 0.
219.455 -668.507 0.
267.554 -561.104 0.
432.703 -566.393 0.
217.21 -1070.24 0.
1.71782 -1574.08 0.
154.163 -1617.42 0.
231.376 -1440.91 0.
308.59 -1264.4 0.
-234.109 -1378.2 0.
-173.812 -1242.08 0.
155.608 -990.516 0.
89.1582 -1069.13 0.
64.7092 -1129.62 0.
143.339 -1141.71 0.
119.557 -1197.7 0.
95.7753 -1253.69 0.
-110.317 -1346.09 0.
-86.0863 -1289.33 0.
-61.8551 -1232.57 0.
152.084 -1184.41 0.
103.269 -1299.04 0.
54.4554 -1413.67 0.
468.865 -1256.46 0.
466.965 -1261.54 0.
73.7821 -1426.3 0.
122.147 -1316.08 0.
170.512 -1205.86 0.
-255.249 -1342.23 0.
-278.542 -1398.75 0.
-301.836 -1455.27 0.
194.083 -1253.34 0.
201.546 -1242.78 0.
209.01 -1232.22 0.
166.814 -1229.59 0.
181.08 -1195.89 0.
-1433.39 -1861.38 0.
567.686 -779.079 0.
685.03 -504.439 0.
55.7444 -645.748 0.
-62.3261 -922.051 0.
-180.397 -1198.36 0.
326.095 -1135.48 0.
301.888 -1193.63 0.
277.681 -1251.78 0.
72.6853 -1221.98 0.
176.384 -983.346 0.
280.083 -744.716 0.
-89.8382 -1049 0.
-184.323 -1271.69 0.
20.2342 -1331.61 0.
71.8166 -1212.79 0.
123.399 -1093.97 0.
253.246 -1016.26 0.
191.557 -1160.56 0.
129.867 -1304.87 0.
80.7856 -1362.62 0.
95.4922 -1329.97 0.
110.199 -1297.32 0.
234.747 -1247.08 0.
229.252 -1256.91 0.
133.533 -1298.26 0.
-296.109 -1487.66 0.
-301.704 -1495.69 0.
22.0686 -1350.33 0.
57.3191 -1270.04 0.
92.5694 -1189.76 0.
262.336 -1139.06 0.
199.663 -1283.77 0.
136.99 -1428.49 0.
-430.786 -1577.03 0.
-332.846 -1345.41 0.
-234.906 -1113.79 0.
132.82 -1076.34 0.
49.2506 -1265.73 0.
50.4803 -1381.45 0.
127.644 -1196.81 0.
204.806 -1012.17 0.
-147.704 -1050.79 0.
-133.973 -1016.91 0.
-120.242 -983.029 0.
-157.26 -1026.87 0.
-187.562 -1097.84 0.
-217.864 -1168.82 0.
57.335 -878.567 0.
177.821 -597.919 0.
-962.602 -1064.38 0.
-94.7805 -609.482 0.
-74.2692 -560.486 0.
108.042 -457.675 0.
87.3563 -503.935 0.
66.6715 -550.196 0.
-228.356 -689.936 0.
-215.314 -661.193 0.
-202.272 -632.45 0.
-197.966 -700.877 0.
-261.465 -848.619 0.
-324.963 -996.361 0.
114.47 -815.204 0.
122.137 -798.22 0.
354.102 -664.995 0.
402.107 -557.696 0.
450.112 -450.397 0.
194.168 -635.385 0.
-21.3812 -1138.76 0.
-236.929 -1642.14 0.
390.378 -1487.51 0.
466.899 -1310.6 0.
543.42 -1133.7 0.
-62.4134 -1271.75 0.
-2.44235 -1135.83 0.
-371.731 -1184.05 0.
-130.542 -1132.49 0.
-155.569 -1193.01 0.
14.2793 -1167.88 0.
-9.63174 -1223.69 0.
-33.543 -1279.5 0.
8.09264 -1261.6 0.
33.0572 -1205.14 0.
58.0219 -1148.68 0.
103.296 -1171.87 0.
54.2049 -1286.07 0.
5.11373 -1400.26 0.
565.073 -1184.45 0.
563.202 -1189.31 0.
-154.003 -1492.26 0.
-104.951 -1382.42 0.
-55.8974 -1272.58 0.
4.17763 -1197.65 0.
-19.0321 -1254.46 0.
-42.2429 -1311.28 0.
215.686 -1213.11 0.
222.676 -1202.22 0.
229.667 -1191.32 0.
-82.369 -1305.42 0.
-68.5162 -1271.59 0.
-760.463 -1541.14 0.
413.467 -813.166 0.
530.743 -538.359 0.
-2.63681 -640.406 0.
-120.875 -917.143 0.
-239.113 -1193.88 0.
299.254 -1113.94 0.
275.07 -1172.57 0.
250.887 -1231.2 0.
-217.471 -1314.96 0.
-114.035 -1075.95 0.
-10.5973 -836.944 0.
201.532 -893.477 0.
106.99 -1116.51 0.
174.526 -1231.42 0.
226.684 -1113.11 0.
278.842 -994.794 0.
127.376 -1039.21 0.
66.0751 -1183.51 0.
4.77437 -1327.82 0.
231.607 -1267.1 0.
246.851 -1234.82 0.
262.096 -1202.55 0.
258.686 -1205 0.
253.277 -1214.67 0.
-103.843 -1368.12 0.
-189.129 -1410.68 0.
-194.308 -1419.29 0.
36.9669 -1313.49 0.
71.9029 -1232.83 0.
106.839 -1152.17 0.
61.6861 -1193.28 0.
-1.10701 -1338.14 0.
-63.8996 -1483.01 0.
-363.795 -1517.03 0.
-265.478 -1286.01 0.
-167.161 -1054.99 0.
228.977 -1003.84 0.
145.902 -1193.95 0.
-313.675 -1506.92 0.
-236.478 -1322.32 0.
-159.283 -1137.72 0.
38.1495 -937.965 0.
52.0247 -904.266 0.
65.9 -870.568 0.
-206.376 -1018.16 0.
-236.819 -1089.25 0.
-267.262 -1160.34 0.
178.505 -795.476 0.
299.048 -515.623 0.
-776.324 -893.73 0.
-261.688 -821.36 0.
-312.028 -937.333 0.
-40.8893 -885.248 0.
-8.09926 -807.524 0.
24.6908 -729.8 0.
-413.552 -939.84 0.
-489.382 -1114.07 0.
-565.213 -1288.3 0.
-377.07 -1140.71 0.
-278.021 -910.448 0.
-178.971 -680.188 0.
226.509 -548.413 0.
182.586 -647.632 0.
358.582 -660.364 0.
260.912 -883.532 0.
163.242 -1106.7 0.
-222.689 -1417.05 0.
-251.476 -1481.94 0.
-280.264 -1546.82 0.
556.648 -1140.33 0.
628.801 -972.564 0.
700.954 -804.8 0.
68.71 -1031.82 0.
75.4668 -1014.01 0.
185.035 -951.678 0.
-103.741 -1120.36 0.
-129.134 -1179.15 0.
-54.6309 -1188.82 0.
-54.3715 -1189 0.
-54.1121 -1189.18 0.
63.3524 -1176.48 0.
17.5642 -1281.22 0.
-28.2237 -1385.96 0.
28.0627 -1332.97 0.
78.1912 -1217.19 0.
128.32 -1101.41 0.
600.183 -961.108 0.
553.77 -1068.62 0.
-218.676 -1462.51 0.
-144.275 -1285.66 0.
-69.8737 -1108.8 0.
233.535 -886.478 0.
220.212 -911.871 0.
206.89 -937.263 0.
290.589 -867.243 0.
334.4 -764.874 0.
378.211 -662.504 0.
36.504 -821.523 0.
19.1505 -863.887 0.
-1171.69 -1407.96 0.
311.168 -709.102 0.
344.218 -631.595 0.
-51.7815 -759.561 0.
-67.4475 -795.424 0.
-83.1135 -831.288 0.
331.167 -719.379 0.
272.699 -855.253 0.
214.231 -991.127 0.
-137.438 -1042.51 0.
-30.3967 -792.47 0.
76.6436 -542.432 0.
433.444 -669.195 0.
255.65 -1081.42 0.
108.662 -1414.04 0.
236.731 -1114.4 0.
364.801 -814.75 0.
98.2039 -874.091 0.
-60.8288 -1241.83 0.
-219.861 -1609.57 0.
114.29 -1542.46 0.
156.447 -1440.54 0.
198.605 -1338.63 0.
344.665 -1148.75 0.
413.368 -986.684 0.
316.427 -912.308 0.
-79.0158 -1155.12 0.
-116.918 -1244.24 0.
103.919 -1181.2 0.
139.139 -1096.4 0.
174.359 -1011.61 0.
-29.9108 -1077.63 0.
-41.8664 -1105.33 0.
-53.8217 -1133.04 0.
-135.217 -1176.28 0.
-137.117 -1181.45 0.
-139.015 -1186.63 0.
336.307 -855.707 0.
414.549 -673.467 0.
-106.764 -753.031 0.
-85.7062 -708.129 0.
-64.6474 -663.227 0.
204.556 -540.499 0.
198.217 -559.762 0.
191.877 -579.026 0.
-68.7544 -731.954 0.
-102.19 -810.605 0.
-135.626 -889.256 0.
125.755 -665.526 0.
210.748 -472.899 0.
-571.275 -777.522 0.
-244.621 -784.337 0.
-294.841 -900.388 0.
12.4504 -829.911 0.
45.2968 -752.196 0.
78.1431 -674.48 0.
-347.408 -879.07 0.
-422.608 -1053.76 0.
-497.808 -1228.46 0.
-281.739 -1069.95 0.
-182.876 -839.496 0.
-84.0131 -609.042 0.
136.12 -555.291 0.
92.4302 -654.978 0.
213.62 -690.668 0.
115.423 -913.863 0.
17.2267 -1137.06 0.
-158.166 -1357.36 0.
-186.11 -1422.99 0.
-214.055 -1488.62 0.
406.338 -1172.02 0.
478.223 -1004.11 0.
550.11 -836.204 0.
10.9642 -1024.6 0.
17.6578 -1007.02 0.
48.5356 -979.037 0.
203.609 -957.528 0.
178.119 -1015.8 0.
-45.745 -1153.85 0.
-45.4754 -1153.75 0.
-45.2057 -1153.65 0.
15.2485 -1166.81 0.
-30.7423 -1271.1 0.
-76.7325 -1375.38 0.
98.3124 -1269.77 0.
148.861 -1154.16 0.
199.409 -1038.55 0.
396.099 -1018.33 0.
349.534 -1125.21 0.
-156.941 -1404.82 0.
-83.0506 -1227.16 0.
-9.1606 -1049.51 0.
241.931 -853.338 0.
228.318 -878.08 0.
214.707 -902.821 0.
122.094 -906.407 0.
166.763 -804.814 0.
211.433 -703.219 0.
90.2724 -767.654 0.
72.5781 -809.823 0.
-126.999 -928.725 0.
158.273 -742.63 0.
190.806 -664.912 0.
40.92 -687.647 0.
25.6244 -723.797 0.
10.3287 -759.946 0.
49.8491 -810.03 0.
-8.60489 -945.967 0.
-67.0584 -1081.9 0.
89.0473 -914.199 0.
196.807 -664.877 0.
304.566 -415.556 0.
508.561 -605.678 0.
330.417 -1017.85 0.
4.83374 -1426.16 0.
133.493 -1127.05 0.
262.152 -827.93 0.
2.12907 -883.653 0.
-156.443 -1251.9 0.
-315.014 -1620.15 0.
-11.3949 -1564.19 0.
30.8627 -1462.09 0.
73.1208 -1359.98 0.
502.753 -1052.51 0.
571.313 -890.497 0.
593.3 -759.056 0.
-145.394 -1149.6 0.
-183.32 -1239.29 0.
145.927 -1132.07 0.
181.061 -1047.67 0.
216.194 -963.256 0.
-137.36 -1092.18 0.
-148.987 -1120.56 0.
-160.613 -1148.93 0.
31.1681 -1072.43 0.
30.0057 -1078.27 0.
28.8439 -1084.11 0.
382.824 -804.253 0.
461.1 -622.382 0.
9.06739 -673.42 0.
30.4483 -628.23 0.
51.8298 -583.04 0.
66.6888 -567.307 0.
60.3811 -586.681 0.
54.0733 -606.055 0.
45.1871 -651.249 0.
11.6031 -730.149 0.
-21.9813 -809.05 0.
-213.486 -780.892 0.
-129.187 -589.138 0.
-276.082 -422.353 0.
127.335 78.0169 0.
-83.9669 -416.83 0.
688.726 685.444 0.
302.608 -218.899 0.
539.153 330.286 0.
-100.51 -404.19 0.
269.976 463.687 0.
290.423 514.286 0.
450.516 477.229 0.
511.773 623.764 0.
543.617 702.366 0.
500.737 499.502 0.
453.721 390.493 0.
612.941 554.117 0.
302.157 -170.858 0.
450.096 174.863 0.
502.943 89.6461 0.
776.073 726.19 0.
679.443 499.835 0.
682.283 -208.348 0.
835.438 152.7 0.
994.441 527.279 0.
284.274 -260.196 0.
784.378 904.257 0.
838.977 241.661 0.
828.044 -55.4672 0.
1417.54 1324.63 0.
468.645 47.7571 0.
828.648 891.327 0.
599.923 361.907 0.
136.143 -751.027 0.
785.842 762.235 0.
682.686 518.746 0.
677.281 -20.4208 0.
818.523 308.74 0.
1107.14 981.191 0.
625.561 -61.51 0.
447.627 -478.931 0.
528.49 123.764 0.
927.077 1058.63 0.
695.748 523.151 0.
507.738 -216.895 0.
409.384 -448.019 0.
514.683 -203.503 0.
331.754 -71.7906 0.
97.8591 -617.072 0.
385.925 55.2947 0.
417.639 -75.0681 0.
629.172 418.842 0.
-3453.4 -1009.76 0.
695.818 823.043 0.
218.638 -289.844 0.
289.739 -245.515 0.
436.476 96.7171 0.
487.846 216.292 0.
342.398 429.416 0.
382.096 523.758 0.
-88.6014 -572.482 0.
558.546 -231.488 0.
347.389 -725.223 0.
765.975 250.464 0.
620.404 -451.228 0.
1017.55 470.098 0.
774.266 585.972 0.
658.587 320.909 0.
951.247 1008.78 0.
690.674 935.238 0.
780.227 1147.92 0.
268.784 -41.5661 0.
316.786 -537.882 0.
423.847 -283.873 0.
552.62 21.1417 0.
720.271 -822.319 0.
445.043 -1467.39 0.
394.805 -222.416 0.
112.685 -390.14 0.
195.701 -197.291 0.
821.388 406.111 0.
233.406 -969.405 0.
799.804 348.436 0.
44.3388 -438.077 0.
352.931 279.66 0.
790.05 1297.2 0.
745.38 305.22 0.
793.895 417.815 0.
635.517 48.5534 0.
1142.56 906.143 0.
781.959 66.1038 0.
-21.5327 -948.354 0.
285.96 -228.716 0.
466.524 194.498 0.
-268.332 -1074.59 0.
124.848 -157.099 0.
66.5849 -292.937 0.
102.049 -690.154 0.
68.1443 -767.158 0.
655.931 605.315 0.
-149.621 25.6459 0.
-338.491 -413.039 0.
-456.029 -1358.95 0.
-301.804 -1223.95 0.
-294.378 -1208.91 0.
-197.393 -1132.74 0.
-126.443 -971.19 0.
-55.4923 -809.639 0.
-169.845 -799.967 0.
-190.22 -845.256 0.
-210.595 -890.545 0.
-80.4872 -820.54 0.
-60.8723 -775.305 0.
-41.2575 -730.071 0.
-144.075 -797.887 0.
-156.813 -828.885 0.
142.801 -747.584 0.
19.4078 -1039.87 0.
-103.986 -1332.16 0.
-104.105 -1422.2 0.
15.8188 -1142.77 0.
135.742 -863.346 0.
305.544 -808.959 0.
182.389 -1096.89 0.
59.2338 -1384.82 0.
-186.323 -1418.67 0.
-98.8616 -1214.09 0.
-189.369 -1085.96 0.
248.953 -1038.33 0.
176.402 -1208.27 0.
-92.6508 -1431.52 0.
-98.6243 -1445.54 0.
-104.598 -1459.55 0.
-92.2289 -1418.11 0.
-45.0172 -1310.01 0.
2.19402 -1201.92 0.
113.261 -1133.24 0.
107.549 -1147.6 0.
101.837 -1161.96 0.
100.291 -1039.84 0.
173.31 -872.214 0.
56.5972 -808.365 0.
32.0551 -868.921 0.
7.51268 -929.477 0.
154.699 -893.298 0.
162.865 -878.289 0.
171.03 -863.28 0.
-33.2216 -927.282 0.
-15.2995 -885.606 0.
2.62294 -843.93 0.
127.075 -686.928 0.
192.722 -536.064 0.
-265.845 -611.088 0.
152.893 -523.836 0.
104.133 -636.914 0.
163.783 -701.21 0.
113.559 -819.982 0.
63.3339 -938.754 0.
-281.888 -1103.8 0.
-236.156 -998.456 0.
-190.424 -893.117 0.
263.193 -817.829 0.
147.115 -1086.49 0.
31.0374 -1355.16 0.
126.343 -1139.33 0.
245.167 -868.046 0.
326.92 -660.895 0.
226.475 -888.805 0.
126.03 -1116.71 0.
-321.433 -1380.92 0.
-261.723 -1238.25 0.
-202.014 -1095.58 0.
116.53 -926.085 0.
103.832 -957.456 0.
91.1333 -988.827 0.
782.716 -750.961 0.
752.093 -827.301 0.
787.306 -872.323 0.
-393.983 -1413.91 0.
-412.622 -1457.55 0.
-27.548 -1298.63 0.
21.3834 -1189.86 0.
70.3144 -1081.1 0.
-99.8623 -1072.8 0.
-59.6704 -980.548 0.
-19.4781 -888.293 0.
186.663 -888.116 0.
105.889 -1076.35 0.
25.1146 -1264.59 0.
182.8 -1104.89 0.
242.994 -965.724 0.
172.489 -879.434 0.
257.303 -680.48 0.
342.117 -481.526 0.
38.4334 -558.971 0.
-37.6296 -735.557 0.
-113.693 -912.143 0.
-82.9942 -874.631 0.
-3.83435 -688.806 0.
75.3253 -502.982 0.
-112.551 -498.242 0.
-79.8592 -420.573 0.
-170.425 -1209.63 0.
-127.814 -1119.83 0.
-120.223 -1104.62 0.
-310.134 -1148.25 0.
-238.834 -987.115 0.
-167.534 -825.976 0.
-32.0585 -710.049 0.
-51.9776 -755.38 0.
-71.8972 -800.71 0.
-30.695 -767.855 0.
-10.3825 -723.315 0.
9.92992 -678.775 0.
-238.574 -806.137 0.
-250.918 -837.725 0.
273.578 -659.498 0.
149.532 -951.028 0.
25.4856 -1242.56 0.
-36.1572 -1362.06 0.
83.6171 -1082.2 0.
203.391 -802.343 0.
175.067 -835.826 0.
51.6589 -1123.84 0.
-71.7492 -1411.86 0.
-136.631 -1366.36 0.
-49.7821 -1161.23 0.
827.703 -617.581 0.
70.1103 -1085.94 0.
-2.02497 -1256.1 0.
17.4044 -1352.33 0.
11.9908 -1366.79 0.
6.57682 -1381.26 0.
-7.5289 -1349.48 0.
40.2493 -1241.64 0.
88.0269 -1133.8 0.
24.6388 -1137.69 0.
19.375 -1152.26 0.
14.1108 -1166.84 0.
-15.5083 -1057.78 0.
57.3963 -889.899 0.
-9.59765 -804.711 0.
-34.4559 -865.065 0.
-59.3144 -925.419 0.
95.7998 -888.01 0.
104.087 -872.885 0.
112.374 -857.761 0.
-14.9643 -889.711 0.
3.34419 -848.157 0.
21.653 -806.603 0.
112.871 -662.254 0.
178.481 -511.173 0.
-426.749 -647.95 0.
207.055 -469.681 0.
158.639 -583.373 0.
265.488 -625.764 0.
215.188 -745.272 0.
164.887 -864.78 0.
-220.141 -1045.43 0.
-174.796 -940.206 0.
-129.45 -834.985 0.
224.26 -804.325 0.
108.115 -1073.16 0.
-8.02981 -1342 0.
-100.159 -1204.84 0.
19.0672 -933.432 0.
451.358 -574.544 0.
351.55 -802.56 0.
251.742 -1030.58 0.
-330.586 -1355.04 0.
-270.788 -1212.13 0.
-210.99 -1069.21 0.
94.1004 -903.345 0.
82.095 -935.161 0.
70.0899 -966.977 0.
840.89 -696.685 0.
810.674 -773.599 0.
382.056 -1012.95 0.
-461.325 -1409.93 0.
-480.123 -1453.77 0.
-158.342 -1322.89 0.
-109.769 -1214.11 0.
-61.1968 -1105.32 0.
70.3939 -969.227 0.
110.551 -877.217 0.
150.709 -785.207 0.
143.058 -876.209 0.
62.7861 -1065.18 0.
-17.4857 -1254.16 0.
78.6851 -1118.87 0.
138.908 -979.773 0.
387.173 -754.843 0.
472.551 -555.992 0.
557.931 -357.14 0.
160.406 -475.661 0.
84.1301 -651.941 0.
7.85448 -828.221 0.
-198.33 -893.842 0.
-119.261 -708.548 0.
-40.1933 -523.254 0.
226.084 -320.197 0.
258.625 -243.816 0.
123.592 -867.849 0.
-37.4362 -916.314 0.
33.1138 -750.045 0.
-109.803 -705.704 0.
-123.099 -731.89 0.
-136.396 -758.076 0.
-43.654 -737.255 0.
-56.1877 -764.957 0.
-68.7215 -792.659 0.
-73.1386 -884.246 0.
-139.604 -1038.6 0.
-206.069 -1192.95 0.
-334.684 -1170.22 0.
-277.873 -1037.65 0.
203.257 -734.969 0.
223.321 -687.079 0.
243.385 -639.188 0.
184.021 -655.283 0.
147.895 -738.081 0.
111.769 -820.879 0.
129.895 -811.361 0.
164.939 -731.241 0.
199.983 -651.12 0.
27.3554 -970.231 0.
-146.703 -1377.26 0.
668.281 -1360.19 0.
-89.612 -1451.11 0.
28.1694 -1171.81 0.
141.152 -938.341 0.
156.028 -899.689 0.
170.905 -861.036 0.
183.911 -926.487 0.
76.8686 -1169.94 0.
-30.1741 -1413.39 0.
-135.707 -1352.87 0.
6.08313 -1020.67 0.
147.873 -688.462 0.
112.15 -684.699 0.
101.296 -706.963 0.
-11.5874 -778.883 0.
-63.8691 -901.066 0.
-116.151 -1023.25 0.
-11.7936 -990.959 0.
69.7583 -799.613 0.
151.31 -608.267 0.
21.6722 -744.335 0.
-115.398 -1060.24 0.
-252.468 -1376.14 0.
-86.1869 -1189.3 0.
31.8606 -911.553 0.
1629.86 -1.91057 0.
112.568 -697.521 0.
88.9943 -753.413 0.
214.891 -710.164 0.
266.977 -587.958 0.
319.063 -465.751 0.
-57.67 -620.95 0.
-111.226 -748.154 0.
-164.783 -875.357 0.
264.335 -646.95 0.
324.232 -505.666 0.
384.128 -364.383 0.
142.308 -575.608 0.
70.8073 -739.774 0.
324.283 -755.231 0.
297.82 -817.272 0.
271.356 -879.311 0.
-253.49 -1131.21 0.
-250.545 -1124.83 0.
-247.6 -1118.44 0.
97.5728 -998.319 0.
66.7422 -1065.14 0.
35.9125 -1131.96 0.
628.207 -920.57 0.
609.115 -967.812 0.
485.256 -1056.67 0.
-438.092 -1328.83 0.
-373.328 -1177.87 0.
26.0922 -924.457 0.
-15.2634 -1015.94 0.
-56.6192 -1107.42 0.
114.296 -1014.78 0.
184.572 -849.094 0.
254.848 -683.413 0.
112.939 -800.017 0.
37.1524 -977.013 0.
-38.6348 -1154.01 0.
78.6744 -982.376 0.
159.566 -792.281 0.
475.4 -530.135 0.
449.559 -589.489 0.
423.719 -648.842 0.
37.291 -843.736 0.
31.5458 -856.948 0.
25.8002 -870.159 0.
-263.242 -975.972 0.
-243.979 -933.154 0.
-224.715 -890.336 0.
118.492 -650.101 0.
184.055 -499.229 0.
209.479 -799.462 0.
-174.224 -947.199 0.
-104.336 -780.005 0.
38.849 -608.332 0.
25.9436 -634.661 0.
13.0372 -660.989 0.
-146.692 -751.634 0.
-159.443 -779.326 0.
-172.194 -807.017 0.
-76.5265 -853.327 0.
-142.676 -1008.03 0.
-208.826 -1162.72 0.
-56.4397 -1021.13 0.
0.539826 -888.915 0.
13.6772 -781.832 0.
34.0755 -733.835 0.
54.4743 -685.838 0.
-56.3621 -727.717 0.
-92.3592 -810.079 0.
-128.356 -892.44 0.
147.71 -772.744 0.
183.337 -693.042 0.
218.965 -613.34 0.
5.01309 -945.797 0.
-169.251 -1352.84 0.
-206.267 -1701.32 0.
109.308 -1335.77 0.
227.069 -1056.44 0.
-70.0177 -995.389 0.
-54.766 -957.38 0.
-39.5145 -919.371 0.
151.535 -908.179 0.
45.1262 -1152.15 0.
-61.2829 -1396.11 0.
-179.433 -1339.91 0.
-37.6028 -1007.91 0.
104.227 -675.902 0.
181.602 -624.101 0.
171.518 -646.513 0.
49.7966 -718.536 0.
-1.84133 -841.511 0.
-53.4793 -964.486 0.
-83.6286 -992.417 0.
-1.34279 -801.884 0.
80.9429 -611.351 0.
-41.8077 -738.13 0.
-177.971 -1054.99 0.
-314.134 -1371.86 0.
5.1187 -1117.75 0.
123.772 -840.893 0.
559.285 -428.453 0.
119.383 -661.85 0.
95.334 -717.727 0.
101.637 -727.663 0.
152.926 -605.216 0.
204.215 -482.769 0.
-140.294 -626.058 0.
-194.119 -753.219 0.
-247.944 -880.38 0.
274.772 -610.414 0.
334.996 -469.133 0.
395.22 -327.853 0.
330.815 -463.6 0.
259.751 -627.931 0.
111.434 -815.882 0.
84.7409 -877.604 0.
58.0476 -939.325 0.
-259.871 -1104.64 0.
-257.319 -1097.74 0.
-254.767 -1090.84 0.
245.707 -902.431 0.
214.604 -969.195 0.
183.501 -1035.96 0.
330.677 -1017.65 0.
311.126 -1064.49 0.
165.745 -1159.85 0.
-365.581 -1264.5 0.
-300.635 -1113.51 0.
216.93 -812.256 0.
176.18 -904.512 0.
135.43 -996.769 0.
124.422 -978.305 0.
194.727 -812.942 0.
265.032 -647.579 0.
23.7187 -806.653 0.
-51.6199 -984.128 0.
-126.959 -1161.6 0.
72.0827 -953.08 0.
153.249 -762.985 0.
286.722 -579.899 0.
260.488 -638.17 0.
234.255 -696.441 0.
35.8213 -814.28 0.
29.7223 -827.323 0.
23.6228 -840.365 0.
-194.066 -914.527 0.
-174.841 -872.231 0.
-155.616 -829.935 0.
-95.4923 -709.842 0.
-30.4586 -560.058 0.
443.219 -350.726 0.
491.7 917.103 0.
200.8 235.264 0.
356.522 -119.239 0.
-91.8027 -1165.28 0.
660.662 590.278 0.
387.971 729.5 0.
136.047 135.229 0.
-646.602 -1696.89 0.
13.544 -600.987 0.
179.362 -215.698 0.
139.352 -311.132 0.
610.737 35.6072 0.
261.852 -778.389 0.
205.906 66.562 0.
679.654 1171.25 0.
239.606 143.455 0.
-29.7894 -177.046 0.
90.4585 104.94 0.
-18.3028 -147.547 0.
440.238 -95.511 0.
653.075 401.413 0.
478.373 -5.99324 0.
400.344 47.867 0.
528.088 342.527 0.
280.372 257.994 0.
812.609 -33.927 0.
1231.72 943.778 0.
165.115 -9.71059 0.
-151.263 -744.989 0.
-95.8879 -612.338 0.
355.859 -342.399 0.
304.511 -461.294 0.
598.756 226.296 0.
340.057 -15.9032 0.
56.6285 -676.098 0.
590.889 571.498 0.
671.862 419.888 0.
307.368 -427.756 0.
190.938 -482.548 0.
172.915 -522.739 0.
184.398 -493.831 0.
133.637 -340.356 0.
310.467 75.0793 0.
185.929 -212.259 0.
-68.5378 -647.384 0.
-24.858 -551.148 0.
90.9002 -286.434 0.
717.978 416.719 0.
996.657 1066.1 0.
820.942 329.331 0.
375.985 -54.1066 0.
297.555 -233.468 0.
379.9 167.032 0.
310.664 10.0134 0.
683.392 884.467 0.
43.5732 -14.8221 0.
-108.3 -366.697 0.
-181.19 -534.433 0.
162.561 -855.291 0.
625.253 228.017 0.
1006.34 1120.71 0.
961.455 674.266 0.
766.631 225.877 0.
396.985 273.444 0.
38.3997 -556.097 0.
14.4979 -604.398 0.
179.07 -39.9781 0.
138.856 -132.822 0.
-16.9318 -495.521 0.
695.22 -91.959 0.
617.653 -269.698 0.
309.938 -985.199 0.
739.952 524.786 0.
511.51 -1.55679 0.
249.037 496.087 0.
270.374 105.007 0.
-426.596 -1517.07 0.
685.603 -48.1764 0.
680.003 -58.5584 0.
942.358 556.369 0.
600.687 152.719 0.
743.803 480.706 0.
418.526 -283.724 0.
119.39 -380.677 0.
221.521 -140.507 0.
207.725 -170.612 0.
821.531 837.466 0.
548.211 198.079 0.
416.414 119.202 0.
379.446 35.2515 0.
342.794 -48.9107 0.
527.04 374.682 0.
409.323 102.585 0.
359.131 -12.4987 0.
234.45 -16.9743 0.
-70.4266 -729.173 0.
-34.3584 -643.521 0.
-463.366 -1135.66 0.
-344.347 -856.772 0.
7.62702 -486.53 0.
-291.643 -673.057 0.
-388 -900.341 0.
37.0439 -871.658 0.
40.0606 -863.401 0.
43.0776 -855.145 0.
-265.033 -960.976 0.
-239.478 -906.994 0.
-213.922 -853.012 0.
-123.901 -852.869 0.
-158.065 -933.755 0.
-192.228 -1014.64 0.
69.2475 -925.876 0.
51.7844 -963.693 0.
-134.667 -1064.08 0.
-62.515 -896.657 0.
9.63722 -729.234 0.
-193.962 -743.194 0.
-231.925 -831.745 0.
-269.887 -920.295 0.
329.229 -714.572 0.
303.346 -772.269 0.
277.464 -829.967 0.
-88.4426 -882.701 0.
-5.63899 -690.91 0.
487.492 -322.207 0.
346.813 -521.722 0.
271.751 -697.557 0.
-44.6634 -931.416 0.
-10.392 -851.244 0.
23.879 -771.072 0.
28.9679 -697.189 0.
74.5123 -592.766 0.
120.057 -488.343 0.
103.495 -585.132 0.
-0.611741 -824.458 0.
-104.718 -1063.78 0.
74.0943 -925.017 0.
123.441 -805.934 0.
105.645 -733.462 0.
85.8262 -777.432 0.
66.0078 -821.403 0.
-152.052 -913.174 0.
-113.551 -822.706 0.
-75.0508 -732.238 0.
71.078 -608.555 0.
104.465 -537.408 0.
137.853 -466.26 0.
161.204 -536.583 0.
96.9111 -684.378 0.
1057.63 -392.519 0.
139.407 -736.482 0.
163.502 -677.418 0.
-174.463 -777.731 0.
-156.611 -733.649 0.
-138.759 -689.566 0.
-134.901 -608.506 0.
-66.8728 -447.735 0.
1.15551 -286.965 0.
315.928 -298.345 0.
167.076 -642.394 0.
18.2243 -986.442 0.
188.552 -832.296 0.
252.304 -683.957 0.
45.4422 -668.574 0.
26.5919 -709.383 0.
7.74188 -750.193 0.
-72.7761 -793.232 0.
-50.1819 -738.451 0.
-27.588 -683.67 0.
355.535 -635.182 0.
227.391 -932.069 0.
99.2462 -1228.96 0.
8.76346 -1199.8 0.
87.8866 -1013.17 0.
478.724 -696.524 0.
-249.191 -1047.8 0.
-271.911 -1096.8 0.
107.907 -936.559 0.
166.889 -796.807 0.
225.872 -657.055 0.
387.731 -547.188 0.
365.433 -602.031 0.
343.135 -656.874 0.
32.4939 -755.836 0.
71.6975 -666.518 0.
110.901 -577.2 0.
102.217 -542.938 0.
123.138 -496.827 0.
157.13 -477.99 0.
31.3173 -772.226 0.
-94.4955 -1066.46 0.
-324.256 -1224.21 0.
-184.612 -900.247 0.
-44.9682 -576.284 0.
144.351 -412.657 0.
122.098 -463.952 0.
99.8455 -515.247 0.
-122.741 -775.321 0.
-231.197 -1027.08 0.
-438.416 -648.788 0.
-401.051 -688.761 0.
-497.375 -915.762 0.
59.3406 -830.184 0.
62.0743 -821.453 0.
64.8084 -812.722 0.
-161.689 -884.891 0.
-136.441 -830.995 0.
-111.193 -777.098 0.
-143.881 -831.692 0.
-178.452 -912.207 0.
-213.022 -992.723 0.
-77.3128 -957.597 0.
-94.5983 -995.498 0.
55.2842 -952.646 0.
126.837 -784.48 0.
198.39 -616.314 0.
-77.8271 -662.193 0.
-115.986 -750.679 0.
-154.144 -839.166 0.
534.625 -595.72 0.
508.8 -653.539 0.
482.975 -711.357 0.
-182.503 -890.373 0.
-100.095 -698.567 0.
657.873 -216.15 0.
47.3816 -618.735 0.
-27.1622 -794.797 0.
202.145 -794.456 0.
235.822 -713.503 0.
269.498 -632.55 0.
-168.31 -750.796 0.
-122.775 -646.384 0.
-77.2403 -541.971 0.
131.405 -541.307 0.
27.7758 -781.173 0.
-75.853 -1021.04 0.
63.4726 -897.291 0.
112.528 -777.554 0.
147.646 -685.598 0.
127.841 -729.704 0.
108.036 -773.809 0.
-180.502 -895.134 0.
-141.287 -805.172 0.
-102.071 -715.209 0.
235.101 -505.61 0.
268.617 -434.871 0.
302.134 -364.131 0.
-4.05081 -575.011 0.
-67.9252 -723.09 0.
-1128.55 -1297.01 0.
225.886 -667.048 0.
249.459 -607.652 0.
-338.841 -818.335 0.
-321.213 -774.537 0.
-303.586 -730.739 0.
-24.7582 -529.375 0.
43.125 -368.694 0.
111.008 -208.013 0.
227.227 -304.892 0.
78.5157 -648.709 0.
-70.1951 -992.525 0.
49.4169 -861.569 0.
113.274 -713.357 0.
131.785 -598.457 0.
113.574 -639.715 0.
95.3628 -680.972 0.
29.1201 -717.81 0.
52.1252 -663.238 0.
75.1301 -608.667 0.
242.737 -653.158 0.
113.973 -949.424 0.
-14.7911 -1245.69 0.
41.3146 -1153.76 0.
121.147 -967.66 0.
1048.65 -420.19 0.
-262.079 -1021.95 0.
-284.265 -1071.64 0.
-117.903 -1000.07 0.
-58.7754 -860.608 0.
0.35271 -721.142 0.
511.355 -464.536 0.
488.668 -518.997 0.
465.981 -573.458 0.
143.749 -675.141 0.
183.201 -586.096 0.
222.653 -497.05 0.
-34.8017 -569.24 0.
-13.7268 -522.862 0.
166.498 -442.68 0.
40.8251 -737.015 0.
-84.8481 -1031.35 0.
-506.99 -1270.64 0.
-367.648 -946.854 0.
-228.306 -623.065 0.
258.1 -332.703 0.
235.769 -384.482 0.
213.438 -436.262 0.
120.658 -639.397 0.
12.02 -891.605 0.
-536.612 -1006.2 0.
-504.204 -1034.47 0.
-489.961 -997.37 0.
-7.04551 -761.655 0.
-20.2284 -794.707 0.
-33.4114 -827.76 0.
-102.09 -888.949 0.
-111.586 -909.175 0.
-121.081 -929.4 0.
-209.303 -948.048 0.
-196.165 -918.105 0.
-183.026 -888.162 0.
-42.5226 -704.343 0.
36.2023 -520.063 0.
464.742 -211.319 0.
373.823 -422.123 0.
282.903 -632.927 0.
-105.829 -918.348 0.
-120.424 -950.463 0.
-135.019 -982.579 0.
365.931 -675.367 0.
468.471 -436.217 0.
571.012 -197.066 0.
-115.769 -634.425 0.
-244.152 -933.77 0.
176.654 -997.67 0.
-86.5372 -846.478 0.
51.5941 -523.747 0.
500.946 -183.039 0.
384.649 -457.512 0.
268.353 -731.984 0.
-368.86 -1045.82 0.
-280.749 -837.3 0.
-192.639 -628.78 0.
219.257 -424.104 0.
203.179 -461.783 0.
187.101 -499.461 0.
151.836 -601.591 0.
99.4011 -726.108 0.
95.5469 -808.007 0.
159.554 -658.195 0.
223.562 -508.384 0.
-49.6243 -543.699 0.
-45.5949 -533.732 0.
-41.5652 -523.766 0.
304.111 -314.128 0.
360.841 -179.008 0.
417.571 -43.8892 0.
150.941 -164.057 0.
130.198 -211.937 0.
-1622.14 -1002.62 0.
403.195 -200.67 0.
370.836 -280.851 0.
-330.916 -618.717 0.
-288.837 -526.345 0.
-246.758 -433.973 0.
131.912 -358.242 0.
-20.5496 -716.677 0.
-173.012 -1075.11 0.
-150.503 -1017.37 0.
-39.4707 -759.935 0.
71.5615 -502.503 0.
63.1945 -623.47 0.
-22.0631 -819.492 0.
43.6402 -927.701 0.
55.711 -898.77 0.
67.782 -869.839 0.
6.88632 -909.285 0.
-43.5534 -1028.81 0.
-93.9933 -1148.34 0.
-76.7777 -1070.57 0.
31.7 -822.392 0.
140.178 -574.216 0.
276.985 -485.853 0.
268.217 -506.873 0.
-94.8598 -675.948 0.
-95.8916 -741.781 0.
-131.843 -822.959 0.
-149.837 -896.111 0.
-177.34 -960.385 0.
-204.841 -1024.66 0.
380.061 -768.437 0.
410.361 -697.336 0.
440.66 -626.236 0.
174.22 -722.459 0.
177.658 -710.598 0.
181.096 -698.737 0.
-157.294 -798.729 0.
-134.549 -746.893 0.
98.6129 -589.39 0.
180.72 -397.399 0.
262.828 -205.408 0.
-195.313 -348.735 0.
-265.985 -512.495 0.
-336.657 -676.254 0.
213.485 -474.599 0.
233.338 -430.069 0.
253.19 -385.539 0.
215.77 -388.028 0.
224.178 -366.327 0.
120.775 -696.484 0.
-281.802 -908.726 0.
-266.816 -872.161 0.
-220.032 -820.628 0.
-233.031 -853.641 0.
-246.03 -886.654 0.
-21.5568 -819.996 0.
-30.3661 -841.077 0.
-39.1754 -862.157 0.
-202.305 -915.633 0.
-189.626 -885.488 0.
-176.947 -855.342 0.
-35.9766 -668.581 0.
42.8058 -484.173 0.
536.086 -150.189 0.
444.279 -360.266 0.
352.474 -570.342 0.
6.40724 -841.079 0.
-8.93237 -872.357 0.
-24.2716 -903.636 0.
-124.245 -854.411 0.
-21.9357 -615.443 0.
80.3738 -376.474 0.
-92.7281 -593.036 0.
-221.231 -892.577 0.
-238.682 -1143.9 0.
159.241 -708.967 0.
297.574 -386.255 0.
381.921 -202.475 0.
265.995 -477.1 0.
150.069 -751.725 0.
-317.022 -992.741 0.
-228.571 -784.921 0.
-140.12 -577.102 0.
310.435 -352.386 0.
294.685 -390.447 0.
278.935 -428.507 0.
104.265 -590.262 0.
51.8157 -714.554 0.
90.7984 -778.562 0.
155.383 -629.043 0.
219.969 -479.525 0.
-43.2846 -510.158 0.
-39.4282 -500.346 0.
-35.5717 -490.533 0.
150.467 -347.93 0.
208.156 -213.941 0.
265.845 -79.9518 0.
292.357 -70.9126 0.
271.801 -118.683 0.
-1163.42 -773.506 0.
295.572 -215.377 0.
263.387 -295.451 0.
-316.885 -581.276 0.
-275.692 -488.106 0.
-234.5 -394.936 0.
267.765 -271.353 0.
114.769 -629.305 0.
-38.2279 -987.257 0.
-204.804 -1010.41 0.
-94.5113 -752.394 0.
15.7816 -494.375 0.
21.5354 -610.861 0.
-63.8041 -807.165 0.
117.363 -865.497 0.
128.835 -835.997 0.
140.307 -806.498 0.
77.03 -849.028 0.
26.0434 -967.971 0.
-24.9433 -1086.91 0.
-270.526 -1122.86 0.
-162.274 -874.531 0.
-54.0215 -626.202 0.
157.003 -506.42 0.
147.853 -527.042 0.
158.327 -537.351 0.
62.8195 -643.515 0.
26.788 -724.663 0.
-89.9834 -840.108 0.
-117.906 -903.807 0.
-145.828 -967.506 0.
291.768 -776.207 0.
322.391 -705.148 0.
353.014 -634.091 0.
215.073 -671.18 0.
218.438 -659.623 0.
221.802 -648.067 0.
-45.3733 -721.278 0.
-23.3282 -669.095 0.
114.519 -551.774 0.
196.765 -359.979 0.
279.013 -168.183 0.
-199.742 -318.145 0.
-270.751 -481.676 0.
-341.759 -645.207 0.
173.098 -461.487 0.
193.227 -417.317 0.
213.356 -373.148 0.
-6.46709 -452.262 0.
2.34361 -431.165 0.
1120.36 138.882 0.
270.037 12.9873 0.
-317.509 -1356.43 0.
-359.979 -721.558 0.
136.356 438.889 0.
-14.158 90.0851 0.
990.632 1420.13 0.
395.049 30.9169 0.
203.079 -415.731 0.
216.096 84.741 0.
281.114 237.446 0.
225.777 109.313 0.
171.644 -170.569 0.
-44.4985 -675.216 0.
962.167 752.842 0.
828.22 439.47 0.
482.081 -367.952 0.
277.428 -391.253 0.
664.893 514.625 0.
625.259 422.916 0.
-357.467 -439.287 0.
-137.162 70.867 0.
-42.4705 287.67 0.
-146.472 -739.452 0.
-72.1494 -559.25 0.
964.96 259.748 0.
657.553 24.5077 0.
798.552 354.654 0.
468.174 250.136 0.
580.274 506.379 0.
281.413 -195.501 0.
84.9885 -118.032 0.
211.054 175.984 0.
261.378 293.492 0.
716.815 446.343 0.
793.94 627.505 0.
608.452 195.644 0.
487.531 425.869 0.
413.54 247.403 0.
397.286 -30.12 0.
-50.6348 -1078.51 0.
212.616 -467.583 0.
170.007 3.34445 0.
231.468 147.831 0.
5.2237 -378.891 0.
234.067 160.77 0.
249.47 200.719 0.
362.343 468.157 0.
903.445 1106.93 0.
1059.29 1469.45 0.
-2616.37 -572.373 0.
536.67 595.6 0.
392.284 255.389 0.
-196.898 -291.967 0.
-57.9518 29.4253 0.
87.2479 365.223 0.
410.683 -163.095 0.
134.121 -810.234 0.
185.117 -692.912 0.
211.724 89.6225 0.
319.418 341.323 0.
294.4 283.294 0.
198.775 -94.2094 0.
235.973 -1.02193 0.
229.612 -709.406 0.
276.858 -597.005 0.
729.034 460.547 0.
409.081 -173.124 0.
507.325 58.0713 0.
748.097 622.132 0.
200.946 363.243 0.
342.639 696 0.
-32.5305 -178.24 0.
398.365 305.981 0.
590.869 759.401 0.
269.694 180.116 0.
857.683 940.768 0.
290.426 -383.103 0.
177.831 -293.173 0.
222.558 -191.167 0.
307.09 4.05264 0.
397.978 -340.372 0.
376.283 -383.492 0.
698.432 376.762 0.
801.647 653.849 0.
406.251 -270.69 0.
351.791 -399.336 0.
698.933 837.001 0.
888.448 1284.4 0.
115.787 -548.172 0.
594.248 568.765 0.
394.835 102.66 0.
-232.427 -343.559 0.
-109.55 -57.6762 0.
-187.618 -241.205 0.
50.2192 -651.751 0.
493.937 387.313 0.
273.211 -124.433 0.
480.287 1116.72 0.
-65.0264 -162.189 0.
-20.6273 -592.916 0.
190.287 -460.145 0.
191.567 -454.631 0.
-352.858 -717.688 0.
-405.297 -840.045 0.
-457.736 -962.401 0.
20.681 -782.73 0.
48.5398 -716.898 0.
76.3977 -651.067 0.
108.571 -553.163 0.
167.085 -417.717 0.
225.599 -282.271 0.
-63.6092 -576.352 0.
-172.865 -834.16 0.
173.238 -877.666 0.
181.599 -863.42 0.
189.961 -849.174 0.
39.6933 -845.163 0.
137.06 -619.521 0.
234.426 -393.878 0.
-267.363 -557.75 0.
-302.862 -642.131 0.
-338.361 -726.512 0.
-67.9533 -525.544 0.
3.55633 -356.64 0.
420.987 -39.6859 0.
494.916 -195.651 0.
396.848 -423.067 0.
4.82407 -709.775 0.
48.4669 -606.973 0.
92.1095 -504.173 0.
-50.861 -559.839 0.
-87.511 -646.41 0.
-124.161 -732.982 0.
130.824 -564.85 0.
187.48 -429.033 0.
244.135 -293.215 0.
48.6564 -412.525 0.
23.7622 -473.021 0.
184.991 -452.844 0.
164.837 -500.994 0.
144.682 -549.144 0.
-197.02 -719.371 0.
-192.588 -710.448 0.
-188.156 -701.525 0.
-13.045 -636.883 0.
-27.811 -668.004 0.
-42.577 -699.124 0.
212.014 -498.224 0.
279.937 -341.388 0.
-4100.61 -2092.78 0.
239.082 -140.587 0.
287.432 -26.9399 0.
-22.4646 -116.507 0.
-93.789 -282.037 0.
-165.114 -447.566 0.
60.6364 -479.665 0.
0.226007 -621.441 0.
-60.1843 -763.218 0.
-23.4294 -740.767 0.
15.2293 -652.511 0.
53.8885 -564.253 0.
-64.1817 -591.737 0.
-59.7363 -578.812 0.
186.319 -462.948 0.
187.102 -460.385 0.
187.886 -457.822 0.
301.617 -433.875 0.
258.15 -534.167 0.
214.682 -634.459 0.
-186.056 -736.477 0.
-92.1219 -511.779 0.
1.81226 -287.082 0.
192.145 -336.124 0.
75.1624 -605.709 0.
296.712 -725.346 0.
52.9677 -638.348 0.
154.714 -401.911 0.
197.902 -276.272 0.
111.566 -481.352 0.
25.2296 -686.432 0.
258.762 -653.986 0.
291.187 -575.487 0.
323.612 -496.989 0.
142.237 -506.573 0.
176.936 -430.093 0.
211.634 -353.612 0.
112.9 -491.976 0.
53.9361 -627.042 0.
-64.5469 -761.288 0.
-11.5728 -635.869 0.
41.4016 -510.45 0.
-280.62 -564.649 0.
-253.296 -503.205 0.
-225.972 -441.76 0.
184.769 -313.037 0.
122.526 -457.164 0.
60.2839 -601.291 0.
-48.7707 -670.794 0.
-47.3208 -669.812 0.
-359.12 -711.796 0.
357.328 -359.403 0.
358.515 -353.755 0.
-328.272 -675.16 0.
-379.674 -798.312 0.
-431.078 -921.463 0.
5.22401 -756.201 0.
34.1437 -690.993 0.
63.0626 -625.785 0.
328.398 -426.375 0.
387.031 -290.953 0.
445.664 -155.53 0.
-118.459 -567.002 0.
-227.539 -825.119 0.
80.8167 -886.405 0.
88.563 -871.738 0.
96.3098 -857.072 0.
7.8111 -827.865 0.
104.885 -602.203 0.
201.958 -376.541 0.
-80.7058 -446.521 0.
-115.969 -531.164 0.
-151.232 -615.808 0.
-64.2434 -493.046 0.
7.79096 -324.359 0.
-427.232 -373.321 0.
425.385 -193.019 0.
328.191 -421.123 0.
-44.383 -699.573 0.
-0.691691 -596.781 0.
42.9995 -493.991 0.
26.3693 -496.078 0.
-10.6608 -582.095 0.
-47.6908 -668.113 0.
-35.2204 -605.92 0.
21.6334 -470.89 0.
78.4872 -335.86 0.
-33.9231 -415.731 0.
-58.8443 -476.433 0.
160.813 -431.454 0.
141.071 -480.197 0.
121.329 -528.94 0.
-247.324 -709.748 0.
-242.946 -701.248 0.
-238.568 -692.748 0.
115.924 -549.542 0.
101.692 -581.457 0.
87.4595 -613.372 0.
221.985 -462.24 0.
290.23 -305.582 0.
-1493.78 -942.877 0.
277.804 -91.3533 0.
326.591 22.114 0.
111.28 -28.3603 0.
40.0491 -193.713 0.
-31.1819 -359.066 0.
-184.312 -553.532 0.
-244.551 -695.455 0.
-304.79 -837.378 0.
140.117 -638.743 0.
178.998 -550.495 0.
217.88 -462.247 0.
-109.388 -579.79 0.
-104.933 -566.965 0.
17.8028 -504.222 0.
18.2928 -501.525 0.
18.7834 -498.828 0.
326.023 -392.958 0.
282.346 -493.417 0.
238.67 -593.876 0.
-66.8015 -653.685 0.
27.1198 -429.621 0.
121.041 -205.558 0.
289.948 -264.271 0.
172.839 -533.918 0.
78.8448 -787.052 0.
-88.6979 -665.775 0.
12.7215 -428.926 0.
227.989 -234.928 0.
141.558 -439.33 0.
55.1273 -643.732 0.
272.179 -616.449 0.
305.266 -538.061 0.
338.353 -459.674 0.
-40.1035 -554.092 0.
-5.34764 -477.568 0.
29.4083 -401.045 0.
111.775 -460.302 0.
53.5264 -595.932 0.
-163.709 -770.598 0.
-110.441 -645.652 0.
-57.1733 -520.705 0.
-205.845 -502.561 0.
-178.781 -441.03 0.
-151.716 -379.498 0.
190.796 -277.971 0.
128.745 -422.514 0.
66.6945 -567.057 0.
257.213 -510.627 0.
257.895 -508.846 0.
-722.555 -715.801 0.
313.063 -253.775 0.
317.418 -245.115 0.
-203.014 -487.03 0.
-255.185 -604.884 0.
-307.356 -722.738 0.
98.781 -583.208 0.
121.368 -528.179 0.
143.955 -473.15 0.
426.903 -358.24 0.
407.776 -400.961 0.
388.649 -443.682 0.
-160.871 -628.887 0.
-123.717 -544.478 0.
208.159 -329.899 0.
234.131 -271.254 0.
260.102 -212.609 0.
187.763 -247.109 0.
142.451 -354.454 0.
97.1398 -461.8 0.
-41.2995 -636.988 0.
-112.609 -803.445 0.
-183.919 -969.902 0.
-216.111 -926.365 0.
-160.858 -797.313 0.
120.522 -569.752 0.
187.534 -556.42 0.
176.17 -579.322 0.
-71.9844 -679.463 0.
-33.5792 -590.27 0.
4.82594 -501.078 0.
18.2975 -462.149 0.
12.7131 -472.732 0.
7.12864 -483.315 0.
-83.2259 -600.348 0.
-141.424 -737.275 0.
-199.621 -874.202 0.
-221.155 -809.138 0.
-170.487 -690.047 0.
98.4574 -482.143 0.
135.682 -391.951 0.
172.905 -301.759 0.
-41.0002 -369.167 0.
-77.9462 -455.915 0.
-114.891 -542.662 0.
61.9754 -427.05 0.
133.242 -259.303 0.
204.508 -91.5554 0.
431.801 -2.72148 0.
410.046 -53.9099 0.
570.621 -25.5397 0.
311.666 -63.4095 0.
349.426 25.6935 0.
144.455 -38.6974 0.
66.3483 -223.487 0.
-11.7588 -408.277 0.
-248.696 -538.545 0.
-185.867 -392.933 0.
-123.037 -247.32 0.
359.714 -100.958 0.
280.502 -286.146 0.
201.289 -471.334 0.
-163.361 -671.325 0.
-176.324 -701.494 0.
-110.233 -689.429 0.
-90.4566 -644.037 0.
-70.6802 -598.646 0.
283.596 -409.798 0.
309.387 -350.057 0.
335.178 -290.316 0.
97.9652 -385.915 0.
76.9137 -440.65 0.
55.862 -495.385 0.
139.943 -536.892 0.
97.0814 -639.144 0.
-465.764 -966.558 0.
-146.286 -740.134 0.
-97.5835 -629.239 0.
112.289 -451.876 0.
148.715 -366.889 0.
185.141 -281.903 0.
406.786 -296.805 0.
238.707 -690.181 0.
70.6276 -1083.56 0.
-386.306 -1142.98 0.
-202.794 -710.707 0.
-19.2812 -278.436 0.
128.232 -261.451 0.
79.8366 -374.298 0.
-135.847 -548.173 0.
-153.741 -593.555 0.
-171.635 -638.936 0.
-164.308 -621.168 0.
-99.2424 -469.876 0.
-34.1761 -318.585 0.
216.438 -215.646 0.
161.557 -344.631 0.
106.677 -473.617 0.
219.4 -442.556 0.
224.295 -433.687 0.
662.663 -94.0587 0.
-47.1666 -378.912 0.
-42.967 -370.139 0.
-108.455 -414.651 0.
-160.213 -532.889 0.
-211.972 -651.126 0.
186.183 -513.158 0.
209.025 -458.286 0.
231.868 -403.413 0.
409.452 -335.067 0.
391.181 -378.803 0.
372.911 -422.539 0.
-107.926 -572.853 0.
-70.3735 -489.032 0.
58.0836 -363.271 0.
83.9205 -304.495 0.
109.757 -245.719 0.
93.6584 -254.339 0.
48.3165 -362.144 0.
2.97429 -469.949 0.
104.645 -543.268 0.
33.1389 -709.521 0.
-38.3674 -875.775 0.
-108.684 -847.652 0.
-53.6651 -718.173 0.
1021.57 -149.464 0.
95.6292 -564.774 0.
84.4709 -587.91 0.
-82.581 -652.565 0.
-44.1493 -563.5 0.
-5.7176 -474.434 0.
-79.8044 -472.78 0.
-85.4268 -483.552 0.
-91.0492 -494.325 0.
-10.7786 -539.096 0.
-69.1658 -676.225 0.
-127.553 -813.355 0.
-148.269 -745.657 0.
-97.1779 -627.067 0.
47.6558 -470.654 0.
85.3554 -381.108 0.
123.055 -291.562 0.
180.383 -242.552 0.
143.474 -330.147 0.
106.566 -417.741 0.
-285.207 -543.6 0.
-214.164 -376.025 0.
-143.121 -208.45 0.
501.399 58.8011 0.
479.549 7.52671 0.
-2521.02 -1319.21 0.
332.669 -22.8069 0.
370.145 66.2123 0.
152.441 -5.13994 0.
74.1819 -189.891 0.
-4.07737 -374.642 0.
-158.048 -467.517 0.
-95.1531 -321.947 0.
-32.2581 -176.376 0.
203.129 -135.987 0.
124.626 -321.45 0.
46.124 -506.913 0.
-108.948 -615.818 0.
-121.4 -646.619 0.
-32.7333 -624.465 0.
-12.7921 -579.202 0.
7.14901 -533.939 0.
203.735 -412.07 0.
228.861 -352.129 0.
253.987 -292.189 0.
135.5 -339.769 0.
113.861 -394.621 0.
92.2215 -449.473 0.
11.1652 -562.367 0.
-31.9331 -664.692 0.
89.8806 -695.93 0.
-37.1289 -660.375 0.
11.4632 -549.484 0.
59.0285 -444.64 0.
95.2717 -359.722 0.
131.515 -274.804 0.
423.084 -255.874 0.
255.074 -649.148 0.
87.0637 -1042.42 0.
-406.726 -1120.93 0.
-222.669 -688.824 0.
-38.6116 -256.723 0.
-8.61302 -286.643 0.
-57.2313 -399.022 0.
-159.457 -527.951 0.
-177.572 -573.011 0.
-195.688 -618.071 0.
12.5815 -516.157 0.
77.6546 -364.685 0.
142.728 -213.213 0.
229.761 -178.694 0.
175.288 -307.974 0.
120.816 -437.256 0.
-200.362 -592.477 0.
-195.095 -584.394 0.
609.771 411.147 0.
-435.735 -573.38 0.
-113.729 175.515 0.
207.09 176.039 0.
140.76 25.5368 0.
343.633 502.15 0.
221.333 -565.419 0.
696.703 546.822 0.
350.52 -257.615 0.
567.689 99.87 0.
587.189 146.002 0.
364.15 -373.646 0.
31.2111 -322.078 0.
173.552 13.0184 0.
-36.0723 -263.305 0.
402.922 758.776 0.
114.732 84.4497 0.
141.253 62.6976 0.
-41.536 -361.43 0.
53.0225 -139.266 0.
285.385 -357.888 0.
365.767 -174.324 0.
570.876 300.416 0.
83.7767 -558.301 0.
295.843 -61.3287 0.
535.241 866.703 0.
378.826 297.767 0.
206.309 -103.929 0.
-57.9396 -542.09 0.
159.448 -36.7116 0.
373.21 460.751 0.
-165.611 -456.655 0.
-229.113 -604.035 0.
-229.992 -604.916 0.
363.636 217.008 0.
343.283 168.893 0.
-40.9409 -727.427 0.
587.695 862.358 0.
568.213 817.013 0.
188.28 -0.796081 0.
187.23 -6.48059 0.
253.743 145.625 0.
504.72 124.806 0.
531.048 183.536 0.
404.919 -113.199 0.
-427.245 -185.493 0.
-220.257 294.862 0.
-727.46 -891.182 0.
390.395 -294.177 0.
334.306 -430.185 0.
-1835.95 -1850.39 0.
302.144 -87.4494 0.
363.383 54.8021 0.
77.9174 -173.695 0.
204.223 120.715 0.
262.556 257.124 0.
264.561 384.42 0.
405.155 710.613 0.
297.938 458.649 0.
8.0333 -261.274 0.
149.841 67.36 0.
456.864 781.26 0.
58.3003 -305.222 0.
164.88 -58.495 0.
513.143 538.627 0.
216.317 -156.048 0.
94.9012 -441.345 0.
295.176 -16.5734 0.
366.792 153.307 0.
271.566 -65.8348 0.
159.958 -327.669 0.
280.75 -45.2308 0.
339.753 93.9211 0.
-178.402 -739.959 0.
-61.0384 -459.317 0.
-137.343 -552.009 0.
849.598 1226.98 0.
310.101 -33.3005 0.
390.101 476.583 0.
327.379 325.855 0.
25.5432 -382.613 0.
422.888 -244.728 0.
713.127 430.912 0.
368.309 -375.335 0.
-48.408 -212.985 0.
174.782 306.006 0.
-345.638 -909.971 0.
-271.396 -611.139 0.
-69.267 -137.441 0.
115.53 191.088 0.
396.405 846.5 0.
-86.4237 -280.161 0.
-25.2553 -917.801 0.
491.543 291.087 0.
475.993 257.547 0.
564.632 610.37 0.
479.442 414.635 0.
639.218 789.33 0.
-316.929 -57.3321 0.
-165.541 296.899 0.
398.859 -497.021 0.
-458.29 -740.07 0.
-370.316 -534.2 0.
49.0679 -200.944 0.
91.6114 -99.2128 0.
134.155 2.51814 0.
187.443 -7.7049 0.
90.1148 -234.471 0.
-7.21442 -461.237 0.
286.017 -367.707 0.
308.313 -312.418 0.
330.608 -257.129 0.
-42.4733 -432.021 0.
-58.2355 -464.056 0.
-18.7664 -477.641 0.
-15.352 -469.845 0.
-11.938 -462.048 0.
-1.88937 -456.474 0.
-14.1045 -479.925 0.
-26.3197 -503.375 0.
17.6359 -514.018 0.
-4.09004 -564.053 0.
-25.8163 -614.088 0.
51.3486 -556.679 0.
77.795 -494.06 0.
-30.4026 -489.219 0.
147.564 -457.294 0.
118.618 -524.42 0.
-137.988 -677.398 0.
-120.752 -638.56 0.
-103.516 -599.722 0.
-82.5935 -574.479 0.
-85.6482 -584.756 0.
-88.7027 -595.034 0.
-23.4679 -531.931 0.
5.18498 -464.155 0.
33.8377 -396.38 0.
82.0418 -310.472 0.
115.818 -229.578 0.
105.887 -196.274 0.
-0.869183 -442.02 0.
-107.626 -687.765 0.
88.8578 -702.259 0.
143.275 -574.97 0.
197.693 -447.68 0.
-423.986 -692 0.
-444.638 -745.763 0.
-465.289 -799.525 0.
85.6166 -461.236 0.
160.56 -288.058 0.
-2161.38 -1144.02 0.
273.461 -210.632 0.
217.944 -344.008 0.
-197.758 -580.094 0.
-132.603 -427.899 0.
-67.4471 -275.705 0.
126.991 -108.057 0.
150.606 -52.6186 0.
174.221 2.82036 0.
9.58668 -188.346 0.
-100.909 -441.333 0.
-211.405 -694.319 0.
137.657 -334.331 0.
275.869 -11.574 0.
258.215 193.75 0.
160.853 -37.536 0.
63.4909 -268.823 0.
-101.743 -495.105 0.
-148.607 -603.872 0.
-195.471 -712.64 0.
133.024 -537.055 0.
208.467 -362.162 0.
283.91 -187.268 0.
255.324 -169.156 0.
253.53 -172.323 0.
749.259 36.643 0.
-40.7268 -602.44 0.
-199.659 -973.225 0.
-206.651 -1206.82 0.
-195.993 -1184.4 0.
-185.334 -1161.97 0.
-61.4266 -923.695 0.
143.747 -440.864 0.
348.919 41.9651 0.
-0.837583 -132.198 0.
-124.156 -420.363 0.
-247.475 -708.528 0.
-119.049 -529.772 0.
-32.8677 -327.452 0.
-96.7189 -224.499 0.
-153.119 -355.964 0.
-209.52 -487.429 0.
-102.049 -520.046 0.
-118.892 -558.65 0.
-135.736 -597.254 0.
52.9869 -479.878 0.
101.345 -364.448 0.
149.704 -249.019 0.
-263.94 -538.522 0.
-354.938 -746.528 0.
1422.61 -24.8124 0.
-384.868 -676.496 0.
-296.796 -470.643 0.
70.1148 -161.552 0.
112.369 -59.8055 0.
154.624 41.9406 0.
-126.755 -110.821 0.
-223.745 -337.96 0.
-320.736 -565.1 0.
202.526 -372.104 0.
225.05 -317.474 0.
247.575 -262.843 0.
-60.597 -408.283 0.
-75.9031 -441.124 0.
132.12 -379.365 0.
135.906 -372.075 0.
139.692 -364.784 0.
112.981 -373.808 0.
100.94 -397.513 0.
88.8983 -421.218 0.
-214.901 -583.185 0.
-236.193 -633.89 0.
-257.485 -684.595 0.
27.9415 -534.342 0.
55.3501 -471.972 0.
-991.561 -869.953 0.
273.414 -371.17 0.
244.92 -438.454 0.
-146.505 -648.724 0.
-128.917 -609.906 0.
-111.33 -571.087 0.
95.628 -467.159 0.
92.4915 -477.478 0.
89.3552 -487.797 0.
-89.0872 -529.686 0.
-60.6429 -461.836 0.
-32.1988 -393.988 0.
98.8381 -270.318 0.
132.455 -189.588 0.
118.388 -160.093 0.
11.2179 -405.941 0.
-95.9519 -651.788 0.
28.8475 -696.745 0.
83.0415 -569.716 0.
137.236 -442.687 0.
-135.983 -537.897 0.
-157.285 -591.157 0.
-178.586 -644.417 0.
-185.805 -546.445 0.
-111.29 -373.235 0.
-1553.67 -852.137 0.
320.623 -159.52 0.
265.159 -293.285 0.
-307.129 -592.795 0.
-240.993 -441.625 0.
-174.857 -290.455 0.
238.255 -29.3701 0.
262.26 25.8695 0.
286.265 81.1091 0.
-14.7381 -166.229 0.
-124.552 -419.646 0.
-234.365 -673.063 0.
266.161 -246.668 0.
404.651 75.53 0.
147.307 179.531 0.
50.089 -52.5217 0.
-47.129 -284.575 0.
-317.491 -555.804 0.
-364.622 -664.978 0.
-411.753 -774.152 0.
228.025 -464.534 0.
303.72 -289.907 0.
379.416 -115.28 0.
499.235 -33.8574 0.
497.527 -37.1931 0.
-134.673 -310.542 0.
-151.396 -617.731 0.
-310.441 -988.441 0.
-38.4645 -1102.34 0.
-27.1479 -1080.42 0.
-15.8309 -1058.51 0.
-283.75 -985.704 0.
-78.759 -502.736 0.
126.231 -19.7692 0.
32.2903 -86.7419 0.
-91.0536 -374.656 0.
-214.397 -662.57 0.
42.0318 -429.928 0.
128.742 -227.899 0.
-126.875 -204.925 0.
-182.721 -337.006 0.
-238.568 -469.087 0.
-387.267 -609.71 0.
-403.933 -648.082 0.
-420.599 -686.453 0.
15.4105 -464.715 0.
63.7459 -349.202 0.
112.081 -233.689 0.
68.8589 -365.982 0.
-22.9209 -573.866 0.
-65.8495 -495.83 0.
-241.448 -489.317 0.
-210.046 -417.261 0.
-25.8583 -305.977 0.
-60.3204 -388.819 0.
-94.7828 -471.661 0.
-353.233 -580.197 0.
-309.711 -474.185 0.
-266.19 -368.173 0.
114.184 -250.905 0.
56.6221 -388.041 0.
-0.939678 -525.178 0.
-105.103 -491.119 0.
-54.9058 -373.222 0.
209.265 -186.132 0.
157.143 -307.774 0.
105.021 -429.416 0.
11.7916 -547.811 0.
-1.86905 -581.872 0.
-15.5297 -615.933 0.
-341.517 -752.862 0.
-326.093 -718.235 0.
-310.668 -683.608 0.
37.4405 -548.566 0.
21.9732 -581.56 0.
259.05 -505.936 0.
230.728 -373.332 0.
305.658 -192.373 0.
15.4851 -228.933 0.
-79.2659 -448.745 0.
-174.017 -668.557 0.
20.7739 -630.039 0.
96.2787 -451.197 0.
171.783 -272.355 0.
55.0984 -266.607 0.
57.3239 -258.766 0.
59.549 -250.926 0.
17.4767 -478.126 0.
-105.244 -767.923 0.
-290.123 -1024.58 0.
-139.505 -678.941 0.
11.1136 -333.303 0.
274.428 -95.1723 0.
173.162 -331.913 0.
71.8962 -568.653 0.
-56.3058 -547.699 0.
97.5696 -187.79 0.
251.445 172.119 0.
-16.8234 -14.7495 0.
-108.259 -227.154 0.
-500.095 -570.219 0.
292.748 -166.037 0.
325.807 -88.1224 0.
-155.683 -237.291 0.
-128.499 -172.192 0.
-101.315 -107.093 0.
291.249 37.8097 0.
227.097 -112.151 0.
162.946 -262.111 0.
-72.998 -303.242 0.
8.96465 -113.561 0.
90.9274 76.1197 0.
315.701 10.8765 0.
206.006 -241.363 0.
-252.586 -611.737 0.
-223.362 -537.805 0.
-194.138 -463.873 0.
-120.306 -415.392 0.
-148.039 -480.335 0.
-175.77 -545.278 0.
83.6734 -536.493 0.
5.26802 -716.557 0.
-73.1367 -896.621 0.
284.006 -619.2 0.
390.68 -367.177 0.
396.577 -156.151 0.
-137.857 -570.131 0.
-234.905 -795.602 0.
161.07 -738.185 0.
216.717 -603.647 0.
272.363 -469.11 0.
-278.652 -607.025 0.
-231.024 -496.595 0.
-183.395 -386.166 0.
47.1306 -256.286 0.
46.5758 -255.812 0.
46.0208 -255.337 0.
119.953 -248.413 0.
106.538 -281.445 0.
-251.887 -440.048 0.
-168.542 -245.424 0.
-85.1984 -50.7991 0.
-228.83 -78.4841 0.
-335.474 -328.059 0.
-442.118 -577.633 0.
-16.1914 -427.624 0.
35.2249 -308.001 0.
86.641 -188.378 0.
157.952 -192.581 0.
119.914 -284.983 0.
413.492 -259.216 0.
-122.93 -407.882 0.
-91.5762 -335.554 0.
-93.0851 -304.482 0.
-127.464 -387.284 0.
-161.844 -470.087 0.
-81.1185 -431.178 0.
-37.6306 -325.396 0.
5.85695 -219.615 0.
-118.361 -321.159 0.
-176.5 -457.535 0.
-234.638 -593.911 0.
-73.183 -446.08 0.
-22.9431 -327.984 0.
73.7989 -214.31 0.
21.5807 -335.952 0.
-30.6373 -457.594 0.
-134.956 -577.959 0.
-148.389 -612.116 0.
-161.822 -646.273 0.
-209.976 -666.138 0.
-194.281 -631.819 0.
-178.585 -597.5 0.
129.42 -478.59 0.
113.41 -510.761 0.
645.339 -306.84 0.
42.0262 -422.472 0.
117.294 -241.769 0.
9.50104 -201.635 0.
-85.1679 -421.448 0.
-179.837 -641.26 0.
-143.338 -667.8 0.
-67.606 -489.452 0.
8.12576 -311.103 0.
233.166 -158.471 0.
235.465 -150.726 0.
237.764 -142.981 0.
48.1511 -432.583 0.
-74.8309 -722.53 0.
-345.378 -1017.32 0.
-195.209 -671.594 0.
-45.0394 -325.863 0.
339.843 -35.0719 0.
238.241 -271.7 0.
136.638 -508.328 0.
-108.312 -540.206 0.
45.7109 -180.493 0.
199.734 179.219 0.
121.66 77.0162 0.
30.5385 -135.984 0.
-1194.66 -835.652 0.
229.891 -161.32 0.
263.425 -83.7409 0.
-23.8438 -145.711 0.
4.33091 -81.5268 0.
32.5058 -17.3427 0.
268.665 59.3058 0.
204.592 -90.809 0.
140.518 -240.924 0.
-5.82226 -241.468 0.
75.9485 -51.4463 0.
157.719 138.576 0.
89.0037 -55.625 0.
-20.8192 -307.686 0.
-279.215 -591.64 0.
-249.755 -518.315 0.
-220.294 -444.992 0.
469.613 -129.62 0.
441.928 -194.901 0.
414.245 -260.182 0.
-260.294 -653.059 0.
-337.919 -833.683 0.
-415.545 -1014.31 0.
168.253 -636.829 0.
274.857 -384.778 0.
953.59 112.668 0.
-16.0609 -486.833 0.
-113.417 -711.403 0.
119.3 -725.259 0.
175.533 -590.811 0.
231.765 -456.364 0.
-407.635 -631.597 0.
-359.447 -521.523 0.
-311.26 -411.449 0.
259.617 -132.341 0.
259.214 -132.273 0.
258.812 -132.205 0.
-6.2492 -269.97 0.
-19.6018 -303.246 0.
-248.174 -408.278 0.
-164.925 -213.262 0.
-81.6771 -18.2445 0.
-88.0462 13.2817 0.
-194.759 -236.038 0.
-301.472 -485.357 0.
-65.449 -416.989 0.
-14.2985 -297.037 0.
36.8518 -177.085 0.
-97.8485 -272.617 0.
-135.752 -365.334 0.
-1106.96 -651.445 0.
-231.399 -857.886 0.
221.532 198.13 0.
157.132 425.222 0.
-402.13 -874.578 0.
-68.7176 -94.2031 0.
327.183 27.347 0.
330.258 35.1311 0.
340.775 59.6166 0.
25.3283 488.034 0.
98.1791 654.745 0.
-23.8775 367.129 0.
223.138 209.703 0.
84.9449 -113.418 0.
-249.783 -689.784 0.
276.897 542.279 0.
559.177 1204.66 0.
105.19 289.589 0.
52.942 165.034 0.
28.6218 106.76 0.
271.546 229.69 0.
100.149 -170.48 0.
81.9504 -214.315 0.
492.431 222.884 0.
666.063 630.678 0.
727.309 -237.739 0.
-99.2436 -365.417 0.
87.4459 69.0854 0.
127.033 100.285 0.
159.584 181.844 0.
101.408 52.1624 0.
-14.8669 -18.8787 0.
-32.896 -61.5723 0.
-113.921 -251.699 0.
373.026 -145.542 0.
193.414 -563.56 0.
94.0525 -794.187 0.
1.96905 -560.164 0.
397.966 363.083 0.
88.6369 127.295 0.
105.565 167.649 0.
218.644 432.394 0.
660.048 620.619 0.
360.13 -78.5298 0.
196.6 -459.441 0.
-17.5444 -196.373 0.
-11.7306 -184.691 0.
21.1957 -109.626 0.
-2.18853 -453.231 0.
236.97 103.526 0.
-635.787 -252.955 0.
263.139 87.1019 0.
309.847 194.65 0.
207.819 170.011 0.
-201.379 -781.957 0.
298.256 386.494 0.
762.815 1280.78 0.
376.938 381.874 0.
-141.252 -825.844 0.
-290.317 -1001.27 0.
-154.416 -683.747 0.
-170.362 -720.648 0.
200.208 663.538 0.
383.197 1090.25 0.
265.65 766.424 0.
197.003 605.536 0.
4.05531 155.117 0.
1076.42 194.177 0.
811.561 -429.661 0.
1146.37 345.975 0.
-226.32 102.888 0.
-462.505 -449.534 0.
-763.287 -1152.72 0.
190.419 -329.847 0.
351.999 50.1954 0.
-435.89 -567.659 0.
175.64 -243.455 0.
186.666 -217.569 0.
223.176 -369.653 0.
285.749 -223.76 0.
110.621 -632.16 0.
-178.423 177.123 0.
-568.711 -729.858 0.
-280.633 -54.5971 0.
840.192 855.001 0.
692.814 511.14 0.
407.219 -155.217 0.
22.8751 64.8461 0.
143.797 348.567 0.
91.6608 412.283 0.
-33.5217 122.851 0.
-35.5915 118.834 0.
170.408 381.797 0.
119.706 266.56 0.
-430.357 -1014.01 0.
103.311 108.795 0.
124.029 158.809 0.
124.543 159.311 0.
-417.642 -509.455 0.
-384.822 -434.078 0.
-291.315 -552.013 0.
67.1545 -425.333 0.
54.0005 -454.761 0.
-157.599 -532.48 0.
-92.7326 -379.151 0.
-27.8674 -225.821 0.
218.683 -23.9511 0.
253.925 54.5673 0.
289.166 133.087 0.
-245.775 -163.715 0.
-316.84 -331.41 0.
-387.905 -499.106 0.
12.1553 -493.329 0.
-75.6687 -698.314 0.
-289.758 -917.881 0.
-195.95 -698.549 0.
-102.143 -479.216 0.
-315.004 -442.787 0.
-299.94 -408.82 0.
-284.875 -374.853 0.
99.5483 -196.804 0.
98.6813 -196.886 0.
97.8143 -196.968 0.
107.976 -151.076 0.
138.725 -84.3437 0.
270.026 25.6021 0.
-103.529 -408.24 0.
-247.11 -747.236 0.
-240.324 -881.221 0.
-39.6651 -414.387 0.
160.995 52.4468 0.
233.379 192.523 0.
114.852 -87.2117 0.
-3.67363 -366.947 0.
68.0845 -342.301 0.
123.626 -214.768 0.
179.168 -87.2357 0.
384.451 37.2767 0.
401.437 78.2172 0.
-41.3513 -95.0309 0.
-107.458 -247.345 0.
-173.564 -399.66 0.
122.338 -286.049 0.
238.153 -16.1418 0.
353.968 253.766 0.
219.652 174.324 0.
101.212 -103.108 0.
-17.2277 -380.539 0.
172.451 -257.565 0.
235.953 -109.702 0.
-947.274 -497.063 0.
172.175 50.5798 0.
206.273 132.22 0.
220.045 161.863 0.
140.712 -16.8896 0.
61.3805 -195.642 0.
89.5199 -212.604 0.
149.481 -73.9203 0.
209.442 64.7638 0.
138.214 -2.29515 0.
81.6385 -133.749 0.
25.0632 -265.202 0.
-118.897 -331.337 0.
-116.17 -325.398 0.
5.29578 -280.399 0.
-56.0491 -423.891 0.
-117.394 -567.382 0.
397.299 -333.797 0.
532.726 -19.8054 0.
668.153 294.186 0.
77.5394 78.9494 0.
8.61017 -79.9474 0.
-60.3184 -238.844 0.
155.376 -212.07 0.
128.053 -277.318 0.
-424.36 -564.627 0.
-22.6847 -233.116 0.
63.4907 -35.6752 0.
320.481 155.178 0.
210.291 -102.931 0.
100.1 -361.041 0.
-250.567 -603.951 0.
-222.033 -537.385 0.
-193.499 -470.821 0.
138.605 -277.871 0.
167.066 -208.805 0.
195.526 -139.74 0.
-159.61 -357.381 0.
-203.543 -457.794 0.
-322.6 -580.149 0.
-320.846 -578.029 0.
-319.093 -575.908 0.
-293.322 -548.181 0.
-270.512 -494.564 0.
-247.703 -440.946 0.
-217.104 -400.109 0.
-209.566 -385.689 0.
-202.029 -371.268 0.
-210.05 -198.554 0.
-92.6495 72.2648 0.
525.937 -165.816 0.
219.869 -328.85 0.
206.942 -358.234 0.
-26.3978 -444.714 0.
39.0675 -291.502 0.
104.532 -138.289 0.
132.639 -27.8609 0.
168.914 50.0567 0.
205.189 127.976 0.
-219.569 -122.351 0.
-291.257 -289.933 0.
-362.946 -457.515 0.
139.725 -407.516 0.
51.716 -613.144 0.
-197.377 -845.517 0.
-103.218 -626.75 0.
-9.05971 -407.984 0.
-425.651 -459.446 0.
-410.919 -425.231 0.
-396.187 -391.017 0.
125.672 -154.549 0.
124.797 -154.325 0.
123.922 -154.1 0.
-148.881 -230.969 0.
-118.435 -163.779 0.
26.5698 -48.1535 0.
-66.5063 -361.828 0.
-210.357 -700.469 0.
-156.946 -814.243 0.
43.758 -347.864 0.
244.463 118.515 0.
442.09 314.651 0.
323.946 34.0466 0.
205.802 -246.559 0.
-179.917 -416.838 0.
-123.637 -290.209 0.
-67.3568 -163.579 0.
555.823 142.974 0.
573.971 182.911 0.
-68.6508 -73.7349 0.
-134.361 -226.339 0.
-200.071 -378.944 0.
-41.9394 -323.959 0.
74.324 -54.5581 0.
190.588 214.844 0.
331.306 253.44 0.
213.071 -24.1653 0.
94.8349 -301.77 0.
309.758 -166.155 0.
373.643 -18.6502 0.
-775.633 -392.089 0.
84.7605 44.7753 0.
118.874 126.803 0.
252.352 207.55 0.
173.408 28.5749 0.
94.4652 -150.399 0.
69.344 -189.594 0.
129.199 -50.7601 0.
189.054 88.074 0.
156.875 38.5737 0.
99.8902 -92.6463 0.
42.9053 -223.866 0.
29.1599 -236.239 0.
30.9645 -229.11 0.
253.935 -143.969 0.
191.78 -286.73 0.
129.626 -429.489 0.
-142.813 -535.49 0.
-8.11236 -221.124 0.
126.589 93.2429 0.
476.522 279.653 0.
407.371 121.199 0.
338.222 -37.2548 0.
64.3024 -219.558 0.
37.1907 -284.619 0.
21.1105 -344.013 0.
-252.316 -300.322 0.
-165.75 -102.943 0.
180.155 126.081 0.
70.7274 -132.367 0.
-38.7008 -390.816 0.
88.5354 -426.416 0.
117.817 -360.247 0.
147.098 -294.079 0.
-110.559 -352.908 0.
-81.9697 -284.209 0.
-53.3806 -215.511 0.
-144.335 -318.201 0.
-188.175 -418.996 0.
-291.188 -535.89 0.
-290.279 -533.114 0.
-289.37 -530.338 0.
-354.974 -544.099 0.
-332.141 -490.222 0.
-309.307 -436.345 0.
-325.934 -414.602 0.
-318.776 -400.231 0.
-311.619 -385.86 0.
-99.734 -121.605 0.
17.1812 149.422 0.
-315.275 -648.649 0.
191.246 -259.552 0.
291.42 -25.8609 0.
121.768 43.3542 0.
117.105 35.4609 0.
112.443 27.5676 0.
70.7753 12.3241 0.
77.6103 32.5406 0.
84.4451 52.7577 0.
-143.679 -115.842 0.
-206.575 -261.352 0.
-269.471 -406.861 0.
168.716 -275.256 0.
145.465 -327.622 0.
-10.0891 -424.9 0.
26.9601 -335.12 0.
64.0095 -245.342 0.
-417.307 -398.536 0.
-410.58 -380.808 0.
-403.853 -363.079 0.
147.94 -70.1851 0.
198.694 47.7612 0.
249.448 165.707 0.
-82.9696 17.2365 0.
-104.737 -31.1157 0.
661.497 257.337 0.
60.0939 4.90013 0.
62.8132 12.0287 0.
167.12 -3.37394 0.
10.0788 -369.099 0.
-146.962 -734.824 0.
-7.62177 -749.347 0.
103.772 -490.709 0.
215.166 -232.071 0.
-120.895 -327.218 0.
-139.437 -371.193 0.
-157.979 -415.167 0.
396.521 -202.713 0.
385.461 -227.787 0.
-202.323 -495.746 0.
-190.664 -465.579 0.
-179.004 -435.411 0.
-93.0701 -335.674 0.
-29.233 -181.728 0.
34.6039 -27.7832 0.
248.262 67.3889 0.
198.773 -45.3822 0.
149.284 -158.153 0.
344.616 -60.1766 0.
368.88 -3.13524 0.
-1109.07 -588.499 0.
185.062 32.7135 0.
220.591 115.164 0.
113.581 89.6921 0.
42.0157 -77.3731 0.
-29.5501 -244.438 0.
27.2882 -271.911 0.
53.9202 -206.122 0.
80.5522 -140.333 0.
119.198 -77.1526 0.
140.929 -25.2438 0.
162.66 26.6649 0.
206.185 3.64223 0.
180.208 -59.4054 0.
296.992 -54.6459 0.
296.686 -54.8878 0.
296.38 -55.1298 0.
-209.089 -272.586 0.
-206.852 -266.459 0.
-204.615 -260.331 0.
350.389 -42.812 0.
328.863 -91.7431 0.
307.337 -140.674 0.
-77.2566 -283.857 0.
-58.7902 -234.483 0.
167.763 -95.7593 0.
-163.362 -116.83 0.
-101.398 31.3007 0.
253.112 239.791 0.
161.064 30.1399 0.
69.0185 -179.51 0.
204.338 -220.106 0.
194.45 -240.472 0.
184.563 -260.838 0.
-232.334 -439.482 0.
-229.818 -432.903 0.
-227.301 -426.323 0.
-95.7124 -225.984 0.
-11.612 -29.9565 0.
-40.948 77.8284 0.
-140.097 -153.408 0.
-239.245 -384.644 0.
-311.569 -474.26 0.
-209.538 -233.346 0.
-107.506 7.56887 0.
-244.917 -58.2595 0.
-332.395 -261.284 0.
-419.873 -464.309 0.
-130.854 -407.696 0.
-147.597 -445.873 0.
-163.866 -555.112 0.
-56.7825 -334.332 0.
44.2608 -100.912 0.
-119.193 -28.344 0.
-123.109 -35.9916 0.
-127.025 -43.6391 0.
-13.254 8.43647 0.
-5.6951 28.4006 0.
1.86365 48.3652 0.
33.4421 -10.2197 0.
-29.3534 -156.106 0.
-92.1488 -301.991 0.
7.16969 -310.344 0.
-15.1806 -363.825 0.
-64.33 -417.022 0.
-27.1684 -327.469 0.
9.99337 -237.918 0.
-320.086 -323.692 0.
-312.72 -306.728 0.
-305.354 -289.764 0.
127.676 -47.6175 0.
178.088 70.7753 0.
228.499 189.168 0.
91.3346 119.609 0.
69.5953 71.0943 0.
-315.766 -132.122 0.
-23.9731 2.94056 0.
-21.2677 9.86193 0.
62.0629 -17.4843 0.
-95.2159 -383.297 0.
-252.494 -749.11 0.
-169.418 -786.382 0.
-57.9928 -528.109 0.
53.4331 -269.835 0.
213.609 -152.674 0.
195.196 -196.982 0.
176.783 -241.29 0.
226.172 -245.047 0.
215.27 -270.189 0.
-32.8776 -391.383 0.
-21.3675 -361.227 0.
-9.85676 -331.071 0.
-24.5274 -275.674 0.
39.1272 -121.552 0.
102.781 32.5706 0.
162.493 59.7509 0.
113.122 -52.9538 0.
63.7514 -165.658 0.
208.236 -85.4033 0.
232.901 -28.5166 0.
-749.23 -402.923 0.
563.433 226.366 0.
599.025 309.097 0.
-81.5776 38.4058 0.
-152.697 -128.919 0.
-223.816 -296.244 0.
62.9053 -223.898 0.
90.4552 -158.67 0.
118.005 -93.4426 0.
169.935 -23.8492 0.
192.093 28.2852 0.
214.252 80.4195 0.
274.563 65.2476 0.
248.501 2.3775 0.
100.304 -108.252 0.
100.296 -108.764 0.
100.288 -109.277 0.
-74.9857 -181.288 0.
-72.0253 -175.972 0.
-69.0649 -170.656 0.
18.6267 -153.249 0.
-2.91402 -202.549 0.
-24.4544 -251.849 0.
-230.322 -317.21 0.
-211.499 -268.262 0.
570.858 108.427 0.
130.003 40.8033 0.
191.735 189.319 0.
466.781 362.779 0.
374.761 153.007 0.
282.742 -56.765 0.
-43.9053 -295.54 0.
-53.5242 -316.04 0.
-63.1426 -336.541 0.
-155.945 -374.772 0.
-153.215 -368.214 0.
-150.485 -361.655 0.
-59.9627 -180.021 0.
24.058 16.0286 0.
-66.5799 99.3408 0.
-165.42 -132.355 0.
-264.261 -364.051 0.
-186.812 -390.567 0.
-84.4854 -149.697 0.
17.8411 91.1726 0.
-282.101 -41.176 0.
-369.295 -244.309 0.
-456.488 -447.442 0.
3.20279 -317.426 0.
-13.7286 -355.503 0.
-145.202 -585.692 0.
-432.958 -706.151 0.
-174.517 -104.115 0.
66.6759 878.837 0.
-336.606 -56.762 0.
-97.9411 505.178 0.
58.8695 341 0.
-348.073 -606.984 0.
216.369 710.633 0.
107.634 -130.895 0.
-21.9083 -433.395 0.
143.965 -46.4098 0.
357.36 832.375 0.
246.864 579.019 0.
-237.441 -675.393 0.
293.386 561.37 0.
23.4419 -69.5574 0.
-168.401 -132.679 0.
-323.376 -492.772 0.
67.4213 419.598 0.
449.13 759.684 0.
272.321 345.697 0.
-4.97846 -303.174 0.
210.123 101.178 0.
616.501 1047.66 0.
-513.934 -161.753 0.
-356.361 -581.308 0.
-303.457 -452.161 0.
182.661 491.884 0.
203.734 545.546 0.
-273.657 -563.455 0.
-306.2 -762.521 0.
66.7777 109.984 0.
-104.478 -287.591 0.
451.64 -217.636 0.
215.837 -766.832 0.
509.789 -79.9648 0.
-81.9523 -607.017 0.
-32.8506 -495.422 0.
539.63 657.862 0.
606.582 814.633 0.
176.934 -187.288 0.
-63.0802 -455.464 0.
299.813 390.3 0.
-4.42345 -320.515 0.
-36.8719 -224.072 0.
199.051 330.659 0.
30.5964 -57.9666 0.
7.37889 -251.593 0.
101.755 -35.5324 0.
-183.943 856.058 0.
926.756 383.792 0.
782.244 42.8111 0.
-65.7455 481.468 0.
51.4289 754.97 0.
1.07832 637.279 0.
334.679 362.665 0.
446.654 626.915 0.
266.934 210.83 0.
-82.1817 -672.319 0.
-364.964 -1329.39 0.
285.677 191.102 0.
366.761 177.58 0.
301.832 29.786 0.
28.1623 128.189 0.
-29.9171 -9.77267 0.
-161.533 -318.795 0.
83.8555 -30.9281 0.
282.383 427.725 0.
-47.6351 -346.42 0.
-121.611 177.816 0.
-148.234 109.727 0.
15.3123 485.597 0.
122.648 845.79 0.
-57.9119 426.322 0.
-324.867 -395.845 0.
364.092 46.6807 0.
-52.0946 -912.633 0.
547.621 171.589 0.
1057.67 1369.26 0.
15.8335 -1053.61 0.
-425.464 -683.288 0.
240.121 869.583 0.
151.069 662.432 0.
-109.406 -378.104 0.
-271.066 -757.29 0.
-143.384 -461.393 0.
13.8308 -37.9352 0.
264.398 546.647 0.
-185.974 -104.687 0.
-254.989 -263.464 0.
-287.067 -336.791 0.
-16.8712 -198.54 0.
574.968 1184.14 0.
202.407 316.079 0.
-602.128 -687.462 0.
-495.057 -438.723 0.
-750.534 -1034.81 0.
336.811 249.705 0.
-100.911 -772.879 0.
974.101 693.321 0.
-368.007 43.5913 0.
-431 -103.908 0.
-223.763 -125.727 0.
-278.658 -254.525 0.
-333.553 -383.323 0.
78.6956 -207.214 0.
149.935 -42.6917 0.
221.175 121.832 0.
110.367 145.49 0.
127.335 187.205 0.
144.304 228.919 0.
-143.483 75.343 0.
-170.034 19.905 0.
-123.422 5.83692 0.
-90.5802 81.6763 0.
-57.7379 157.515 0.
182.411 292.373 0.
160.902 245.338 0.
139.393 198.302 0.
215.9 127.779 0.
135.658 -64.3897 0.
55.4155 -256.559 0.
-3.79358 -329.699 0.
-10.687 -348.028 0.
90.5464 -320.095 0.
-267.824 -394.143 0.
-228.214 -298.801 0.
-262.202 -229.194 0.
-215.637 -115.731 0.
-169.071 -2.26792 0.
24.7337 81.132 0.
-40.1805 -63.4149 0.
-105.094 -207.962 0.
311.927 -75.2055 0.
308.085 -84.6989 0.
304.241 -94.1925 0.
375.086 103.292 0.
472.799 330.696 0.
303.967 401.238 0.
194.542 143.677 0.
85.1158 -113.884 0.
401.088 -100.582 0.
440.573 -13.3117 0.
480.057 73.9588 0.
-291.821 -182.593 0.
-254.392 -93.8609 0.
-216.963 -5.12896 0.
418.465 292.188 0.
425.268 308.889 0.
-934.888 -259.41 0.
1047.76 411.297 0.
954.275 192.326 0.
-509.804 -536.836 0.
-426.531 -344.802 0.
-343.259 -152.769 0.
266.484 117.547 0.
180.544 -81.6833 0.
94.6053 -280.913 0.
-214.08 -334.472 0.
-112.332 -95.3593 0.
-10.5843 143.753 0.
708.18 324.856 0.
620.947 122.719 0.
-232.234 -357.034 0.
-83.8698 -11.0359 0.
64.4947 334.962 0.
308.875 558.482 0.
202.863 311.125 0.
96.8516 63.7663 0.
-252.292 -185.215 0.
-261.072 -209.21 0.
-269.853 -233.204 0.
-230.15 -375.213 0.
-334.655 -619.71 0.
-13.4239 -674.296 0.
191.936 -341.438 0.
323.186 -37.6283 0.
102.087 77.4927 0.
142.702 172.197 0.
183.319 266.902 0.
-265.506 100.888 0.
-282.048 64.7551 0.
-298.589 28.6234 0.
285.555 260.092 0.
278.784 243.992 0.
272.014 227.892 0.
-139.026 -11.2631 0.
-175.569 -95.4 0.
-9.56702 -80.0107 0.
28.2145 11.0113 0.
65.9962 102.033 0.
-69.904 88.3675 0.
-75.3297 73.4114 0.
-80.7551 58.4548 0.
-205.253 -23.3754 0.
-227.69 -74.0403 0.
-250.126 -124.705 0.
196.541 -134.672 0.
63.8119 -444.139 0.
-28.1488 292.546 0.
-661.543 -50.7314 0.
-724.281 -198.395 0.
-35.9696 -14.1864 0.
-90.0231 -142.851 0.
-144.077 -271.515 0.
417.872 -28.7501 0.
490.446 135.39 0.
563.02 299.531 0.
-19.6677 121.604 0.
-2.83925 163.572 0.
13.9894 205.54 0.
-340.281 20.3771 0.
-366.865 -34.7818 0.
-327.829 -49.2675 0.
-294.56 26.4687 0.
-261.291 102.204 0.
402.91 415.799 0.
381.155 369.059 0.
359.4 322.319 0.
276.231 187.372 0.
196.908 -5.0442 0.
117.585 -197.461 0.
-22.3417 -307.156 0.
-28.8677 -325.339 0.
-1413.54 -935.251 0.
-239.528 -349.753 0.
-200.361 -254.453 0.
-411.398 -264.012 0.
-365.962 -150.128 0.
-320.527 -36.2444 0.
-6.83618 97.184 0.
-72.0088 -47.3123 0.
-137.181 -191.808 0.
82.9086 -141.058 0.
79.6399 -151.528 0.
76.3705 -161.998 0.
573.7 222.156 0.
672.499 448.79 0.
165.868 372.087 0.
56.4125 114.757 0.
-53.0436 -142.574 0.
802.027 103.295 0.
841.529 190.462 0.
881.031 277.629 0.
-606.172 -285.313 0.
-569.209 -195.662 0.
-532.246 -106.011 0.
659.493 426.473 0.
666.511 443.448 0.
-3607.55 -1372.84 0.
1193.93 506.28 0.
1100.77 287.535 0.
-504.093 -502.615 0.
-420.178 -310.897 0.
-336.263 -119.179 0.
335.738 179.309 0.
250.226 -19.8846 0.
164.714 -219.079 0.
-536.059 -440.679 0.
-435.063 -201.07 0.
-334.067 38.5391 0.
1067.23 509.235 0.
979.412 307.731 0.
-275.268 -343.385 0.
-127.308 3.03415 0.
20.6521 349.452 0.
289.407 581.357 0.
183.337 334.115 0.
77.2672 86.8724 0.
-198.012 -130.061 0.
-207.247 -153.926 0.
-216.482 -177.791 0.
-7.02369 -248.072 0.
-112.184 -492.352 0.
328.023 -495.772 0.
202.613 -306.006 0.
333.607 -2.51408 0.
-370.74 -93.5056 0.
-329.828 0.609903 0.
-288.915 94.7258 0.
-468.123 45.4391 0.
-484.531 9.40938 0.
-500.938 -26.6195 0.
449.227 361.874 0.
442.246 346.279 0.
435.264 330.684 0.
-322.558 -59.5523 0.
-359.412 -143.738 0.
205.534 43.8537 0.
243.744 134.893 0.
281.954 225.932 0.
-268.605 34.0835 0.
-273.382 18.9222 0.
-278.158 3.76044 0.
-55.0968 73.7589 0.
-77.2909 23.3466 0.
-99.4852 -27.0659 0.
245.856 -84.4685 0.
113.145 -392.598 0.
