# vtk DataFile Version 2.0
test grain
ASCII
DATASET UNSTRUCTURED_GRID
POINTS 5000 float
0.499856 0.00100205 0.
0.501856 0.00100182 0.
0.503857 0.00100155 0.
0.505857 0.00100132 0.
0.507857 0.0010013 0.
0.509857 0.00100129 0.
0.511857 0.00100113 0.
0.513858 0.00100074 0.
0.515858 0.00100035 0.
0.51786 0.0010003 0.
0.519861 0.00100045 0.
0.521863 0.0010006 0.
0.523864 0.00100061 0.
0.525864 0.00100059 0.
0.527864 0.00100062 0.
0.529864 0.00100119 0.
0.531863 0.00100176 0.
0.533862 0.00100191 0.
0.535862 0.00100105 0.
0.537862 0.0010002 0.
0.539863 0.000999999 0.
0.541864 0.00100039 0.
0.543865 0.00100078 0.
0.545866 0.00100098 0.
0.547866 0.0010011 0.
0.549867 0.00100123 0.
0.551865 0.00100153 0.
0.553862 0.00100184 0.
0.55586 0.00100202 0.
0.557858 0.00100167 0.
0.559856 0.00100132 0.
0.561854 0.00100129 0.
0.563852 0.00100173 0.
0.565849 0.00100217 0.
0.567847 0.00100178 0.
0.569844 0.0010009 0.
0.571841 0.00100002 0.
0.573834 0.00100096 0.
0.575826 0.00100224 0.
0.577817 0.0010035 0.
0.579806 0.00100394 0.
0.581795 0.00100438 0.
0.583783 0.00100472 0.
0.585768 0.00100489 0.
0.587752 0.00100506 0.
0.589734 0.00100411 0.
0.591712 0.00100207 0.
0.59369 0.00100004 0.
0.595766 0.00100141 0.
0.597883 0.00100405 0.
0.600002 0.00100669 0.
0.602118 0.00100408 0.
0.604234 0.00100148 0.
0.606309 0.00100004 0.
0.608289 0.00100172 0.
0.610268 0.00100341 0.
0.61225 0.00100435 0.
0.614235 0.0010045 0.
0.61622 0.00100466 0.
0.618207 0.0010046 0.
0.620196 0.00100451 0.
0.622185 0.00100442 0.
0.624175 0.00100381 0.
0.626165 0.00100315 0.
0.628156 0.00100244 0.
0.630152 0.00100141 0.
0.632149 0.00100039 0.
0.634147 0.000999994 0.
0.636146 0.00100067 0.
0.638145 0.00100135 0.
0.640144 0.00100158 0.
0.642142 0.0010015 0.
0.64414 0.00100143 0.
0.646137 0.00100172 0.
0.648135 0.0010021 0.
0.650132 0.00100246 0.
0.652132 0.00100185 0.
0.654132 0.00100125 0.
0.656132 0.00100071 0.
0.658133 0.00100035 0.
0.660134 0.000999995 0.
0.662136 0.00100008 0.
0.664137 0.00100064 0.
0.666139 0.00100119 0.
0.668139 0.00100133 0.
0.670139 0.00100131 0.
0.67214 0.00100129 0.
0.67414 0.00100111 0.
0.67614 0.0010009 0.
0.67814 0.00100074 0.
0.680141 0.00100097 0.
0.682141 0.0010012 0.
0.684142 0.00100125 0.
0.686143 0.00100103 0.
0.688144 0.00100081 0.
0.690144 0.00100091 0.
0.692145 0.00100123 0.
0.694145 0.00100155 0.
0.696144 0.00100159 0.
0.698143 0.00100157 0.
0.499856 0.00300616 0.
0.501856 0.00300544 0.
0.503857 0.00300464 0.
0.505857 0.00300396 0.
0.507857 0.00300391 0.
0.509857 0.00300387 0.
0.511857 0.00300338 0.
0.513858 0.00300221 0.
0.515859 0.00300105 0.
0.51786 0.00300091 0.
0.519862 0.00300136 0.
0.521863 0.00300181 0.
0.523864 0.00300183 0.
0.525864 0.00300177 0.
0.527864 0.00300186 0.
0.529863 0.00300356 0.
0.531863 0.00300527 0.
0.533863 0.00300572 0.
0.535862 0.00300317 0.
0.537861 0.00300061 0.
0.539862 0.00299999 0.
0.541865 0.00300117 0.
0.543868 0.00300235 0.
0.545868 0.00300295 0.
0.547868 0.00300331 0.
0.549867 0.00300368 0.
0.551865 0.00300459 0.
0.553863 0.00300552 0.
0.555861 0.00300605 0.
0.557859 0.003005 0.
0.559857 0.00300394 0.
0.561855 0.00300388 0.
0.563853 0.0030052 0.
0.56585 0.00300652 0.
0.567848 0.00300535 0.
0.569847 0.0030027 0.
0.571845 0.00300006 0.
0.573838 0.0030029 0.
0.57583 0.00300673 0.
0.577822 0.00301051 0.
0.579812 0.00301183 0.
0.581803 0.00301315 0.
0.583792 0.00301416 0.
0.585777 0.00301467 0.
0.587762 0.00301518 0.
0.589747 0.0030123 0.
0.591731 0.00300618 0.
0.593716 0.00300007 0.
0.595787 0.00300426 0.
0.597893 0.00301216 0.
0.600001 0.00302007 0.
0.602107 0.00301225 0.
0.604213 0.00300446 0.
0.606284 0.00300009 0.
0.608268 0.00300514 0.
0.610253 0.00301021 0.
0.612238 0.00301304 0.
0.614224 0.0030135 0.
0.61621 0.00301396 0.
0.618199 0.00301382 0.
0.620189 0.00301355 0.
0.622179 0.00301327 0.
0.62417 0.00301143 0.
0.626161 0.00300946 0.
0.628153 0.00300732 0.
0.630149 0.00300424 0.
0.632145 0.00300116 0.
0.634143 0.00299998 0.
0.636144 0.00300202 0.
0.638144 0.00300406 0.
0.640144 0.00300473 0.
0.642142 0.0030045 0.
0.64414 0.00300428 0.
0.646138 0.00300517 0.
0.648135 0.0030063 0.
0.650132 0.00300737 0.
0.65213 0.00300556 0.
0.654128 0.00300376 0.
0.656128 0.00300212 0.
0.658132 0.00300105 0.
0.660137 0.00299998 0.
0.66214 0.00300025 0.
0.66414 0.00300191 0.
0.66614 0.00300357 0.
0.66814 0.00300398 0.
0.67014 0.00300392 0.
0.67214 0.00300386 0.
0.674139 0.00300332 0.
0.676139 0.00300269 0.
0.678139 0.00300223 0.
0.68014 0.00300291 0.
0.68214 0.00300359 0.
0.684141 0.00300376 0.
0.686142 0.00300309 0.
0.688143 0.00300242 0.
0.690144 0.00300275 0.
0.692144 0.00300371 0.
0.694144 0.00300466 0.
0.696144 0.00300478 0.
0.698144 0.00300471 0.
0.499856 0.00501027 0.
0.501856 0.00500906 0.
0.503856 0.00500773 0.
0.505857 0.0050066 0.
0.507857 0.00500652 0.
0.509857 0.00500645 0.
0.511858 0.00500563 0.
0.513858 0.00500369 0.
0.515859 0.00500175 0.
0.51786 0.0050015 0.
0.519862 0.00500226 0.
0.521863 0.00500302 0.
0.523863 0.00500304 0.
0.525863 0.00500295 0.
0.527863 0.00500308 0.
0.529863 0.00500593 0.
0.531863 0.00500877 0.
0.533863 0.00500953 0.
0.535861 0.00500529 0.
0.537859 0.00500104 0.
0.539861 0.00499999 0.
0.541865 0.00500195 0.
0.54387 0.00500392 0.
0.54587 0.00500491 0.
0.547869 0.00500552 0.
0.549868 0.00500613 0.
0.551866 0.00500763 0.
0.553864 0.00500918 0.
0.555862 0.00501008 0.
0.55786 0.00500833 0.
0.559858 0.00500657 0.
0.561856 0.00500646 0.
0.563854 0.00500867 0.
0.565852 0.00501089 0.
0.56785 0.0050089 0.
0.569849 0.0050045 0.
0.571848 0.00500009 0.
0.573842 0.00500484 0.
0.575834 0.00501123 0.
0.577826 0.00501751 0.
0.579819 0.0050197 0.
0.581811 0.0050219 0.
0.583801 0.00502358 0.
0.585786 0.00502442 0.
0.587771 0.00502529 0.
0.589759 0.00502042 0.
0.59175 0.00501021 0.
0.593741 0.00500004 0.
0.595807 0.00500715 0.
0.597904 0.00502043 0.
0.600001 0.00503392 0.
0.602096 0.00502059 0.
0.604192 0.00500748 0.
0.606258 0.00500008 0.
0.608248 0.0050085 0.
0.610238 0.00501695 0.
0.612227 0.0050217 0.
0.614214 0.00502246 0.
0.616201 0.00502322 0.
0.618191 0.00502302 0.
0.620182 0.00502257 0.
0.622174 0.00502213 0.
0.624166 0.00501904 0.
0.626157 0.00501576 0.
0.62815 0.0050122 0.
0.630146 0.00500706 0.
0.632142 0.00500193 0.
0.63414 0.00499998 0.
0.636142 0.00500337 0.
0.638144 0.00500676 0.
0.640144 0.00500788 0.
0.642143 0.0050075 0.
0.644141 0.00500713 0.
0.646138 0.00500861 0.
0.648135 0.0050105 0.
0.650131 0.00501228 0.
0.652128 0.00500928 0.
0.654124 0.00500628 0.
0.656124 0.00500353 0.
0.658132 0.00500176 0.
0.66014 0.00499998 0.
0.662144 0.00500044 0.
0.664143 0.0050032 0.
0.666142 0.00500596 0.
0.668141 0.00500662 0.
0.670141 0.00500652 0.
0.67214 0.00500643 0.
0.674139 0.00500553 0.
0.676138 0.00500448 0.
0.678138 0.00500373 0.
0.680139 0.00500485 0.
0.68214 0.00500597 0.
0.684141 0.00500625 0.
0.686141 0.00500514 0.
0.688142 0.00500402 0.
0.690143 0.00500459 0.
0.692143 0.00500618 0.
0.694143 0.00500778 0.
0.696144 0.00500797 0.
0.698145 0.00500785 0.
0.499858 0.00701368 0.
0.501858 0.00701248 0.
0.503858 0.00701123 0.
0.505858 0.00701014 0.
0.507859 0.00700992 0.
0.509859 0.0070097 0.
0.51186 0.00700943 0.
0.51386 0.007009 0.
0.515861 0.00700857 0.
0.517861 0.00700858 0.
0.519863 0.00700888 0.
0.521864 0.00700919 0.
0.523864 0.00700951 0.
0.525864 0.00700981 0.
0.527864 0.00701016 0.
0.529865 0.00701149 0.
0.531865 0.00701282 0.
0.533865 0.00701383 0.
0.535864 0.00701399 0.
0.537863 0.00701415 0.
0.539864 0.00701384 0.
0.541866 0.00701311 0.
0.543869 0.00701239 0.
0.545869 0.00701204 0.
0.547868 0.00701179 0.
0.549868 0.00701154 0.
0.551867 0.00701287 0.
0.553865 0.00701429 0.
0.555864 0.00701541 0.
0.557863 0.00701523 0.
0.559862 0.00701504 0.
0.56186 0.00701537 0.
0.563858 0.00701645 0.
0.565857 0.00701754 0.
0.567855 0.00701794 0.
0.569853 0.00701794 0.
0.571851 0.00701794 0.
0.573846 0.00702166 0.
0.57584 0.00702607 0.
0.577834 0.00703031 0.
0.579828 0.0070311 0.
0.581822 0.0070319 0.
0.583816 0.0070324 0.
0.585807 0.00703242 0.
0.587799 0.00703246 0.
0.589793 0.00702505 0.
0.591789 0.00701047 0.
0.593785 0.00699595 0.
0.595841 0.00701366 0.
0.597921 0.00704357 0.
0.600001 0.00707383 0.
0.602079 0.00704426 0.
0.604158 0.00701502 0.
0.606215 0.00699752 0.
0.60821 0.00701074 0.
0.610205 0.00702399 0.
0.612199 0.00703103 0.
0.614191 0.00703159 0.
0.616184 0.00703214 0.
0.618177 0.0070318 0.
0.620171 0.00703117 0.
0.622165 0.00703057 0.
0.624159 0.00702705 0.
0.626154 0.00702335 0.
0.628148 0.00701997 0.
0.630145 0.00701861 0.
0.632141 0.00701725 0.
0.634139 0.00701646 0.
0.63614 0.00701643 0.
0.63814 0.00701641 0.
0.640139 0.00701638 0.
0.642138 0.00701642 0.
0.644137 0.00701645 0.
0.646136 0.00701675 0.
0.648134 0.00701712 0.
0.650132 0.00701746 0.
0.65213 0.00701702 0.
0.654129 0.00701658 0.
0.656129 0.00701652 0.
0.658133 0.00701763 0.
0.660137 0.00701875 0.
0.662139 0.00701852 0.
0.664139 0.00701676 0.
0.666138 0.007015 0.
0.668138 0.00701365 0.
0.670138 0.00701254 0.
0.672138 0.00701143 0.
0.674138 0.00701056 0.
0.676138 0.00700966 0.
0.678138 0.00700893 0.
0.680139 0.00700935 0.
0.68214 0.00700977 0.
0.68414 0.00700987 0.
0.686141 0.00700946 0.
0.688142 0.00700905 0.
0.690142 0.00700953 0.
0.692142 0.00701054 0.
0.694142 0.00701155 0.
0.696142 0.00701232 0.
0.698143 0.00701305 0.
0.499859 0.00901699 0.
0.50186 0.0090159 0.
0.50386 0.00901472 0.
0.50586 0.00901367 0.
0.507861 0.00901332 0.
0.509861 0.00901297 0.
0.511862 0.00901322 0.
0.513862 0.0090143 0.
0.515862 0.00901539 0.
0.517863 0.00901566 0.
0.519863 0.00901551 0.
0.521864 0.00901536 0.
0.523865 0.00901598 0.
0.525865 0.00901666 0.
0.527865 0.00901723 0.
0.529866 0.00901705 0.
0.531867 0.00901686 0.
0.533867 0.00901814 0.
0.535867 0.0090227 0.
0.537867 0.00902727 0.
0.539867 0.00902768 0.
0.541867 0.00902426 0.
0.543867 0.00902086 0.
0.545867 0.00901917 0.
0.547867 0.00901805 0.
0.549868 0.00901695 0.
0.551867 0.0090181 0.
0.553867 0.00901939 0.
0.555866 0.00902075 0.
0.557866 0.00902213 0.
0.559865 0.00902352 0.
0.561864 0.00902427 0.
0.563863 0.00902423 0.
0.565862 0.00902419 0.
0.567859 0.00902697 0.
0.569857 0.00903137 0.
0.571855 0.00903579 0.
0.57385 0.00903848 0.
0.575846 0.00904091 0.
0.577841 0.00904311 0.
0.579837 0.0090425 0.
0.581834 0.00904189 0.
0.58383 0.00904121 0.
0.585828 0.0090404 0.
0.587826 0.00903961 0.
0.589826 0.00902956 0.
0.591827 0.00901059 0.
0.593829 0.0089917 0.
0.595875 0.00902055 0.
0.597938 0.00906691 0.
0.600001 0.00911374 0.
0.602063 0.00906811 0.
0.604125 0.00902293 0.
0.606171 0.00899481 0.
0.608172 0.00901285 0.
0.610172 0.00903093 0.
0.612171 0.00904037 0.
0.614169 0.00904072 0.
0.616167 0.00904106 0.
0.618163 0.00904057 0.
0.62016 0.00903977 0.
0.622156 0.00903899 0.
0.624153 0.00903507 0.
0.62615 0.00903094 0.
0.628147 0.00902774 0.
0.630144 0.00903014 0.
0.632141 0.00903256 0.
0.634139 0.00903294 0.
0.636138 0.0090295 0.
0.638136 0.00902607 0.
0.640135 0.0090249 0.
0.642134 0.00902533 0.
0.644133 0.00902577 0.
0.646133 0.0090249 0.
0.648133 0.00902375 0.
0.650132 0.00902265 0.
0.652133 0.00902475 0.
0.654133 0.00902687 0.
0.656134 0.00902952 0.
0.658134 0.00903351 0.
0.660134 0.00903751 0.
0.662134 0.00903662 0.
0.664134 0.00903033 0.
0.666134 0.00902406 0.
0.668135 0.00902068 0.
0.670136 0.00901855 0.
0.672137 0.00901643 0.
0.674137 0.0090156 0.
0.676138 0.00901484 0.
0.678139 0.00901413 0.
0.680139 0.00901384 0.
0.68214 0.00901355 0.
0.68414 0.00901349 0.
0.686141 0.00901379 0.
0.688141 0.00901409 0.
0.690141 0.00901447 0.
0.692141 0.00901489 0.
0.694141 0.00901532 0.
0.696141 0.00901667 0.
0.698141 0.00901826 0.
0.49986 0.01102 0.
0.501861 0.0110188 0.
0.503861 0.0110175 0.
0.505861 0.0110164 0.
0.507862 0.0110161 0.
0.509863 0.0110158 0.
0.511863 0.0110162 0.
0.513863 0.0110178 0.
0.515863 0.0110194 0.
0.517864 0.0110197 0.
0.519864 0.0110193 0.
0.521865 0.011019 0.
0.523866 0.0110197 0.
0.525866 0.0110204 0.
0.527867 0.011021 0.
0.529867 0.0110205 0.
0.531868 0.0110199 0.
0.533868 0.0110213 0.
0.535869 0.0110269 0.
0.53787 0.0110325 0.
0.53987 0.0110333 0.
0.541869 0.0110295 0.
0.543868 0.0110257 0.
0.545868 0.0110236 0.
0.547869 0.011022 0.
0.549869 0.0110204 0.
0.551869 0.0110215 0.
0.553869 0.0110228 0.
0.555869 0.0110243 0.
0.557869 0.0110263 0.
0.559869 0.0110282 0.
0.561868 0.0110292 0.
0.563867 0.011029 0.
0.565867 0.0110288 0.
0.567865 0.0110323 0.
0.569863 0.0110379 0.
0.571861 0.0110435 0.
0.573858 0.0110459 0.
0.575856 0.0110476 0.
0.577853 0.0110491 0.
0.579852 0.0110475 0.
0.581851 0.0110459 0.
0.58385 0.0110441 0.
0.585853 0.011042 0.
0.587855 0.0110398 0.
0.589859 0.0110293 0.
0.591864 0.0110109 0.
0.59387 0.0109925 0.
0.595907 0.0110212 0.
0.597955 0.0110655 0.
0.600002 0.0111093 0.
0.602048 0.0110671 0.
0.604095 0.0110245 0.
0.606131 0.0109969 0.
0.608135 0.0110145 0.
0.61014 0.011032 0.
0.612143 0.0110416 0.
0.614145 0.0110429 0.
0.616146 0.0110442 0.
0.618146 0.0110443 0.
0.620145 0.0110438 0.
0.622144 0.0110434 0.
0.624143 0.0110393 0.
0.626141 0.011035 0.
0.62814 0.0110319 0.
0.630139 0.0110357 0.
0.632137 0.0110395 0.
0.634135 0.0110404 0.
0.636134 0.0110361 0.
0.638132 0.0110318 0.
0.640131 0.0110302 0.
0.64213 0.0110304 0.
0.644129 0.0110306 0.
0.64613 0.0110293 0.
0.64813 0.0110276 0.
0.650131 0.011026 0.
0.652132 0.0110292 0.
0.654133 0.0110324 0.
0.656134 0.011036 0.
0.658133 0.0110404 0.
0.660131 0.0110449 0.
0.662131 0.0110438 0.
0.664132 0.0110365 0.
0.666132 0.0110292 0.
0.668133 0.0110252 0.
0.670134 0.0110226 0.
0.672135 0.01102 0.
0.674136 0.0110191 0.
0.676137 0.0110183 0.
0.678138 0.0110175 0.
0.680139 0.0110169 0.
0.682139 0.0110163 0.
0.684139 0.0110162 0.
0.68614 0.011017 0.
0.68814 0.0110177 0.
0.69014 0.0110182 0.
0.69214 0.0110185 0.
0.69414 0.0110188 0.
0.69614 0.0110205 0.
0.69814 0.0110226 0.
0.499862 0.0130228 0.
0.501862 0.0130213 0.
0.503862 0.0130196 0.
0.505863 0.0130182 0.
0.507863 0.0130181 0.
0.509863 0.0130181 0.
0.511864 0.0130185 0.
0.513864 0.0130195 0.
0.515864 0.0130205 0.
0.517865 0.0130207 0.
0.519866 0.0130204 0.
0.521867 0.0130201 0.
0.523867 0.0130205 0.
0.525867 0.0130211 0.
0.527868 0.0130216 0.
0.529868 0.0130218 0.
0.531869 0.013022 0.
0.533869 0.0130232 0.
0.53587 0.0130267 0.
0.537871 0.0130302 0.
0.539872 0.0130308 0.
0.541872 0.0130289 0.
0.543872 0.013027 0.
0.545872 0.0130252 0.
0.547872 0.0130236 0.
0.549872 0.0130219 0.
0.551872 0.0130232 0.
0.553873 0.0130246 0.
0.555873 0.0130261 0.
0.557872 0.0130276 0.
0.559872 0.0130292 0.
0.561872 0.0130303 0.
0.563872 0.0130308 0.
0.565872 0.0130314 0.
0.567872 0.013034 0.
0.569871 0.0130377 0.
0.571871 0.0130415 0.
0.573871 0.0130441 0.
0.575871 0.0130465 0.
0.577871 0.0130485 0.
0.579872 0.0130463 0.
0.581873 0.0130441 0.
0.583875 0.0130414 0.
0.58588 0.0130373 0.
0.587885 0.0130333 0.
0.589892 0.0130245 0.
0.5919 0.0130115 0.
0.593908 0.0129985 0.
0.595936 0.0130151 0.
0.59797 0.0130411 0.
0.600005 0.0130669 0.
0.602036 0.0130432 0.
0.604068 0.0130193 0.
0.606093 0.013004 0.
0.608101 0.0130157 0.
0.610108 0.0130274 0.
0.612114 0.013035 0.
0.614118 0.0130384 0.
0.616123 0.0130417 0.
0.618125 0.013043 0.
0.620127 0.0130434 0.
0.622129 0.0130438 0.
0.624129 0.0130399 0.
0.626129 0.0130357 0.
0.628129 0.0130326 0.
0.630129 0.0130354 0.
0.632129 0.0130383 0.
0.634128 0.0130392 0.
0.636128 0.0130364 0.
0.638128 0.0130337 0.
0.640127 0.0130322 0.
0.642127 0.0130315 0.
0.644126 0.0130309 0.
0.646126 0.0130298 0.
0.648127 0.0130286 0.
0.650127 0.0130275 0.
0.652128 0.0130303 0.
0.654128 0.0130331 0.
0.656129 0.013036 0.
0.658129 0.0130387 0.
0.660129 0.0130415 0.
0.66213 0.0130406 0.
0.664131 0.0130354 0.
0.666132 0.0130303 0.
0.668133 0.0130271 0.
0.670134 0.0130246 0.
0.672134 0.0130222 0.
0.674135 0.0130211 0.
0.676136 0.0130201 0.
0.678136 0.0130192 0.
0.680137 0.0130186 0.
0.682137 0.0130181 0.
0.684137 0.0130181 0.
0.686138 0.013019 0.
0.688139 0.0130199 0.
0.690139 0.0130206 0.
0.692139 0.0130212 0.
0.694139 0.0130218 0.
0.696139 0.0130237 0.
0.698139 0.0130259 0.
0.499863 0.0150257 0.
0.501863 0.0150237 0.
0.503863 0.0150217 0.
0.505864 0.01502 0.
0.507864 0.0150201 0.
0.509864 0.0150203 0.
0.511864 0.0150207 0.
0.513864 0.0150211 0.
0.515865 0.0150216 0.
0.517866 0.0150216 0.
0.519867 0.0150214 0.
0.521868 0.0150211 0.
0.523868 0.0150214 0.
0.525869 0.0150218 0.
0.527869 0.0150221 0.
0.529869 0.0150231 0.
0.531869 0.0150241 0.
0.53387 0.0150252 0.
0.535871 0.0150265 0.
0.537873 0.0150279 0.
0.539874 0.0150284 0.
0.541875 0.0150283 0.
0.543876 0.0150282 0.
0.545876 0.0150269 0.
0.547876 0.0150251 0.
0.549876 0.0150234 0.
0.551876 0.0150248 0.
0.553876 0.0150264 0.
0.555876 0.0150278 0.
0.557876 0.015029 0.
0.559876 0.0150301 0.
0.561876 0.0150313 0.
0.563876 0.0150326 0.
0.565877 0.0150339 0.
0.567878 0.0150355 0.
0.569879 0.0150375 0.
0.57188 0.0150394 0.
0.573883 0.0150423 0.
0.575885 0.0150453 0.
0.577888 0.0150478 0.
0.579892 0.0150451 0.
0.581895 0.0150423 0.
0.5839 0.0150386 0.
0.585908 0.0150327 0.
0.587916 0.0150267 0.
0.589925 0.0150199 0.
0.591936 0.0150122 0.
0.593946 0.0150046 0.
0.595965 0.0150089 0.
0.597986 0.0150168 0.
0.600007 0.0150248 0.
0.602024 0.0150194 0.
0.604041 0.0150139 0.
0.606057 0.0150111 0.
0.608067 0.015017 0.
0.610077 0.0150229 0.
0.612085 0.0150284 0.
0.614092 0.0150338 0.
0.616099 0.0150392 0.
0.618105 0.0150417 0.
0.620109 0.0150429 0.
0.622114 0.0150441 0.
0.624115 0.0150404 0.
0.626116 0.0150363 0.
0.628117 0.0150332 0.
0.630119 0.0150351 0.
0.63212 0.0150371 0.
0.634122 0.015038 0.
0.636122 0.0150367 0.
0.638123 0.0150355 0.
0.640123 0.0150342 0.
0.642123 0.0150327 0.
0.644123 0.0150312 0.
0.646123 0.0150304 0.
0.648124 0.0150297 0.
0.650124 0.015029 0.
0.652124 0.0150315 0.
0.654123 0.0150339 0.
0.656124 0.0150359 0.
0.658125 0.015037 0.
0.660127 0.0150381 0.
0.662129 0.0150373 0.
0.66413 0.0150344 0.
0.666131 0.0150314 0.
0.668132 0.0150289 0.
0.670133 0.0150266 0.
0.672134 0.0150244 0.
0.674134 0.0150231 0.
0.676134 0.0150219 0.
0.678135 0.0150208 0.
0.680135 0.0150203 0.
0.682135 0.0150199 0.
0.684136 0.0150199 0.
0.686137 0.015021 0.
0.688137 0.015022 0.
0.690138 0.015023 0.
0.692138 0.015024 0.
0.694139 0.0150249 0.
0.696139 0.015027 0.
0.698139 0.0150292 0.
0.499864 0.0170279 0.
0.501864 0.0170262 0.
0.503865 0.0170244 0.
0.505865 0.0170228 0.
0.507865 0.0170225 0.
0.509865 0.0170221 0.
0.511865 0.0170221 0.
0.513866 0.0170225 0.
0.515867 0.0170229 0.
0.517867 0.0170229 0.
0.519868 0.0170226 0.
0.521869 0.0170224 0.
0.523869 0.0170229 0.
0.52587 0.0170234 0.
0.52787 0.0170239 0.
0.52987 0.0170246 0.
0.531871 0.0170253 0.
0.533871 0.0170261 0.
0.535873 0.0170272 0.
0.537874 0.0170284 0.
0.539875 0.0170288 0.
0.541877 0.0170286 0.
0.543878 0.0170284 0.
0.545878 0.0170274 0.
0.547878 0.0170261 0.
0.549879 0.0170248 0.
0.551879 0.017026 0.
0.553879 0.0170273 0.
0.555879 0.0170286 0.
0.557879 0.0170297 0.
0.559879 0.0170308 0.
0.56188 0.0170318 0.
0.563881 0.0170326 0.
0.565882 0.0170335 0.
0.567883 0.017035 0.
0.569885 0.0170369 0.
0.571887 0.0170389 0.
0.57389 0.0170414 0.
0.575894 0.017044 0.
0.577898 0.0170461 0.
0.579902 0.0170425 0.
0.581906 0.017039 0.
0.583912 0.0170347 0.
0.585919 0.0170287 0.
0.587926 0.0170227 0.
0.589935 0.0170163 0.
0.591945 0.0170096 0.
0.593954 0.0170029 0.
0.59597 0.0170056 0.
0.597987 0.017011 0.
0.600005 0.0170164 0.
0.60202 0.0170134 0.
0.604035 0.0170104 0.
0.606049 0.0170093 0.
0.608057 0.0170146 0.
0.610066 0.0170198 0.
0.612074 0.017025 0.
0.614081 0.0170302 0.
0.616089 0.0170353 0.
0.618094 0.0170382 0.
0.6201 0.01704 0.
0.622105 0.0170419 0.
0.624107 0.017039 0.
0.626109 0.0170358 0.
0.628111 0.0170333 0.
0.630113 0.0170349 0.
0.632116 0.0170366 0.
0.634117 0.0170374 0.
0.636118 0.0170367 0.
0.638119 0.0170361 0.
0.64012 0.017035 0.
0.64212 0.0170337 0.
0.64412 0.0170325 0.
0.646121 0.0170318 0.
0.648121 0.0170313 0.
0.650121 0.0170307 0.
0.652122 0.0170324 0.
0.654122 0.0170341 0.
0.656122 0.0170356 0.
0.658124 0.0170365 0.
0.660126 0.0170374 0.
0.662128 0.0170367 0.
0.664129 0.0170344 0.
0.66613 0.017032 0.
0.668131 0.0170301 0.
0.670131 0.0170282 0.
0.672132 0.0170264 0.
0.674132 0.0170248 0.
0.676133 0.0170233 0.
0.678133 0.017022 0.
0.680134 0.017022 0.
0.682134 0.0170221 0.
0.684135 0.0170223 0.
0.686135 0.0170229 0.
0.688135 0.0170235 0.
0.690136 0.0170245 0.
0.692136 0.0170257 0.
0.694137 0.017027 0.
0.696137 0.0170289 0.
0.698138 0.017031 0.
0.499865 0.0190302 0.
0.501865 0.0190288 0.
0.503866 0.0190272 0.
0.505866 0.0190257 0.
0.507866 0.0190248 0.
0.509866 0.0190239 0.
0.511866 0.0190235 0.
0.513867 0.0190238 0.
0.515868 0.0190242 0.
0.517869 0.0190241 0.
0.519869 0.0190239 0.
0.521869 0.0190237 0.
0.52387 0.0190243 0.
0.52587 0.019025 0.
0.527871 0.0190257 0.
0.529871 0.0190261 0.
0.531872 0.0190265 0.
0.533873 0.019027 0.
0.535874 0.019028 0.
0.537875 0.0190289 0.
0.539877 0.0190293 0.
0.541878 0.019029 0.
0.54388 0.0190287 0.
0.54588 0.019028 0.
0.547881 0.0190271 0.
0.549882 0.0190262 0.
0.551882 0.0190272 0.
0.553882 0.0190282 0.
0.555882 0.0190293 0.
0.557882 0.0190304 0.
0.559883 0.0190315 0.
0.561884 0.0190323 0.
0.563885 0.0190327 0.
0.565887 0.0190331 0.
0.567889 0.0190345 0.
0.569891 0.0190364 0.
0.571894 0.0190384 0.
0.573898 0.0190405 0.
0.575903 0.0190427 0.
0.577907 0.0190443 0.
0.579912 0.01904 0.
0.581917 0.0190356 0.
0.583923 0.0190307 0.
0.58593 0.0190247 0.
0.587937 0.0190186 0.
0.589945 0.0190128 0.
0.591954 0.019007 0.
0.593963 0.0190013 0.
0.595975 0.0190022 0.
0.597989 0.0190052 0.
0.600002 0.0190081 0.
0.602016 0.0190075 0.
0.604029 0.0190069 0.
0.606041 0.0190075 0.
0.608048 0.0190121 0.
0.610056 0.0190168 0.
0.612063 0.0190216 0.
0.61407 0.0190265 0.
0.616078 0.0190315 0.
0.618084 0.0190347 0.
0.62009 0.0190372 0.
0.622095 0.0190396 0.
0.624099 0.0190376 0.
0.626102 0.0190352 0.
0.628106 0.0190334 0.
0.630108 0.0190347 0.
0.632111 0.0190361 0.
0.634113 0.0190369 0.
0.636114 0.0190368 0.
0.638115 0.0190366 0.
0.640116 0.0190359 0.
0.642117 0.0190348 0.
0.644118 0.0190337 0.
0.646118 0.0190332 0.
0.648119 0.0190328 0.
0.650119 0.0190324 0.
0.65212 0.0190334 0.
0.65412 0.0190344 0.
0.656121 0.0190353 0.
0.658123 0.019036 0.
0.660126 0.0190366 0.
0.662127 0.0190362 0.
0.664129 0.0190344 0.
0.66613 0.0190327 0.
0.66813 0.0190312 0.
0.67013 0.0190298 0.
0.67213 0.0190285 0.
0.674131 0.0190266 0.
0.676131 0.0190247 0.
0.678132 0.0190231 0.
0.680133 0.0190237 0.
0.682134 0.0190243 0.
0.684134 0.0190247 0.
0.686134 0.0190248 0.
0.688133 0.0190249 0.
0.690133 0.0190259 0.
0.692134 0.0190275 0.
0.694135 0.019029 0.
0.696136 0.0190309 0.
0.698137 0.0190329 0.
0.499866 0.0210323 0.
0.501867 0.0210311 0.
0.503867 0.0210296 0.
0.505868 0.0210282 0.
0.507868 0.021027 0.
0.509868 0.0210258 0.
0.511868 0.0210252 0.
0.513869 0.0210256 0.
0.51587 0.021026 0.
0.517871 0.0210259 0.
0.519871 0.0210255 0.
0.521871 0.0210252 0.
0.523871 0.0210255 0.
0.525872 0.0210259 0.
0.527873 0.0210264 0.
0.529873 0.0210269 0.
0.531874 0.0210273 0.
0.533875 0.0210278 0.
0.535876 0.0210286 0.
0.537877 0.0210294 0.
0.539879 0.0210295 0.
0.54188 0.021029 0.
0.543882 0.0210286 0.
0.545883 0.0210281 0.
0.547884 0.0210276 0.
0.549884 0.0210271 0.
0.551885 0.021028 0.
0.553886 0.0210288 0.
0.555886 0.0210297 0.
0.557887 0.0210307 0.
0.559888 0.0210318 0.
0.561889 0.0210325 0.
0.563891 0.0210325 0.
0.565893 0.0210326 0.
0.567895 0.0210336 0.
0.569898 0.0210352 0.
0.571901 0.0210367 0.
0.573906 0.0210384 0.
0.575911 0.0210401 0.
0.577917 0.0210412 0.
0.579922 0.0210366 0.
0.581927 0.0210321 0.
0.583933 0.0210271 0.
0.58594 0.0210213 0.
0.587946 0.0210155 0.
0.589954 0.0210102 0.
0.591961 0.0210053 0.
0.593969 0.0210004 0.
0.595979 0.0210002 0.
0.59799 0.0210015 0.
0.600001 0.0210027 0.
0.602013 0.0210034 0.
0.604024 0.0210041 0.
0.606035 0.0210056 0.
0.608041 0.0210097 0.
0.610048 0.0210138 0.
0.612055 0.0210182 0.
0.614062 0.0210229 0.
0.616069 0.0210276 0.
0.618075 0.0210311 0.
0.620081 0.021034 0.
0.622086 0.0210368 0.
0.624091 0.0210355 0.
0.626095 0.0210337 0.
0.628099 0.0210324 0.
0.630102 0.0210337 0.
0.632105 0.0210349 0.
0.634107 0.0210359 0.
0.636109 0.0210362 0.
0.63811 0.0210365 0.
0.640112 0.0210361 0.
0.642113 0.0210352 0.
0.644114 0.0210343 0.
0.646115 0.0210339 0.
0.648115 0.0210336 0.
0.650116 0.0210332 0.
0.652117 0.0210338 0.
0.654118 0.0210343 0.
0.656119 0.0210348 0.
0.658121 0.0210352 0.
0.660124 0.0210356 0.
0.662125 0.0210353 0.
0.664127 0.0210341 0.
0.666128 0.021033 0.
0.668128 0.021032 0.
0.670128 0.0210311 0.
0.672128 0.0210301 0.
0.674129 0.0210282 0.
0.67613 0.0210261 0.
0.67813 0.0210244 0.
0.680131 0.0210252 0.
0.682132 0.021026 0.
0.684133 0.0210266 0.
0.686132 0.0210268 0.
0.688131 0.021027 0.
0.690131 0.0210279 0.
0.692132 0.0210294 0.
0.694133 0.0210308 0.
0.696134 0.0210328 0.
0.698135 0.0210349 0.
0.499869 0.0230341 0.
0.501869 0.0230331 0.
0.50387 0.0230317 0.
0.50587 0.0230303 0.
0.50787 0.023029 0.
0.50987 0.0230277 0.
0.511871 0.0230271 0.
0.513871 0.0230277 0.
0.515872 0.0230283 0.
0.517872 0.0230281 0.
0.519873 0.0230274 0.
0.521873 0.0230267 0.
0.523873 0.0230265 0.
0.525874 0.0230262 0.
0.527875 0.023026 0.
0.529876 0.0230269 0.
0.531877 0.0230279 0.
0.533878 0.0230287 0.
0.535879 0.0230292 0.
0.53788 0.0230297 0.
0.539881 0.0230296 0.
0.541883 0.0230289 0.
0.543885 0.0230281 0.
0.545886 0.0230279 0.
0.547886 0.0230278 0.
0.549887 0.0230277 0.
0.551889 0.0230284 0.
0.553891 0.0230291 0.
0.555892 0.0230299 0.
0.557893 0.0230308 0.
0.559894 0.0230318 0.
0.561896 0.0230323 0.
0.563898 0.0230321 0.
0.5659 0.023032 0.
0.567903 0.0230324 0.
0.569906 0.0230331 0.
0.571909 0.0230339 0.
0.573915 0.023035 0.
0.57592 0.0230362 0.
0.577926 0.0230369 0.
0.579931 0.0230326 0.
0.581937 0.0230283 0.
0.583942 0.0230237 0.
0.585948 0.0230185 0.
0.587954 0.0230133 0.
0.58996 0.0230086 0.
0.591967 0.0230044 0.
0.593974 0.0230002 0.
0.595982 0.0229995 0.
0.597992 0.0229999 0.
0.600001 0.0230003 0.
0.602011 0.0230012 0.
0.604021 0.0230021 0.
0.606031 0.0230036 0.
0.608037 0.0230072 0.
0.610044 0.0230108 0.
0.61205 0.0230148 0.
0.614056 0.0230194 0.
0.616062 0.0230239 0.
0.618067 0.0230274 0.
0.620072 0.0230304 0.
0.622077 0.0230335 0.
0.624082 0.0230326 0.
0.626087 0.0230312 0.
0.628092 0.0230303 0.
0.630095 0.0230317 0.
0.632098 0.0230331 0.
0.6341 0.0230343 0.
0.636103 0.023035 0.
0.638105 0.0230357 0.
0.640106 0.0230356 0.
0.642108 0.023035 0.
0.644109 0.0230343 0.
0.64611 0.0230339 0.
0.648111 0.0230335 0.
0.650112 0.0230331 0.
0.652114 0.0230335 0.
0.654115 0.0230339 0.
0.656117 0.0230342 0.
0.658118 0.0230342 0.
0.66012 0.0230342 0.
0.662122 0.023034 0.
0.664123 0.0230335 0.
0.666125 0.023033 0.
0.668126 0.0230325 0.
0.670126 0.0230319 0.
0.672127 0.0230314 0.
0.674127 0.0230295 0.
0.676128 0.0230275 0.
0.678129 0.0230258 0.
0.680129 0.0230265 0.
0.68213 0.0230272 0.
0.68413 0.023028 0.
0.68613 0.0230288 0.
0.68813 0.0230296 0.
0.69013 0.0230304 0.
0.692131 0.0230314 0.
0.694132 0.0230323 0.
0.696133 0.0230346 0.
0.698133 0.0230372 0.
0.499871 0.025036 0.
0.501872 0.0250351 0.
0.503872 0.0250337 0.
0.505873 0.0250324 0.
0.507873 0.025031 0.
0.509873 0.0250296 0.
0.511873 0.0250291 0.
0.513873 0.0250299 0.
0.515874 0.0250306 0.
0.517874 0.0250303 0.
0.519874 0.0250293 0.
0.521875 0.0250283 0.
0.523876 0.0250274 0.
0.525877 0.0250264 0.
0.527878 0.0250256 0.
0.529879 0.025027 0.
0.53188 0.0250284 0.
0.533881 0.0250295 0.
0.535882 0.0250298 0.
0.537883 0.0250301 0.
0.539884 0.0250297 0.
0.541886 0.0250287 0.
0.543887 0.0250276 0.
0.545888 0.0250276 0.
0.547889 0.0250279 0.
0.54989 0.0250282 0.
0.551893 0.0250288 0.
0.553895 0.0250294 0.
0.555898 0.0250301 0.
0.557899 0.0250309 0.
0.5599 0.0250317 0.
0.561902 0.0250321 0.
0.563905 0.0250317 0.
0.565908 0.0250314 0.
0.567911 0.0250312 0.
0.569914 0.0250311 0.
0.571917 0.025031 0.
0.573923 0.0250316 0.
0.575929 0.0250323 0.
0.577936 0.0250326 0.
0.579941 0.0250286 0.
0.581946 0.0250246 0.
0.583951 0.0250203 0.
0.585956 0.0250157 0.
0.587961 0.025011 0.
0.589967 0.025007 0.
0.591973 0.0250035 0.
0.593978 0.025 0.
0.595986 0.0249988 0.
0.597993 0.0249983 0.
0.600001 0.0249978 0.
0.60201 0.024999 0.
0.604018 0.0250001 0.
0.606027 0.0250017 0.
0.608033 0.0250048 0.
0.610039 0.0250078 0.
0.612045 0.0250115 0.
0.61405 0.0250158 0.
0.616056 0.0250202 0.
0.61806 0.0250237 0.
0.620064 0.025027 0.
0.622068 0.0250302 0.
0.624074 0.0250296 0.
0.626079 0.0250287 0.
0.628085 0.0250282 0.
0.630088 0.0250298 0.
0.632091 0.0250314 0.
0.634094 0.0250328 0.
0.636096 0.0250339 0.
0.638099 0.025035 0.
0.640101 0.0250352 0.
0.642103 0.0250347 0.
0.644104 0.0250343 0.
0.646106 0.0250339 0.
0.648107 0.0250335 0.
0.650108 0.0250331 0.
0.65211 0.0250333 0.
0.654112 0.0250335 0.
0.656114 0.0250335 0.
0.658116 0.0250332 0.
0.660117 0.0250328 0.
0.662119 0.0250327 0.
0.66412 0.0250329 0.
0.666122 0.025033 0.
0.668123 0.025033 0.
0.670124 0.0250328 0.
0.672125 0.0250326 0.
0.674126 0.0250308 0.
0.676127 0.0250289 0.
0.678127 0.0250273 0.
0.680127 0.0250279 0.
0.682127 0.0250285 0.
0.684127 0.0250294 0.
0.686128 0.0250308 0.
0.688128 0.0250322 0.
0.690129 0.025033 0.
0.69213 0.0250334 0.
0.69413 0.0250339 0.
0.696131 0.0250364 0.
0.698132 0.0250394 0.
0.499873 0.0270382 0.
0.501873 0.0270369 0.
0.503874 0.0270352 0.
0.505874 0.0270337 0.
0.507874 0.0270327 0.
0.509875 0.0270316 0.
0.511875 0.0270309 0.
0.513875 0.0270306 0.
0.515875 0.0270303 0.
0.517876 0.0270298 0.
0.519877 0.0270291 0.
0.521877 0.0270284 0.
0.523878 0.0270278 0.
0.525879 0.0270271 0.
0.527881 0.0270265 0.
0.529882 0.0270276 0.
0.531883 0.0270287 0.
0.533884 0.0270296 0.
0.535885 0.0270295 0.
0.537886 0.0270295 0.
0.539887 0.0270293 0.
0.541889 0.0270288 0.
0.54389 0.0270283 0.
0.545891 0.0270279 0.
0.547892 0.0270274 0.
0.549893 0.027027 0.
0.551896 0.0270279 0.
0.553898 0.0270288 0.
0.555901 0.0270295 0.
0.557902 0.0270298 0.
0.559904 0.02703 0.
0.561906 0.0270301 0.
0.563909 0.0270299 0.
0.565912 0.0270297 0.
0.567915 0.0270294 0.
0.569919 0.027029 0.
0.571922 0.0270287 0.
0.573928 0.0270286 0.
0.575934 0.0270287 0.
0.57794 0.0270284 0.
0.579945 0.027025 0.
0.58195 0.0270215 0.
0.583955 0.0270178 0.
0.58596 0.0270136 0.
0.587965 0.0270094 0.
0.58997 0.0270056 0.
0.591976 0.0270021 0.
0.593981 0.0269987 0.
0.595988 0.0269978 0.
0.597995 0.0269976 0.
0.600002 0.0269975 0.
0.60201 0.0269983 0.
0.604017 0.0269991 0.
0.606025 0.0270003 0.
0.60803 0.0270032 0.
0.610036 0.0270061 0.
0.612041 0.0270096 0.
0.614046 0.0270138 0.
0.616051 0.0270181 0.
0.618056 0.0270213 0.
0.62006 0.0270241 0.
0.622064 0.0270269 0.
0.624069 0.0270268 0.
0.626075 0.0270263 0.
0.62808 0.0270262 0.
0.630083 0.0270279 0.
0.632086 0.0270296 0.
0.634089 0.0270312 0.
0.636092 0.0270326 0.
0.638095 0.0270339 0.
0.640097 0.0270342 0.
0.642098 0.0270338 0.
0.6441 0.0270334 0.
0.646102 0.0270331 0.
0.648104 0.0270328 0.
0.650106 0.0270324 0.
0.652108 0.0270326 0.
0.65411 0.0270329 0.
0.656112 0.027033 0.
0.658113 0.0270328 0.
0.660115 0.0270327 0.
0.662116 0.0270327 0.
0.664118 0.0270329 0.
0.666119 0.0270331 0.
0.66812 0.0270331 0.
0.670121 0.0270329 0.
0.672122 0.0270327 0.
0.674123 0.0270312 0.
0.676124 0.0270296 0.
0.678124 0.0270284 0.
0.680125 0.027029 0.
0.682125 0.0270297 0.
0.684126 0.0270306 0.
0.686126 0.0270319 0.
0.688127 0.0270332 0.
0.690127 0.0270343 0.
0.692128 0.0270354 0.
0.694129 0.0270366 0.
0.696129 0.0270386 0.
0.698129 0.0270408 0.
0.499875 0.0290404 0.
0.501875 0.0290386 0.
0.503876 0.0290367 0.
0.505876 0.0290351 0.
0.507876 0.0290344 0.
0.509876 0.0290337 0.
0.511876 0.0290328 0.
0.513877 0.0290313 0.
0.515877 0.0290299 0.
0.517878 0.0290292 0.
0.519879 0.0290288 0.
0.52188 0.0290285 0.
0.523881 0.0290281 0.
0.525882 0.0290277 0.
0.527883 0.0290274 0.
0.529884 0.0290282 0.
0.531885 0.0290291 0.
0.533886 0.0290296 0.
0.535888 0.0290293 0.
0.537889 0.029029 0.
0.539891 0.0290288 0.
0.541892 0.0290289 0.
0.543893 0.0290289 0.
0.545895 0.0290281 0.
0.547896 0.0290269 0.
0.549897 0.0290258 0.
0.551899 0.0290269 0.
0.553901 0.0290281 0.
0.555903 0.029029 0.
0.557905 0.0290286 0.
0.559908 0.0290282 0.
0.56191 0.029028 0.
0.563913 0.029028 0.
0.565916 0.0290279 0.
0.567919 0.0290275 0.
0.569923 0.0290269 0.
0.571927 0.0290263 0.
0.573933 0.0290257 0.
0.575939 0.029025 0.
0.577944 0.0290241 0.
0.579949 0.0290213 0.
0.581954 0.0290185 0.
0.583959 0.0290154 0.
0.585964 0.0290116 0.
0.587969 0.0290078 0.
0.589974 0.0290042 0.
0.591979 0.0290007 0.
0.593983 0.0289973 0.
0.59599 0.0289967 0.
0.597996 0.0289969 0.
0.600003 0.0289971 0.
0.60201 0.0289976 0.
0.604017 0.028998 0.
0.606023 0.0289989 0.
0.608028 0.0290017 0.
0.610033 0.0290044 0.
0.612038 0.0290078 0.
0.614042 0.0290118 0.
0.616047 0.0290159 0.
0.618051 0.0290188 0.
0.620056 0.0290212 0.
0.62206 0.0290236 0.
0.624065 0.0290239 0.
0.62607 0.0290239 0.
0.628075 0.0290242 0.
0.630078 0.029026 0.
0.632082 0.0290279 0.
0.634085 0.0290296 0.
0.636087 0.0290312 0.
0.63809 0.0290328 0.
0.640092 0.0290333 0.
0.642094 0.0290329 0.
0.644096 0.0290325 0.
0.646099 0.0290323 0.
0.648101 0.029032 0.
0.650104 0.0290317 0.
0.652106 0.029032 0.
0.654108 0.0290323 0.
0.656109 0.0290325 0.
0.658111 0.0290325 0.
0.660112 0.0290325 0.
0.662114 0.0290327 0.
0.664115 0.029033 0.
0.666117 0.0290333 0.
0.668118 0.0290332 0.
0.670119 0.029033 0.
0.67212 0.0290328 0.
0.67412 0.0290317 0.
0.676121 0.0290304 0.
0.678121 0.0290295 0.
0.680122 0.0290302 0.
0.682123 0.0290309 0.
0.684124 0.0290318 0.
0.686125 0.029033 0.
0.688125 0.0290342 0.
0.690126 0.0290357 0.
0.692127 0.0290375 0.
0.694128 0.0290392 0.
0.696127 0.0290407 0.
0.698127 0.0290422 0.
0.499877 0.0310423 0.
0.501877 0.0310402 0.
0.503877 0.0310382 0.
0.505878 0.0310364 0.
0.507878 0.0310358 0.
0.509878 0.0310351 0.
0.511879 0.0310339 0.
0.513879 0.031032 0.
0.51588 0.0310301 0.
0.517881 0.0310292 0.
0.519882 0.031029 0.
0.521883 0.0310287 0.
0.523884 0.0310286 0.
0.525885 0.0310283 0.
0.527886 0.0310281 0.
0.529887 0.0310286 0.
0.531888 0.031029 0.
0.533889 0.0310293 0.
0.535891 0.031029 0.
0.537892 0.0310287 0.
0.539893 0.0310286 0.
0.541895 0.0310288 0.
0.543896 0.031029 0.
0.545898 0.0310281 0.
0.547899 0.0310266 0.
0.5499 0.0310252 0.
0.551902 0.0310262 0.
0.553905 0.0310274 0.
0.555907 0.0310282 0.
0.557909 0.0310276 0.
0.559911 0.031027 0.
0.561914 0.0310266 0.
0.563917 0.0310264 0.
0.56592 0.0310263 0.
0.567924 0.0310257 0.
0.569928 0.0310248 0.
0.571932 0.0310239 0.
0.573937 0.0310229 0.
0.575943 0.0310219 0.
0.577948 0.0310207 0.
0.579953 0.0310183 0.
0.581957 0.0310159 0.
0.583962 0.0310132 0.
0.585967 0.0310097 0.
0.587972 0.0310062 0.
0.589977 0.0310029 0.
0.591981 0.0309996 0.
0.593985 0.0309964 0.
0.595991 0.0309959 0.
0.597997 0.0309962 0.
0.600003 0.0309965 0.
0.602009 0.030997 0.
0.604015 0.0309974 0.
0.606021 0.0309983 0.
0.608026 0.0310006 0.
0.61003 0.031003 0.
0.612035 0.031006 0.
0.614039 0.0310099 0.
0.616043 0.0310138 0.
0.618047 0.0310165 0.
0.620052 0.0310186 0.
0.622057 0.0310207 0.
0.624061 0.0310213 0.
0.626066 0.0310218 0.
0.62807 0.0310224 0.
0.630074 0.0310242 0.
0.632077 0.031026 0.
0.63408 0.0310278 0.
0.636083 0.0310296 0.
0.638086 0.0310313 0.
0.640088 0.0310319 0.
0.64209 0.0310317 0.
0.644092 0.0310315 0.
0.646095 0.0310313 0.
0.648098 0.0310311 0.
0.650101 0.0310309 0.
0.652103 0.0310312 0.
0.654104 0.0310316 0.
0.656106 0.0310319 0.
0.658108 0.0310321 0.
0.66011 0.0310324 0.
0.662111 0.0310327 0.
0.664113 0.0310329 0.
0.666114 0.0310332 0.
0.668115 0.0310333 0.
0.670116 0.0310334 0.
0.672117 0.0310336 0.
0.674117 0.0310326 0.
0.676118 0.0310316 0.
0.678118 0.0310307 0.
0.680119 0.0310314 0.
0.68212 0.031032 0.
0.684121 0.0310329 0.
0.686122 0.0310341 0.
0.688123 0.0310354 0.
0.690124 0.0310371 0.
0.692124 0.0310393 0.
0.694125 0.0310414 0.
0.696125 0.0310428 0.
0.698124 0.0310439 0.
0.499879 0.0330437 0.
0.501879 0.0330417 0.
0.50388 0.0330396 0.
0.50588 0.0330378 0.
0.50788 0.0330368 0.
0.509881 0.0330358 0.
0.511881 0.0330345 0.
0.513882 0.0330326 0.
0.515883 0.0330307 0.
0.517884 0.0330298 0.
0.519885 0.0330295 0.
0.521886 0.0330292 0.
0.523887 0.0330291 0.
0.525888 0.0330289 0.
0.527889 0.0330287 0.
0.52989 0.0330286 0.
0.531891 0.0330286 0.
0.533893 0.0330286 0.
0.535894 0.0330286 0.
0.537895 0.0330286 0.
0.539896 0.0330286 0.
0.541898 0.0330286 0.
0.543899 0.0330286 0.
0.545901 0.0330277 0.
0.547903 0.0330264 0.
0.549904 0.0330252 0.
0.551907 0.0330259 0.
0.553909 0.0330267 0.
0.555911 0.0330273 0.
0.557913 0.0330267 0.
0.559915 0.0330261 0.
0.561918 0.0330256 0.
0.563921 0.0330252 0.
0.565924 0.0330248 0.
0.567928 0.0330238 0.
0.569932 0.0330226 0.
0.571936 0.0330214 0.
0.573941 0.0330204 0.
0.575946 0.0330194 0.
0.577951 0.0330182 0.
0.579956 0.0330159 0.
0.58196 0.0330136 0.
0.583964 0.0330111 0.
0.585969 0.033008 0.
0.587974 0.0330048 0.
0.589979 0.0330018 0.
0.591983 0.0329988 0.
0.593986 0.0329958 0.
0.595991 0.0329953 0.
0.597997 0.0329955 0.
0.600002 0.0329957 0.
0.602008 0.0329965 0.
0.604014 0.0329974 0.
0.606019 0.0329984 0.
0.608023 0.0330001 0.
0.610027 0.0330018 0.
0.612031 0.0330044 0.
0.614036 0.0330081 0.
0.61604 0.0330117 0.
0.618044 0.0330142 0.
0.620049 0.0330162 0.
0.622053 0.0330182 0.
0.624058 0.0330192 0.
0.626062 0.03302 0.
0.628067 0.033021 0.
0.63007 0.0330226 0.
0.632073 0.0330242 0.
0.634076 0.0330258 0.
0.636079 0.0330276 0.
0.638081 0.0330294 0.
0.640084 0.0330302 0.
0.642086 0.0330302 0.
0.644089 0.0330302 0.
0.646091 0.0330301 0.
0.648094 0.03303 0.
0.650096 0.0330298 0.
0.652098 0.0330303 0.
0.6541 0.0330307 0.
0.656102 0.0330312 0.
0.658104 0.0330318 0.
0.660106 0.0330323 0.
0.662108 0.0330326 0.
0.664109 0.0330327 0.
0.666111 0.0330328 0.
0.668112 0.0330334 0.
0.670112 0.0330342 0.
0.672113 0.033035 0.
0.674114 0.0330341 0.
0.676115 0.033033 0.
0.678116 0.0330322 0.
0.680116 0.0330326 0.
0.682117 0.033033 0.
0.684118 0.0330338 0.
0.686119 0.0330352 0.
0.68812 0.0330366 0.
0.69012 0.0330386 0.
0.692121 0.0330409 0.
0.694121 0.0330432 0.
0.696121 0.0330447 0.
0.698121 0.033046 0.
0.499881 0.0350452 0.
0.501882 0.0350431 0.
0.503882 0.0350411 0.
0.505883 0.0350392 0.
0.507883 0.0350378 0.
0.509883 0.0350365 0.
0.511884 0.035035 0.
0.513886 0.0350332 0.
0.515887 0.0350314 0.
0.517888 0.0350305 0.
0.519889 0.0350301 0.
0.52189 0.0350296 0.
0.52389 0.0350295 0.
0.525891 0.0350294 0.
0.527892 0.0350293 0.
0.529893 0.0350287 0.
0.531895 0.0350282 0.
0.533896 0.0350279 0.
0.535897 0.0350283 0.
0.537897 0.0350286 0.
0.539899 0.0350286 0.
0.5419 0.0350284 0.
0.543902 0.0350281 0.
0.545904 0.0350273 0.
0.547906 0.0350263 0.
0.549908 0.0350252 0.
0.551911 0.0350256 0.
0.553913 0.035026 0.
0.555916 0.0350263 0.
0.557917 0.0350257 0.
0.559919 0.0350252 0.
0.561922 0.0350246 0.
0.563925 0.0350239 0.
0.565928 0.0350232 0.
0.567932 0.035022 0.
0.569936 0.0350205 0.
0.57194 0.035019 0.
0.573945 0.0350179 0.
0.57595 0.0350169 0.
0.577955 0.0350157 0.
0.579958 0.0350136 0.
0.581962 0.0350114 0.
0.583966 0.035009 0.
0.585971 0.0350062 0.
0.587976 0.0350034 0.
0.58998 0.0350007 0.
0.591984 0.034998 0.
0.593988 0.0349953 0.
0.595992 0.0349947 0.
0.597996 0.0349948 0.
0.600001 0.0349949 0.
0.602006 0.0349961 0.
0.604012 0.0349973 0.
0.606018 0.0349985 0.
0.608021 0.0349996 0.
0.610024 0.0350007 0.
0.612028 0.0350029 0.
0.614033 0.0350062 0.
0.616037 0.0350096 0.
0.618041 0.0350119 0.
0.620045 0.0350138 0.
0.62205 0.0350156 0.
0.624054 0.035017 0.
0.626059 0.0350183 0.
0.628063 0.0350196 0.
0.630066 0.0350209 0.
0.632068 0.0350223 0.
0.634071 0.0350238 0.
0.636074 0.0350257 0.
0.638077 0.0350275 0.
0.64008 0.0350285 0.
0.642083 0.0350287 0.
0.644086 0.035029 0.
0.646088 0.035029 0.
0.64809 0.0350289 0.
0.650092 0.0350287 0.
0.652094 0.0350293 0.
0.654096 0.0350299 0.
0.656098 0.0350306 0.
0.658101 0.0350314 0.
0.660103 0.0350323 0.
0.662105 0.0350326 0.
0.664106 0.0350326 0.
0.666107 0.0350325 0.
0.668108 0.0350335 0.
0.670109 0.0350349 0.
0.67211 0.0350363 0.
0.674111 0.0350355 0.
0.676112 0.0350345 0.
0.678113 0.0350337 0.
0.680113 0.0350338 0.
0.682114 0.035034 0.
0.684114 0.0350347 0.
0.686115 0.0350363 0.
0.688116 0.0350379 0.
0.690117 0.03504 0.
0.692117 0.0350425 0.
0.694118 0.035045 0.
0.696118 0.0350466 0.
0.698118 0.0350481 0.
0.499885 0.0370464 0.
0.501885 0.0370445 0.
0.503885 0.0370423 0.
0.505886 0.0370402 0.
0.507886 0.0370387 0.
0.509886 0.0370372 0.
0.511887 0.0370358 0.
0.513888 0.0370343 0.
0.515889 0.0370328 0.
0.51789 0.0370318 0.
0.51989 0.037031 0.
0.521891 0.0370301 0.
0.523892 0.03703 0.
0.525893 0.0370299 0.
0.527894 0.0370298 0.
0.529895 0.0370292 0.
0.531896 0.0370286 0.
0.533897 0.0370281 0.
0.535898 0.0370279 0.
0.537899 0.0370278 0.
0.539901 0.0370274 0.
0.541902 0.0370269 0.
0.543904 0.0370264 0.
0.545906 0.0370257 0.
0.547908 0.037025 0.
0.54991 0.0370243 0.
0.551913 0.0370245 0.
0.553916 0.0370248 0.
0.555918 0.0370248 0.
0.55792 0.037024 0.
0.559922 0.0370232 0.
0.561925 0.0370225 0.
0.563928 0.0370219 0.
0.565931 0.0370213 0.
0.567934 0.0370199 0.
0.569938 0.0370182 0.
0.571942 0.0370164 0.
0.573947 0.0370153 0.
0.575952 0.0370142 0.
0.577957 0.037013 0.
0.579961 0.037011 0.
0.581965 0.0370089 0.
0.583969 0.0370067 0.
0.585973 0.0370043 0.
0.587977 0.037002 0.
0.589981 0.0369997 0.
0.591984 0.0369975 0.
0.593988 0.0369953 0.
0.595992 0.0369947 0.
0.597997 0.0369947 0.
0.600001 0.0369946 0.
0.602007 0.0369953 0.
0.604012 0.0369961 0.
0.606017 0.036997 0.
0.60802 0.0369985 0.
0.610024 0.037 0.
0.612027 0.037002 0.
0.614031 0.0370049 0.
0.616035 0.0370077 0.
0.618039 0.0370099 0.
0.620043 0.0370118 0.
0.622047 0.0370138 0.
0.624051 0.0370152 0.
0.626055 0.0370165 0.
0.62806 0.0370178 0.
0.630063 0.0370192 0.
0.632066 0.0370206 0.
0.634069 0.0370222 0.
0.636072 0.0370241 0.
0.638075 0.0370259 0.
0.640078 0.037027 0.
0.64208 0.0370275 0.
0.644083 0.037028 0.
0.646085 0.0370281 0.
0.648088 0.037028 0.
0.65009 0.037028 0.
0.652092 0.0370284 0.
0.654094 0.0370288 0.
0.656096 0.0370294 0.
0.658098 0.0370305 0.
0.6601 0.0370316 0.
0.662102 0.0370322 0.
0.664103 0.0370323 0.
0.666104 0.0370324 0.
0.668105 0.0370333 0.
0.670107 0.0370345 0.
0.672108 0.0370357 0.
0.674109 0.0370354 0.
0.67611 0.0370349 0.
0.678111 0.0370344 0.
0.680112 0.0370345 0.
0.682112 0.0370346 0.
0.684113 0.0370353 0.
0.686113 0.037037 0.
0.688113 0.0370386 0.
0.690114 0.0370408 0.
0.692114 0.0370433 0.
0.694115 0.0370458 0.
0.696115 0.0370477 0.
0.698115 0.0370494 0.
0.499888 0.0390476 0.
0.501888 0.0390458 0.
0.503888 0.0390434 0.
0.505889 0.0390412 0.
0.507889 0.0390396 0.
0.509889 0.039038 0.
0.511889 0.0390366 0.
0.51389 0.0390354 0.
0.515891 0.0390342 0.
0.517891 0.0390331 0.
0.519892 0.0390319 0.
0.521892 0.0390306 0.
0.523894 0.0390305 0.
0.525895 0.0390304 0.
0.527896 0.0390303 0.
0.529897 0.0390296 0.
0.531898 0.0390289 0.
0.533899 0.0390282 0.
0.5359 0.0390276 0.
0.537901 0.039027 0.
0.539902 0.0390263 0.
0.541904 0.0390254 0.
0.543906 0.0390246 0.
0.545908 0.0390241 0.
0.54791 0.0390237 0.
0.549913 0.0390233 0.
0.551915 0.0390235 0.
0.553918 0.0390236 0.
0.555921 0.0390234 0.
0.557923 0.0390223 0.
0.559925 0.0390212 0.
0.561928 0.0390203 0.
0.563931 0.0390198 0.
0.565934 0.0390193 0.
0.567937 0.0390179 0.
0.56994 0.0390159 0.
0.571944 0.0390139 0.
0.573949 0.0390127 0.
0.575954 0.0390116 0.
0.577959 0.0390103 0.
0.579963 0.0390083 0.
0.581967 0.0390063 0.
0.583971 0.0390044 0.
0.585975 0.0390024 0.
0.587978 0.0390005 0.
0.589982 0.0389987 0.
0.591985 0.0389971 0.
0.593988 0.0389954 0.
0.595993 0.0389948 0.
0.597997 0.0389945 0.
0.600002 0.0389943 0.
0.602007 0.0389946 0.
0.604011 0.0389949 0.
0.606016 0.0389955 0.
0.608019 0.0389973 0.
0.610023 0.0389992 0.
0.612027 0.0390012 0.
0.61403 0.0390035 0.
0.616033 0.0390057 0.
0.618037 0.0390078 0.
0.62004 0.0390099 0.
0.622044 0.0390119 0.
0.624048 0.0390133 0.
0.626052 0.0390147 0.
0.628056 0.039016 0.
0.63006 0.0390175 0.
0.632064 0.039019 0.
0.634067 0.0390206 0.
0.63607 0.0390225 0.
0.638073 0.0390243 0.
0.640076 0.0390255 0.
0.642078 0.0390263 0.
0.644081 0.039027 0.
0.646083 0.0390272 0.
0.648086 0.0390272 0.
0.650088 0.0390272 0.
0.65209 0.0390275 0.
0.654092 0.0390277 0.
0.656094 0.0390282 0.
0.658096 0.0390296 0.
0.660097 0.0390309 0.
0.662099 0.0390317 0.
0.6641 0.039032 0.
0.666101 0.0390324 0.
0.668103 0.0390331 0.
0.670104 0.0390341 0.
0.672105 0.0390352 0.
0.674107 0.0390352 0.
0.676108 0.0390352 0.
0.678109 0.0390352 0.
0.68011 0.0390352 0.
0.682111 0.0390352 0.
0.684111 0.0390359 0.
0.68611 0.0390377 0.
0.68811 0.0390394 0.
0.69011 0.0390416 0.
0.692111 0.0390441 0.
0.694112 0.0390467 0.
0.696112 0.0390487 0.
0.698113 0.0390507 0.
0.499891 0.041049 0.
0.501891 0.0410471 0.
0.503891 0.0410447 0.
0.505892 0.0410424 0.
0.507892 0.0410408 0.
0.509892 0.0410392 0.
0.511892 0.0410377 0.
0.513893 0.0410365 0.
0.515893 0.0410352 0.
0.517893 0.041034 0.
0.519894 0.0410327 0.
0.521894 0.0410314 0.
0.523896 0.041031 0.
0.525897 0.0410307 0.
0.527899 0.0410304 0.
0.5299 0.0410297 0.
0.531901 0.041029 0.
0.533902 0.0410282 0.
0.535903 0.0410272 0.
0.537904 0.0410263 0.
0.539905 0.0410254 0.
0.541907 0.0410245 0.
0.543908 0.0410236 0.
0.545911 0.0410231 0.
0.547913 0.0410228 0.
0.549915 0.0410224 0.
0.551918 0.0410224 0.
0.553921 0.0410224 0.
0.555924 0.0410221 0.
0.557926 0.0410209 0.
0.559929 0.0410198 0.
0.561931 0.0410188 0.
0.563934 0.0410183 0.
0.565937 0.0410177 0.
0.56794 0.0410162 0.
0.569943 0.0410142 0.
0.571946 0.0410122 0.
0.573951 0.0410108 0.
0.575956 0.0410094 0.
0.577961 0.041008 0.
0.579965 0.0410061 0.
0.581969 0.0410042 0.
0.583973 0.0410024 0.
0.585976 0.0410007 0.
0.587979 0.040999 0.
0.589982 0.0409975 0.
0.591985 0.0409962 0.
0.593989 0.0409949 0.
0.595993 0.0409943 0.
0.597998 0.0409939 0.
0.600003 0.0409935 0.
0.602007 0.0409937 0.
0.604011 0.0409938 0.
0.606015 0.0409944 0.
0.608018 0.0409964 0.
0.610022 0.0409983 0.
0.612025 0.0410003 0.
0.614028 0.0410023 0.
0.616031 0.0410044 0.
0.618035 0.0410063 0.
0.620038 0.0410083 0.
0.622041 0.0410103 0.
0.624046 0.0410118 0.
0.62605 0.0410132 0.
0.628054 0.0410146 0.
0.630058 0.0410161 0.
0.632061 0.0410176 0.
0.634064 0.0410192 0.
0.636067 0.041021 0.
0.63807 0.0410228 0.
0.640073 0.0410241 0.
0.642075 0.0410252 0.
0.644077 0.0410263 0.
0.64608 0.0410265 0.
0.648083 0.0410265 0.
0.650086 0.0410265 0.
0.652087 0.0410267 0.
0.654089 0.0410269 0.
0.656091 0.0410274 0.
0.658093 0.0410287 0.
0.660094 0.04103 0.
0.662096 0.041031 0.
0.664097 0.0410318 0.
0.666098 0.0410325 0.
0.6681 0.0410332 0.
0.670101 0.0410338 0.
0.672102 0.0410345 0.
0.674104 0.0410349 0.
0.676105 0.0410353 0.
0.678106 0.0410356 0.
0.680107 0.0410359 0.
0.682108 0.0410362 0.
0.684109 0.0410371 0.
0.686108 0.0410388 0.
0.688108 0.0410406 0.
0.690108 0.0410427 0.
0.692108 0.041045 0.
0.694109 0.0410474 0.
0.696109 0.0410497 0.
0.69811 0.041052 0.
0.499894 0.0430505 0.
0.501894 0.0430483 0.
0.503895 0.0430459 0.
0.505895 0.0430437 0.
0.507895 0.0430423 0.
0.509895 0.0430408 0.
0.511895 0.0430393 0.
0.513895 0.0430376 0.
0.515896 0.0430358 0.
0.517896 0.0430346 0.
0.519897 0.0430335 0.
0.521897 0.0430324 0.
0.523898 0.0430316 0.
0.5259 0.0430309 0.
0.527902 0.0430302 0.
0.529903 0.0430295 0.
0.531904 0.0430288 0.
0.533905 0.0430279 0.
0.535906 0.0430268 0.
0.537907 0.0430257 0.
0.539909 0.0430248 0.
0.54191 0.0430241 0.
0.543912 0.0430234 0.
0.545914 0.0430228 0.
0.547916 0.0430221 0.
0.549918 0.0430215 0.
0.551921 0.0430214 0.
0.553924 0.0430213 0.
0.555927 0.043021 0.
0.557929 0.04302 0.
0.559932 0.0430189 0.
0.561935 0.043018 0.
0.563937 0.0430172 0.
0.56594 0.0430163 0.
0.567943 0.0430149 0.
0.569946 0.0430131 0.
0.571949 0.0430114 0.
0.573954 0.0430096 0.
0.575958 0.0430077 0.
0.577963 0.0430059 0.
0.579967 0.0430042 0.
0.58197 0.0430025 0.
0.583973 0.0430008 0.
0.585976 0.0429991 0.
0.58798 0.0429973 0.
0.589983 0.042996 0.
0.591986 0.0429949 0.
0.59399 0.0429938 0.
0.595994 0.0429932 0.
0.597998 0.0429928 0.
0.600002 0.0429923 0.
0.602006 0.0429926 0.
0.60401 0.042993 0.
0.606014 0.0429937 0.
0.608017 0.0429955 0.
0.61002 0.0429973 0.
0.612024 0.0429993 0.
0.614027 0.0430014 0.
0.61603 0.0430035 0.
0.618033 0.0430054 0.
0.620037 0.0430071 0.
0.62204 0.0430089 0.
0.624044 0.0430104 0.
0.626048 0.043012 0.
0.628052 0.0430135 0.
0.630055 0.043015 0.
0.632059 0.0430165 0.
0.634062 0.0430181 0.
0.636064 0.0430197 0.
0.638067 0.0430213 0.
0.640069 0.0430228 0.
0.642071 0.0430243 0.
0.644074 0.0430258 0.
0.646077 0.043026 0.
0.64808 0.043026 0.
0.650083 0.0430259 0.
0.652085 0.0430261 0.
0.654086 0.0430263 0.
0.656088 0.0430268 0.
0.658089 0.0430279 0.
0.660091 0.0430289 0.
0.662092 0.0430301 0.
0.664094 0.0430315 0.
0.666095 0.0430328 0.
0.668096 0.0430333 0.
0.670098 0.0430336 0.
0.672099 0.0430338 0.
0.674101 0.0430345 0.
0.676102 0.0430352 0.
0.678104 0.0430359 0.
0.680104 0.0430367 0.
0.682105 0.0430375 0.
0.684106 0.0430386 0.
0.686106 0.0430404 0.
0.688106 0.0430422 0.
0.690106 0.0430441 0.
0.692106 0.0430461 0.
0.694106 0.0430481 0.
0.696106 0.0430505 0.
0.698106 0.0430531 0.
0.499898 0.0450521 0.
0.501897 0.0450495 0.
0.503898 0.0450472 0.
0.505898 0.0450451 0.
0.507898 0.0450438 0.
0.509898 0.0450425 0.
0.511898 0.0450408 0.
0.513898 0.0450386 0.
0.515898 0.0450364 0.
0.517899 0.0450351 0.
0.519899 0.0450342 0.
0.5219 0.0450334 0.
0.523901 0.0450323 0.
0.525903 0.0450311 0.
0.527905 0.0450299 0.
0.529906 0.0450292 0.
0.531907 0.0450285 0.
0.533908 0.0450277 0.
0.535909 0.0450264 0.
0.537911 0.0450251 0.
0.539912 0.0450242 0.
0.541914 0.0450237 0.
0.543915 0.0450231 0.
0.545917 0.0450224 0.
0.547919 0.0450214 0.
0.549921 0.0450205 0.
0.551924 0.0450203 0.
0.553927 0.0450202 0.
0.55593 0.0450199 0.
0.557933 0.045019 0.
0.559936 0.0450181 0.
0.561938 0.0450171 0.
0.563941 0.045016 0.
0.565943 0.0450149 0.
0.567946 0.0450136 0.
0.569949 0.045012 0.
0.571952 0.0450105 0.
0.573956 0.0450084 0.
0.575961 0.0450061 0.
0.577965 0.0450039 0.
0.579968 0.0450024 0.
0.581971 0.0450008 0.
0.583974 0.0449991 0.
0.585977 0.0449974 0.
0.58798 0.0449957 0.
0.589983 0.0449945 0.
0.591987 0.0449936 0.
0.59399 0.0449928 0.
0.595994 0.0449921 0.
0.597998 0.0449916 0.
0.600002 0.0449911 0.
0.602006 0.0449916 0.
0.604009 0.0449921 0.
0.606013 0.0449929 0.
0.608016 0.0449946 0.
0.610019 0.0449963 0.
0.612022 0.0449983 0.
0.614025 0.0450005 0.
0.616029 0.0450027 0.
0.618032 0.0450045 0.
0.620035 0.045006 0.
0.622038 0.0450075 0.
0.624042 0.0450091 0.
0.626046 0.0450108 0.
0.62805 0.0450124 0.
0.630053 0.0450139 0.
0.632056 0.0450154 0.
0.634059 0.0450169 0.
0.636061 0.0450184 0.
0.638063 0.0450198 0.
0.640065 0.0450216 0.
0.642068 0.0450235 0.
0.64407 0.0450253 0.
0.646073 0.0450255 0.
0.648077 0.0450254 0.
0.65008 0.0450252 0.
0.652082 0.0450255 0.
0.654084 0.0450258 0.
0.656085 0.0450262 0.
0.658086 0.045027 0.
0.660087 0.0450279 0.
0.662089 0.0450293 0.
0.66409 0.0450312 0.
0.666092 0.0450331 0.
0.668093 0.0450335 0.
0.670094 0.0450333 0.
0.672096 0.0450331 0.
0.674097 0.0450341 0.
0.676099 0.0450351 0.
0.678101 0.0450362 0.
0.680102 0.0450375 0.
0.682102 0.0450387 0.
0.684103 0.0450402 0.
0.686103 0.045042 0.
0.688104 0.0450438 0.
0.690104 0.0450455 0.
0.692104 0.0450472 0.
0.694103 0.0450488 0.
0.696103 0.0450514 0.
0.698103 0.0450542 0.
0.4999 0.0470525 0.
0.5019 0.0470504 0.
0.5039 0.0470484 0.
0.5059 0.0470464 0.
0.5079 0.0470446 0.
0.5099 0.0470428 0.
0.5119 0.047041 0.
0.513901 0.0470391 0.
0.515901 0.0470373 0.
0.517902 0.0470357 0.
0.519903 0.0470342 0.
0.521904 0.0470328 0.
0.523905 0.0470318 0.
0.525906 0.0470308 0.
0.527907 0.0470299 0.
0.529908 0.047029 0.
0.531909 0.0470281 0.
0.533911 0.0470272 0.
0.535912 0.047026 0.
0.537913 0.0470249 0.
0.539915 0.047024 0.
0.541917 0.0470232 0.
0.543919 0.0470224 0.
0.54592 0.0470216 0.
0.547922 0.0470207 0.
0.549924 0.0470198 0.
0.551927 0.0470195 0.
0.55393 0.0470192 0.
0.555933 0.0470187 0.
0.557936 0.0470176 0.
0.559938 0.0470166 0.
0.561941 0.0470155 0.
0.563943 0.0470143 0.
0.565946 0.0470132 0.
0.567948 0.0470119 0.
0.569951 0.0470104 0.
0.571954 0.047009 0.
0.573958 0.047007 0.
0.575962 0.0470049 0.
0.577966 0.0470029 0.
0.579969 0.0470012 0.
0.581972 0.0469995 0.
0.583976 0.0469978 0.
0.585979 0.0469964 0.
0.587982 0.0469949 0.
0.589985 0.0469939 0.
0.591988 0.0469931 0.
0.593991 0.0469923 0.
0.595995 0.0469918 0.
0.597998 0.0469915 0.
0.600002 0.0469911 0.
0.602006 0.0469914 0.
0.604009 0.0469917 0.
0.606013 0.0469923 0.
0.608015 0.0469936 0.
0.610018 0.0469949 0.
0.612021 0.0469967 0.
0.614024 0.0469991 0.
0.616027 0.0470015 0.
0.61803 0.0470032 0.
0.620033 0.0470046 0.
0.622036 0.047006 0.
0.62404 0.0470074 0.
0.626044 0.0470089 0.
0.628048 0.0470105 0.
0.630051 0.0470124 0.
0.632054 0.0470143 0.
0.634056 0.0470159 0.
0.636059 0.0470172 0.
0.638061 0.0470184 0.
0.640063 0.0470201 0.
0.642066 0.047022 0.
0.644068 0.0470239 0.
0.646071 0.0470242 0.
0.648074 0.047024 0.
0.650077 0.0470238 0.
0.652079 0.0470247 0.
0.65408 0.0470256 0.
0.656082 0.0470264 0.
0.658083 0.0470269 0.
0.660085 0.0470274 0.
0.662086 0.0470286 0.
0.664087 0.0470304 0.
0.666089 0.0470323 0.
0.66809 0.047033 0.
0.670091 0.0470332 0.
0.672093 0.0470334 0.
0.674094 0.0470344 0.
0.676096 0.0470354 0.
0.678097 0.0470365 0.
0.680098 0.0470381 0.
0.682098 0.0470396 0.
0.684099 0.0470412 0.
0.6861 0.0470428 0.
0.6881 0.0470444 0.
0.690101 0.0470461 0.
0.692101 0.0470479 0.
0.694101 0.0470497 0.
0.696101 0.0470525 0.
0.698101 0.0470554 0.
0.499903 0.049053 0.
0.501903 0.0490514 0.
0.503903 0.0490496 0.
0.505903 0.0490477 0.
0.507903 0.0490455 0.
0.509903 0.0490432 0.
0.511903 0.0490413 0.
0.513904 0.0490397 0.
0.515904 0.0490381 0.
0.517905 0.0490363 0.
0.519906 0.0490342 0.
0.521908 0.0490322 0.
0.523908 0.0490313 0.
0.525909 0.0490306 0.
0.52791 0.0490298 0.
0.529911 0.0490288 0.
0.531912 0.0490277 0.
0.533913 0.0490267 0.
0.535915 0.0490257 0.
0.537916 0.0490247 0.
0.539918 0.0490237 0.
0.54192 0.0490227 0.
0.543922 0.0490217 0.
0.545923 0.0490208 0.
0.547925 0.0490199 0.
0.549926 0.049019 0.
0.551929 0.0490186 0.
0.553932 0.0490181 0.
0.555936 0.0490175 0.
0.557938 0.0490163 0.
0.559941 0.049015 0.
0.561943 0.0490138 0.
0.563946 0.0490126 0.
0.565948 0.0490115 0.
0.567951 0.0490102 0.
0.569954 0.0490088 0.
0.571957 0.0490075 0.
0.57396 0.0490057 0.
0.575964 0.0490037 0.
0.577967 0.0490018 0.
0.579971 0.049 0.
0.581974 0.0489982 0.
0.583977 0.0489965 0.
0.58598 0.0489953 0.
0.587984 0.0489941 0.
0.589987 0.0489932 0.
0.591989 0.0489925 0.
0.593992 0.0489918 0.
0.595995 0.0489915 0.
0.597998 0.0489913 0.
0.600002 0.0489911 0.
0.602005 0.0489912 0.
0.604009 0.0489914 0.
0.606012 0.0489917 0.
0.608015 0.0489926 0.
0.610017 0.0489935 0.
0.61202 0.0489952 0.
0.614022 0.0489978 0.
0.616025 0.0490004 0.
0.618028 0.049002 0.
0.620031 0.0490032 0.
0.622034 0.0490044 0.
0.624038 0.0490057 0.
0.626042 0.049007 0.
0.628045 0.0490085 0.
0.630048 0.0490108 0.
0.632051 0.0490131 0.
0.634054 0.0490149 0.
0.636056 0.0490159 0.
0.638059 0.049017 0.
0.640062 0.0490186 0.
0.642064 0.0490206 0.
0.644067 0.0490225 0.
0.64607 0.0490228 0.
0.648072 0.0490225 0.
0.650075 0.0490224 0.
0.652076 0.0490239 0.
0.654077 0.0490254 0.
0.656079 0.0490265 0.
0.658081 0.0490267 0.
0.660082 0.0490269 0.
0.662084 0.0490279 0.
0.664085 0.0490297 0.
0.666086 0.0490315 0.
0.668087 0.0490325 0.
0.670088 0.0490331 0.
0.67209 0.0490338 0.
0.674091 0.0490348 0.
0.676092 0.0490357 0.
0.678094 0.0490368 0.
0.680094 0.0490387 0.
0.682095 0.0490405 0.
0.684095 0.0490422 0.
0.686096 0.0490436 0.
0.688096 0.0490451 0.
0.690097 0.0490468 0.
0.692098 0.0490487 0.
0.694099 0.0490507 0.
0.696099 0.0490536 0.
0.698099 0.0490567 0.
0.499906 0.0510538 0.
0.501906 0.0510523 0.
0.503906 0.0510506 0.
0.505906 0.0510488 0.
0.507906 0.0510464 0.
0.509906 0.051044 0.
0.511906 0.0510419 0.
0.513907 0.0510403 0.
0.515907 0.0510387 0.
0.517908 0.0510367 0.
0.519909 0.0510344 0.
0.521911 0.0510321 0.
0.523911 0.0510312 0.
0.525912 0.0510306 0.
0.527913 0.0510299 0.
0.529914 0.0510288 0.
0.531915 0.0510276 0.
0.533916 0.0510265 0.
0.535918 0.0510254 0.
0.537919 0.0510243 0.
0.539921 0.0510233 0.
0.541923 0.0510222 0.
0.543925 0.0510212 0.
0.545926 0.0510203 0.
0.547927 0.0510193 0.
0.549928 0.0510184 0.
0.551932 0.0510178 0.
0.553935 0.0510172 0.
0.555938 0.0510165 0.
0.55794 0.0510152 0.
0.559943 0.0510138 0.
0.561945 0.0510125 0.
0.563948 0.0510113 0.
0.565951 0.05101 0.
0.567953 0.0510087 0.
0.569956 0.0510074 0.
0.571958 0.0510062 0.
0.573962 0.0510044 0.
0.575965 0.0510026 0.
0.577968 0.0510007 0.
0.579972 0.0509989 0.
0.581975 0.0509971 0.
0.583978 0.0509956 0.
0.585981 0.0509947 0.
0.587985 0.0509937 0.
0.589987 0.0509929 0.
0.59199 0.050992 0.
0.593992 0.0509912 0.
0.595995 0.050991 0.
0.597998 0.0509909 0.
0.600002 0.0509909 0.
0.602005 0.050991 0.
0.604009 0.050991 0.
0.606012 0.0509913 0.
0.608014 0.0509919 0.
0.610017 0.0509926 0.
0.612019 0.0509941 0.
0.614021 0.0509965 0.
0.616024 0.050999 0.
0.618027 0.0510006 0.
0.620029 0.0510019 0.
0.622032 0.0510031 0.
0.624036 0.0510044 0.
0.626039 0.0510056 0.
0.628043 0.0510071 0.
0.630046 0.0510095 0.
0.632048 0.0510118 0.
0.634051 0.0510138 0.
0.636054 0.0510148 0.
0.638056 0.0510159 0.
0.640059 0.0510175 0.
0.642062 0.0510193 0.
0.644065 0.0510211 0.
0.646067 0.0510215 0.
0.648069 0.0510215 0.
0.650072 0.0510216 0.
0.652073 0.0510233 0.
0.654075 0.051025 0.
0.656076 0.0510263 0.
0.658078 0.0510263 0.
0.66008 0.0510264 0.
0.662081 0.0510273 0.
0.664082 0.0510291 0.
0.666083 0.051031 0.
0.668084 0.0510322 0.
0.670086 0.0510332 0.
0.672087 0.0510341 0.
0.674088 0.0510352 0.
0.676089 0.0510363 0.
0.67809 0.0510374 0.
0.680091 0.0510392 0.
0.682091 0.0510411 0.
0.684092 0.0510428 0.
0.686093 0.0510443 0.
0.688093 0.0510458 0.
0.690094 0.0510476 0.
0.692095 0.0510497 0.
0.694096 0.0510518 0.
0.696096 0.0510549 0.
0.698095 0.0510583 0.
0.499909 0.053055 0.
0.501909 0.0530533 0.
0.503909 0.0530516 0.
0.505909 0.0530499 0.
0.507909 0.0530475 0.
0.509909 0.0530451 0.
0.511909 0.0530429 0.
0.51391 0.0530409 0.
0.51591 0.053039 0.
0.517911 0.0530369 0.
0.519912 0.0530347 0.
0.521913 0.0530325 0.
0.523913 0.0530316 0.
0.525914 0.0530309 0.
0.527915 0.0530302 0.
0.529916 0.053029 0.
0.531918 0.0530278 0.
0.533919 0.0530265 0.
0.53592 0.0530251 0.
0.537922 0.0530237 0.
0.539924 0.0530226 0.
0.541925 0.0530218 0.
0.543927 0.0530211 0.
0.545928 0.05302 0.
0.54793 0.0530189 0.
0.549931 0.0530178 0.
0.551934 0.0530171 0.
0.553937 0.0530165 0.
0.555939 0.0530157 0.
0.557942 0.0530143 0.
0.559944 0.053013 0.
0.561947 0.0530116 0.
0.56395 0.0530102 0.
0.565952 0.0530087 0.
0.567955 0.0530075 0.
0.569957 0.0530063 0.
0.571959 0.0530051 0.
0.573962 0.0530033 0.
0.575966 0.0530013 0.
0.577969 0.0529994 0.
0.579972 0.0529979 0.
0.581975 0.0529963 0.
0.583978 0.0529951 0.
0.585981 0.0529944 0.
0.587984 0.0529938 0.
0.589987 0.0529928 0.
0.591989 0.0529916 0.
0.593991 0.0529904 0.
0.595994 0.0529902 0.
0.597998 0.0529903 0.
0.600002 0.0529903 0.
0.602005 0.0529905 0.
0.604009 0.0529907 0.
0.606012 0.052991 0.
0.608014 0.0529916 0.
0.610016 0.0529921 0.
0.612019 0.0529934 0.
0.614021 0.0529954 0.
0.616023 0.0529974 0.
0.618025 0.0529991 0.
0.620028 0.0530005 0.
0.62203 0.053002 0.
0.624034 0.0530034 0.
0.626037 0.0530047 0.
0.628041 0.0530061 0.
0.630044 0.0530083 0.
0.632046 0.0530105 0.
0.634049 0.0530124 0.
0.636051 0.0530139 0.
0.638053 0.0530153 0.
0.640056 0.0530167 0.
0.642059 0.0530181 0.
0.644061 0.0530195 0.
0.646064 0.0530203 0.
0.648066 0.0530208 0.
0.650069 0.0530214 0.
0.652071 0.0530229 0.
0.654072 0.0530244 0.
0.656074 0.0530256 0.
0.658076 0.0530258 0.
0.660077 0.0530259 0.
0.662078 0.0530269 0.
0.664079 0.0530287 0.
0.66608 0.0530306 0.
0.668082 0.053032 0.
0.670083 0.0530333 0.
0.672084 0.0530345 0.
0.674085 0.0530358 0.
0.676086 0.053037 0.
0.678087 0.0530383 0.
0.680087 0.0530398 0.
0.682088 0.0530414 0.
0.684089 0.0530431 0.
0.68609 0.0530448 0.
0.688091 0.0530465 0.
0.690091 0.0530485 0.
0.692092 0.0530508 0.
0.694092 0.0530531 0.
0.696092 0.0530564 0.
0.698091 0.05306 0.
0.499912 0.0550561 0.
0.501912 0.0550542 0.
0.503912 0.0550526 0.
0.505912 0.0550509 0.
0.507912 0.0550486 0.
0.509912 0.0550463 0.
0.511912 0.0550439 0.
0.513913 0.0550416 0.
0.515913 0.0550393 0.
0.517914 0.0550371 0.
0.519914 0.055035 0.
0.521915 0.0550329 0.
0.523916 0.055032 0.
0.525917 0.0550312 0.
0.527918 0.0550305 0.
0.529919 0.0550292 0.
0.53192 0.0550279 0.
0.533922 0.0550265 0.
0.535923 0.0550248 0.
0.537925 0.0550231 0.
0.539926 0.055022 0.
0.541928 0.0550215 0.
0.543929 0.0550209 0.
0.545931 0.0550199 0.
0.547932 0.0550185 0.
0.549933 0.0550172 0.
0.551936 0.0550164 0.
0.553938 0.0550157 0.
0.555941 0.0550148 0.
0.557943 0.0550135 0.
0.559946 0.0550122 0.
0.561948 0.0550107 0.
0.563951 0.0550091 0.
0.565954 0.0550075 0.
0.567956 0.0550062 0.
0.569958 0.0550051 0.
0.57196 0.0550041 0.
0.573963 0.0550022 0.
0.575967 0.0550001 0.
0.57797 0.0549982 0.
0.579973 0.0549969 0.
0.581975 0.0549956 0.
0.583978 0.0549945 0.
0.585981 0.0549942 0.
0.587983 0.0549938 0.
0.589986 0.0549928 0.
0.591988 0.0549912 0.
0.59399 0.0549897 0.
0.595994 0.0549894 0.
0.597998 0.0549896 0.
0.600002 0.0549897 0.
0.602006 0.0549901 0.
0.604009 0.0549904 0.
0.606012 0.0549908 0.
0.608014 0.0549913 0.
0.610016 0.0549917 0.
0.612018 0.0549927 0.
0.61402 0.0549943 0.
0.616022 0.0549959 0.
0.618024 0.0549975 0.
0.620026 0.0549992 0.
0.622028 0.0550009 0.
0.624032 0.0550023 0.
0.626035 0.0550038 0.
0.628039 0.0550052 0.
0.630042 0.0550072 0.
0.632044 0.0550091 0.
0.634047 0.0550111 0.
0.636049 0.0550129 0.
0.638051 0.0550147 0.
0.640053 0.055016 0.
0.642055 0.055017 0.
0.644058 0.055018 0.
0.646061 0.0550191 0.
0.648063 0.0550201 0.
0.650066 0.0550212 0.
0.652068 0.0550225 0.
0.65407 0.0550239 0.
0.656072 0.055025 0.
0.658073 0.0550252 0.
0.660074 0.0550254 0.
0.662076 0.0550264 0.
0.664077 0.0550283 0.
0.666078 0.0550303 0.
0.668079 0.0550319 0.
0.67008 0.0550334 0.
0.672082 0.0550349 0.
0.674082 0.0550363 0.
0.676083 0.0550378 0.
0.678083 0.0550392 0.
0.680084 0.0550405 0.
0.682085 0.0550418 0.
0.684086 0.0550434 0.
0.686087 0.0550453 0.
0.688088 0.0550472 0.
0.690089 0.0550495 0.
0.692088 0.0550519 0.
0.694088 0.0550544 0.
0.696088 0.0550579 0.
0.698087 0.0550617 0.
0.499915 0.0570572 0.
0.501915 0.0570551 0.
0.503914 0.0570533 0.
0.505914 0.0570513 0.
0.507914 0.057049 0.
0.509915 0.0570467 0.
0.511915 0.0570444 0.
0.513915 0.057042 0.
0.515916 0.0570396 0.
0.517917 0.0570374 0.
0.519917 0.0570351 0.
0.521918 0.0570329 0.
0.523919 0.0570318 0.
0.52592 0.057031 0.
0.527921 0.05703 0.
0.529922 0.0570286 0.
0.531923 0.0570272 0.
0.533924 0.0570257 0.
0.535926 0.0570239 0.
0.537928 0.0570222 0.
0.539929 0.0570211 0.
0.54193 0.0570207 0.
0.543931 0.0570202 0.
0.545933 0.057019 0.
0.547935 0.0570176 0.
0.549936 0.0570162 0.
0.551939 0.0570156 0.
0.553941 0.057015 0.
0.555943 0.0570141 0.
0.557945 0.0570125 0.
0.559948 0.0570109 0.
0.56195 0.0570093 0.
0.563953 0.0570078 0.
0.565956 0.0570064 0.
0.567958 0.0570051 0.
0.56996 0.0570039 0.
0.571962 0.0570027 0.
0.573965 0.0570011 0.
0.575968 0.0569994 0.
0.577971 0.0569978 0.
0.579973 0.0569964 0.
0.581976 0.0569951 0.
0.583978 0.0569939 0.
0.585981 0.056993 0.
0.587983 0.0569922 0.
0.589985 0.0569914 0.
0.591988 0.0569906 0.
0.59399 0.0569898 0.
0.595994 0.0569896 0.
0.597998 0.0569895 0.
0.600001 0.0569894 0.
0.602005 0.0569896 0.
0.604008 0.0569899 0.
0.606011 0.0569902 0.
0.608014 0.0569909 0.
0.610016 0.0569916 0.
0.612018 0.0569926 0.
0.614019 0.056994 0.
0.616021 0.0569954 0.
0.618023 0.0569967 0.
0.620026 0.056998 0.
0.622028 0.0569992 0.
0.624031 0.0570008 0.
0.626035 0.0570023 0.
0.628038 0.057004 0.
0.630041 0.0570059 0.
0.632043 0.0570079 0.
0.634045 0.0570099 0.
0.636047 0.0570118 0.
0.638049 0.0570137 0.
0.640051 0.0570151 0.
0.642054 0.057016 0.
0.644056 0.0570169 0.
0.646058 0.057018 0.
0.648061 0.0570191 0.
0.650063 0.0570202 0.
0.652065 0.0570214 0.
0.654067 0.0570226 0.
0.656069 0.0570237 0.
0.65807 0.0570244 0.
0.660072 0.0570251 0.
0.662073 0.0570263 0.
0.664074 0.0570281 0.
0.666075 0.0570299 0.
0.668077 0.0570317 0.
0.670078 0.0570335 0.
0.672079 0.0570352 0.
0.67408 0.0570367 0.
0.67608 0.0570382 0.
0.678081 0.0570396 0.
0.680081 0.0570408 0.
0.682082 0.0570421 0.
0.684083 0.0570438 0.
0.686084 0.0570459 0.
0.688084 0.057048 0.
0.690085 0.0570504 0.
0.692085 0.057053 0.
0.694085 0.0570556 0.
0.696085 0.0570589 0.
0.698085 0.0570622 0.
0.499917 0.0590582 0.
0.501917 0.059056 0.
0.503917 0.0590539 0.
0.505917 0.0590518 0.
0.507917 0.0590495 0.
0.509917 0.0590472 0.
0.511918 0.0590449 0.
0.513918 0.0590424 0.
0.515919 0.05904 0.
0.517919 0.0590376 0.
0.51992 0.0590352 0.
0.521921 0.0590329 0.
0.523922 0.0590317 0.
0.525923 0.0590307 0.
0.527924 0.0590296 0.
0.529925 0.059028 0.
0.531926 0.0590265 0.
0.533927 0.0590249 0.
0.535929 0.0590231 0.
0.53793 0.0590213 0.
0.539932 0.0590203 0.
0.541933 0.0590199 0.
0.543934 0.0590194 0.
0.545935 0.0590182 0.
0.547937 0.0590167 0.
0.549939 0.0590153 0.
0.551941 0.0590148 0.
0.553944 0.0590143 0.
0.555946 0.0590135 0.
0.557948 0.0590116 0.
0.559949 0.0590096 0.
0.561952 0.0590079 0.
0.563954 0.0590066 0.
0.565957 0.0590053 0.
0.56796 0.0590039 0.
0.569962 0.0590027 0.
0.571964 0.0590014 0.
0.573966 0.0590001 0.
0.575969 0.0589987 0.
0.577972 0.0589974 0.
0.579974 0.058996 0.
0.581976 0.0589946 0.
0.583978 0.0589933 0.
0.58598 0.0589919 0.
0.587983 0.0589905 0.
0.589985 0.0589899 0.
0.591988 0.0589899 0.
0.593991 0.0589899 0.
0.595994 0.0589897 0.
0.597997 0.0589893 0.
0.600001 0.058989 0.
0.602004 0.0589891 0.
0.604008 0.0589893 0.
0.606011 0.0589896 0.
0.608013 0.0589905 0.
0.610015 0.0589915 0.
0.612017 0.0589925 0.
0.614019 0.0589937 0.
0.616021 0.0589949 0.
0.618023 0.0589958 0.
0.620025 0.0589967 0.
0.622028 0.0589975 0.
0.624031 0.0589992 0.
0.626034 0.0590009 0.
0.628038 0.0590027 0.
0.63004 0.0590047 0.
0.632042 0.0590067 0.
0.634044 0.0590086 0.
0.636046 0.0590107 0.
0.638048 0.0590128 0.
0.64005 0.0590141 0.
0.642052 0.059015 0.
0.644054 0.0590158 0.
0.646056 0.0590169 0.
0.648058 0.0590181 0.
0.650061 0.0590193 0.
0.652062 0.0590203 0.
0.654064 0.0590214 0.
0.656066 0.0590224 0.
0.658068 0.0590236 0.
0.660069 0.0590248 0.
0.662071 0.0590262 0.
0.664072 0.0590279 0.
0.666073 0.0590296 0.
0.668074 0.0590316 0.
0.670075 0.0590336 0.
0.672077 0.0590356 0.
0.674077 0.0590371 0.
0.676078 0.0590385 0.
0.678078 0.05904 0.
0.680079 0.0590412 0.
0.682079 0.0590425 0.
0.68408 0.0590442 0.
0.68608 0.0590464 0.
0.688081 0.0590487 0.
0.690081 0.0590513 0.
0.692082 0.059054 0.
0.694082 0.0590568 0.
0.696083 0.0590598 0.
0.698083 0.0590627 0.
0.49992 0.0610596 0.
0.50192 0.0610571 0.
0.50392 0.0610546 0.
0.50592 0.0610521 0.
0.50792 0.06105 0.
0.50992 0.0610478 0.
0.511921 0.0610455 0.
0.513921 0.0610428 0.
0.515922 0.0610402 0.
0.517922 0.0610378 0.
0.519923 0.0610354 0.
0.521924 0.061033 0.
0.523925 0.0610316 0.
0.525925 0.0610304 0.
0.527926 0.0610291 0.
0.529927 0.0610276 0.
0.531929 0.0610261 0.
0.53393 0.0610245 0.
0.535931 0.0610227 0.
0.537933 0.061021 0.
0.539934 0.0610198 0.
0.541935 0.0610192 0.
0.543936 0.0610186 0.
0.545938 0.0610174 0.
0.54794 0.0610161 0.
0.549941 0.0610147 0.
0.551944 0.0610141 0.
0.553946 0.0610135 0.
0.555948 0.0610126 0.
0.55795 0.0610106 0.
0.559952 0.0610087 0.
0.561954 0.061007 0.
0.563956 0.0610057 0.
0.565959 0.0610044 0.
0.567961 0.0610031 0.
0.569963 0.0610018 0.
0.571965 0.0610004 0.
0.573968 0.0609992 0.
0.57597 0.0609981 0.
0.577973 0.0609969 0.
0.579975 0.0609955 0.
0.581977 0.0609941 0.
0.583979 0.0609926 0.
0.585981 0.060991 0.
0.587983 0.0609894 0.
0.589985 0.0609889 0.
0.591988 0.0609893 0.
0.593991 0.0609898 0.
0.595994 0.0609896 0.
0.597997 0.0609891 0.
0.6 0.0609887 0.
0.602004 0.0609886 0.
0.604007 0.0609885 0.
0.606011 0.0609887 0.
0.608013 0.06099 0.
0.610014 0.0609912 0.
0.612016 0.0609923 0.
0.614018 0.0609933 0.
0.61602 0.0609944 0.
0.618022 0.0609951 0.
0.620025 0.0609957 0.
0.622027 0.0609963 0.
0.624031 0.0609979 0.
0.626034 0.0609997 0.
0.628037 0.0610015 0.
0.630039 0.0610036 0.
0.632041 0.0610056 0.
0.634042 0.0610077 0.
0.636044 0.0610097 0.
0.638046 0.0610117 0.
0.640048 0.0610132 0.
0.64205 0.0610142 0.
0.644052 0.0610152 0.
0.646054 0.0610164 0.
0.648056 0.0610176 0.
0.650058 0.0610189 0.
0.65206 0.0610197 0.
0.654062 0.0610205 0.
0.656063 0.0610215 0.
0.658065 0.061023 0.
0.660067 0.0610244 0.
0.662068 0.0610259 0.
0.664069 0.0610275 0.
0.66607 0.061029 0.
0.668071 0.0610312 0.
0.670073 0.0610336 0.
0.672074 0.061036 0.
0.674074 0.0610375 0.
0.676075 0.061039 0.
0.678075 0.0610405 0.
0.680076 0.0610418 0.
0.682076 0.0610432 0.
0.684077 0.0610449 0.
0.686077 0.0610471 0.
0.688077 0.0610494 0.
0.690078 0.0610519 0.
0.692079 0.0610547 0.
0.694079 0.0610576 0.
0.69608 0.0610604 0.
0.698081 0.0610632 0.
0.499923 0.0630617 0.
0.501923 0.0630581 0.
0.503923 0.063055 0.
0.505923 0.0630522 0.
0.507923 0.0630504 0.
0.509923 0.0630485 0.
0.511924 0.0630462 0.
0.513924 0.0630433 0.
0.515924 0.0630404 0.
0.517925 0.0630379 0.
0.519926 0.0630355 0.
0.521926 0.0630332 0.
0.523927 0.0630317 0.
0.525928 0.0630302 0.
0.527929 0.0630288 0.
0.52993 0.0630275 0.
0.531931 0.0630261 0.
0.533933 0.0630247 0.
0.535934 0.0630229 0.
0.537935 0.063021 0.
0.539936 0.0630197 0.
0.541937 0.0630188 0.
0.543939 0.0630179 0.
0.54594 0.0630168 0.
0.547941 0.0630156 0.
0.549943 0.0630145 0.
0.551945 0.0630135 0.
0.553948 0.0630126 0.
0.555951 0.0630115 0.
0.557953 0.0630097 0.
0.559955 0.063008 0.
0.561957 0.0630064 0.
0.563959 0.0630051 0.
0.565961 0.0630037 0.
0.567963 0.0630024 0.
0.569964 0.0630011 0.
0.571966 0.0629999 0.
0.573969 0.0629986 0.
0.575971 0.0629974 0.
0.577973 0.0629961 0.
0.579975 0.0629948 0.
0.581977 0.0629934 0.
0.583979 0.062992 0.
0.585981 0.0629903 0.
0.587983 0.0629886 0.
0.589986 0.0629882 0.
0.591988 0.0629888 0.
0.59399 0.0629893 0.
0.595994 0.0629892 0.
0.597997 0.0629888 0.
0.6 0.0629884 0.
0.602003 0.062988 0.
0.604007 0.0629877 0.
0.60601 0.0629877 0.
0.608012 0.0629892 0.
0.610014 0.0629907 0.
0.612016 0.0629919 0.
0.614017 0.0629929 0.
0.616019 0.0629939 0.
0.618022 0.0629946 0.
0.620024 0.0629951 0.
0.622027 0.0629955 0.
0.62403 0.062997 0.
0.626033 0.0629986 0.
0.628035 0.0630003 0.
0.630037 0.0630026 0.
0.632039 0.0630048 0.
0.634041 0.0630069 0.
0.636043 0.0630087 0.
0.638045 0.0630105 0.
0.640046 0.0630121 0.
0.642048 0.0630136 0.
0.64405 0.0630151 0.
0.646052 0.0630164 0.
0.648054 0.0630176 0.
0.650057 0.0630188 0.
0.652058 0.0630195 0.
0.65406 0.0630201 0.
0.656062 0.0630209 0.
0.658063 0.0630225 0.
0.660065 0.063024 0.
0.662066 0.0630254 0.
0.664066 0.0630268 0.
0.666067 0.0630281 0.
0.668068 0.0630306 0.
0.670069 0.0630336 0.
0.67207 0.0630365 0.
0.674071 0.0630381 0.
0.676072 0.0630396 0.
0.678072 0.0630411 0.
0.680073 0.0630427 0.
0.682074 0.0630443 0.
0.684074 0.063046 0.
0.686074 0.0630479 0.
0.688075 0.0630498 0.
0.690075 0.0630522 0.
0.692076 0.0630551 0.
0.694076 0.0630579 0.
0.696077 0.0630607 0.
0.698078 0.0630635 0.
0.499926 0.0650634 0.
0.501926 0.0650592 0.
0.503927 0.0650555 0.
0.505927 0.0650524 0.
0.507927 0.0650508 0.
0.509926 0.0650491 0.
0.511927 0.0650469 0.
0.513927 0.0650437 0.
0.515927 0.0650406 0.
0.517928 0.065038 0.
0.519928 0.0650357 0.
0.521929 0.0650334 0.
0.52393 0.0650317 0.
0.525931 0.06503 0.
0.527932 0.0650284 0.
0.529933 0.0650273 0.
0.531934 0.0650262 0.
0.533935 0.0650248 0.
0.535936 0.0650229 0.
0.537937 0.0650211 0.
0.539938 0.0650196 0.
0.541939 0.0650183 0.
0.543941 0.0650171 0.
0.545942 0.0650161 0.
0.547943 0.0650152 0.
0.549944 0.0650142 0.
0.551947 0.065013 0.
0.55395 0.0650118 0.
0.555953 0.0650104 0.
0.557955 0.0650089 0.
0.559958 0.0650073 0.
0.56196 0.0650059 0.
0.563961 0.0650045 0.
0.565962 0.0650031 0.
0.567964 0.0650018 0.
0.569966 0.0650005 0.
0.571967 0.0649993 0.
0.573969 0.064998 0.
0.575972 0.0649967 0.
0.577974 0.0649954 0.
0.579976 0.0649941 0.
0.581978 0.0649928 0.
0.58398 0.0649913 0.
0.585982 0.0649896 0.
0.587984 0.0649879 0.
0.589986 0.0649875 0.
0.591988 0.0649882 0.
0.59399 0.0649888 0.
0.595993 0.0649888 0.
0.597997 0.0649885 0.
0.6 0.0649882 0.
0.602003 0.0649875 0.
0.604006 0.0649868 0.
0.606008 0.0649866 0.
0.60801 0.0649884 0.
0.610013 0.0649902 0.
0.612015 0.0649916 0.
0.614017 0.0649925 0.
0.616019 0.0649935 0.
0.618021 0.064994 0.
0.620024 0.0649944 0.
0.622026 0.0649948 0.
0.624029 0.0649961 0.
0.626032 0.0649975 0.
0.628034 0.0649991 0.
0.630036 0.0650016 0.
0.632038 0.065004 0.
0.63404 0.0650061 0.
0.636041 0.0650077 0.
0.638043 0.0650093 0.
0.640045 0.0650111 0.
0.642046 0.065013 0.
0.644047 0.065015 0.
0.64605 0.0650163 0.
0.648052 0.0650176 0.
0.650055 0.0650188 0.
0.652057 0.0650193 0.
0.654058 0.0650197 0.
0.65606 0.0650204 0.
0.658061 0.065022 0.
0.660062 0.0650235 0.
0.662063 0.0650249 0.
0.664064 0.0650261 0.
0.666064 0.0650273 0.
0.668065 0.0650301 0.
0.670066 0.0650335 0.
0.672067 0.065037 0.
0.674067 0.0650387 0.
0.676068 0.0650402 0.
0.678069 0.0650417 0.
0.68007 0.0650435 0.
0.682071 0.0650453 0.
0.684072 0.065047 0.
0.686072 0.0650486 0.
0.688072 0.0650502 0.
0.690072 0.0650525 0.
0.692073 0.0650554 0.
0.694073 0.0650583 0.
0.696074 0.0650611 0.
0.698074 0.0650638 0.
0.499929 0.0670634 0.
0.501929 0.0670598 0.
0.503929 0.0670564 0.
0.505929 0.0670534 0.
0.507929 0.0670513 0.
0.509929 0.0670492 0.
0.511929 0.0670468 0.
0.51393 0.0670441 0.
0.51593 0.0670414 0.
0.517931 0.0670389 0.
0.519931 0.0670365 0.
0.521932 0.0670341 0.
0.523933 0.0670323 0.
0.525934 0.0670306 0.
0.527935 0.067029 0.
0.529936 0.0670276 0.
0.531937 0.0670262 0.
0.533937 0.0670246 0.
0.535938 0.0670226 0.
0.537939 0.0670207 0.
0.53994 0.0670191 0.
0.541942 0.0670177 0.
0.543943 0.0670164 0.
0.545944 0.0670153 0.
0.547945 0.0670142 0.
0.549946 0.0670132 0.
0.551949 0.0670121 0.
0.553952 0.0670109 0.
0.555955 0.0670097 0.
0.557957 0.0670083 0.
0.559959 0.0670069 0.
0.56196 0.0670056 0.
0.563962 0.0670042 0.
0.565963 0.0670028 0.
0.567965 0.0670014 0.
0.569967 0.0669999 0.
0.571968 0.0669984 0.
0.573971 0.066997 0.
0.575973 0.0669957 0.
0.577976 0.0669943 0.
0.579978 0.066993 0.
0.58198 0.0669917 0.
0.583982 0.0669904 0.
0.585983 0.0669892 0.
0.587985 0.0669879 0.
0.589987 0.0669874 0.
0.591989 0.0669875 0.
0.593991 0.0669876 0.
0.595994 0.066988 0.
0.597997 0.0669884 0.
0.6 0.0669888 0.
0.602003 0.066988 0.
0.604006 0.0669873 0.
0.606009 0.066987 0.
0.60801 0.066988 0.
0.610012 0.0669891 0.
0.612014 0.0669901 0.
0.614016 0.0669912 0.
0.616018 0.0669922 0.
0.61802 0.0669931 0.
0.620023 0.0669938 0.
0.622025 0.0669945 0.
0.624027 0.0669959 0.
0.62603 0.0669974 0.
0.628032 0.066999 0.
0.630034 0.067001 0.
0.632036 0.067003 0.
0.634038 0.067005 0.
0.63604 0.067007 0.
0.638041 0.067009 0.
0.640043 0.0670108 0.
0.642044 0.0670124 0.
0.644046 0.067014 0.
0.646048 0.0670153 0.
0.648051 0.0670166 0.
0.650053 0.0670178 0.
0.652054 0.0670185 0.
0.654056 0.0670192 0.
0.656057 0.0670202 0.
0.658058 0.067022 0.
0.660059 0.0670238 0.
0.66206 0.0670254 0.
0.664061 0.0670267 0.
0.666061 0.0670279 0.
0.668062 0.0670306 0.
0.670063 0.0670338 0.
0.672063 0.0670371 0.
0.674065 0.0670388 0.
0.676066 0.0670403 0.
0.678067 0.0670419 0.
0.680068 0.0670437 0.
0.682069 0.0670454 0.
0.684069 0.0670471 0.
0.686069 0.067049 0.
0.688069 0.0670508 0.
0.69007 0.0670532 0.
0.69207 0.067056 0.
0.694071 0.0670588 0.
0.696071 0.067061 0.
0.698072 0.0670631 0.
0.49993 0.0690631 0.
0.501931 0.0690603 0.
0.503931 0.0690573 0.
0.505932 0.0690544 0.
0.507932 0.0690518 0.
0.509932 0.0690492 0.
0.511932 0.0690468 0.
0.513933 0.0690445 0.
0.515934 0.0690422 0.
0.517934 0.0690398 0.
0.519934 0.0690373 0.
0.521935 0.0690348 0.
0.523935 0.069033 0.
0.525936 0.0690312 0.
0.527937 0.0690295 0.
0.529938 0.0690278 0.
0.531939 0.0690261 0.
0.533939 0.0690244 0.
0.535941 0.0690223 0.
0.537942 0.0690203 0.
0.539943 0.0690186 0.
0.541944 0.0690171 0.
0.543945 0.0690156 0.
0.545946 0.0690144 0.
0.547947 0.0690133 0.
0.549948 0.0690122 0.
0.551951 0.0690111 0.
0.553954 0.0690101 0.
0.555957 0.069009 0.
0.557958 0.0690078 0.
0.559959 0.0690066 0.
0.561961 0.0690053 0.
0.563962 0.0690039 0.
0.565964 0.0690025 0.
0.567966 0.0690009 0.
0.569968 0.0689992 0.
0.57197 0.0689976 0.
0.573972 0.0689961 0.
0.575975 0.0689946 0.
0.577977 0.0689932 0.
0.579979 0.0689919 0.
0.581982 0.0689906 0.
0.583984 0.0689895 0.
0.585985 0.0689887 0.
0.587986 0.068988 0.
0.589988 0.0689874 0.
0.59199 0.0689869 0.
0.593992 0.0689865 0.
0.595994 0.0689872 0.
0.597997 0.0689883 0.
0.6 0.0689893 0.
0.602003 0.0689886 0.
0.604006 0.0689878 0.
0.606009 0.0689873 0.
0.60801 0.0689876 0.
0.610012 0.0689879 0.
0.612014 0.0689886 0.
0.614015 0.0689898 0.
0.616017 0.068991 0.
0.618019 0.0689921 0.
0.620021 0.0689932 0.
0.622023 0.0689943 0.
0.624026 0.0689958 0.
0.626028 0.0689973 0.
0.62803 0.0689988 0.
0.630032 0.0690004 0.
0.632035 0.0690019 0.
0.634037 0.0690038 0.
0.636038 0.0690063 0.
0.63804 0.0690088 0.
0.640041 0.0690105 0.
0.642043 0.0690118 0.
0.644045 0.0690131 0.
0.646047 0.0690143 0.
0.648049 0.0690155 0.
0.650051 0.0690167 0.
0.652052 0.0690177 0.
0.654053 0.0690187 0.
0.656054 0.06902 0.
0.658055 0.0690221 0.
0.660056 0.0690242 0.
0.662057 0.0690259 0.
0.664058 0.0690272 0.
0.666058 0.0690285 0.
0.668059 0.069031 0.
0.670059 0.0690341 0.
0.67206 0.0690372 0.
0.674062 0.0690389 0.
0.676063 0.0690405 0.
0.678065 0.0690421 0.
0.680066 0.0690438 0.
0.682066 0.0690454 0.
0.684067 0.0690472 0.
0.686067 0.0690494 0.
0.688067 0.0690515 0.
0.690067 0.0690539 0.
0.692068 0.0690566 0.
0.694069 0.0690593 0.
0.696069 0.0690609 0.
0.698069 0.0690624 0.
0.499933 0.0710627 0.
0.501933 0.0710604 0.
0.503934 0.0710578 0.
0.505934 0.0710551 0.
0.507934 0.0710522 0.
0.509934 0.0710493 0.
0.511935 0.0710468 0.
0.513935 0.0710448 0.
0.515936 0.0710427 0.
0.517937 0.0710404 0.
0.519937 0.0710379 0.
0.521937 0.0710354 0.
0.523938 0.0710334 0.
0.525939 0.0710315 0.
0.52794 0.0710296 0.
0.52994 0.0710277 0.
0.531941 0.0710259 0.
0.533942 0.071024 0.
0.535943 0.071022 0.
0.537944 0.07102 0.
0.539945 0.0710183 0.
0.541946 0.0710167 0.
0.543947 0.0710151 0.
0.545948 0.0710137 0.
0.547949 0.0710125 0.
0.54995 0.0710112 0.
0.551953 0.0710102 0.
0.553956 0.0710093 0.
0.555958 0.0710083 0.
0.55796 0.0710071 0.
0.559961 0.071006 0.
0.561962 0.0710047 0.
0.563963 0.0710032 0.
0.565965 0.0710017 0.
0.567967 0.0710001 0.
0.569969 0.0709984 0.
0.571971 0.0709968 0.
0.573973 0.0709953 0.
0.575976 0.0709938 0.
0.577978 0.0709923 0.
0.57998 0.0709911 0.
0.581983 0.0709898 0.
0.583985 0.0709888 0.
0.585986 0.0709882 0.
0.587987 0.0709877 0.
0.589989 0.0709871 0.
0.59199 0.0709865 0.
0.593992 0.0709859 0.
0.595995 0.0709867 0.
0.597997 0.0709879 0.
0.6 0.0709891 0.
0.602003 0.0709884 0.
0.604006 0.0709878 0.
0.606009 0.0709873 0.
0.60801 0.0709871 0.
0.610012 0.070987 0.
0.612013 0.0709876 0.
0.614015 0.070989 0.
0.616016 0.0709905 0.
0.618018 0.0709916 0.
0.62002 0.0709927 0.
0.622022 0.0709937 0.
0.624024 0.0709952 0.
0.626027 0.0709967 0.
0.628029 0.0709981 0.
0.630031 0.0709996 0.
0.632033 0.0710011 0.
0.634035 0.071003 0.
0.636037 0.0710054 0.
0.638038 0.0710079 0.
0.64004 0.0710097 0.
0.642041 0.071011 0.
0.644043 0.0710123 0.
0.646045 0.0710136 0.
0.648047 0.0710149 0.
0.650049 0.0710162 0.
0.65205 0.0710174 0.
0.654051 0.0710186 0.
0.656051 0.07102 0.
0.658053 0.0710221 0.
0.660054 0.0710242 0.
0.662054 0.071026 0.
0.664055 0.0710276 0.
0.666056 0.0710292 0.
0.668056 0.0710317 0.
0.670057 0.0710345 0.
0.672058 0.0710373 0.
0.674059 0.0710389 0.
0.676061 0.0710404 0.
0.678062 0.071042 0.
0.680063 0.0710439 0.
0.682063 0.0710458 0.
0.684064 0.0710478 0.
0.686064 0.0710499 0.
0.688064 0.071052 0.
0.690064 0.0710545 0.
0.692065 0.0710571 0.
0.694066 0.0710598 0.
0.696066 0.0710613 0.
0.698066 0.0710625 0.
0.499936 0.0730624 0.
0.501936 0.0730602 0.
0.503936 0.0730579 0.
0.505937 0.0730555 0.
0.507937 0.0730525 0.
0.509937 0.0730495 0.
0.511937 0.073047 0.
0.513938 0.073045 0.
0.515938 0.073043 0.
0.517939 0.0730407 0.
0.519939 0.0730383 0.
0.52194 0.0730359 0.
0.52394 0.0730337 0.
0.525941 0.0730315 0.
0.527942 0.0730293 0.
0.529943 0.0730273 0.
0.531943 0.0730254 0.
0.533944 0.0730235 0.
0.535945 0.0730217 0.
0.537946 0.07302 0.
0.539947 0.0730183 0.
0.541949 0.0730166 0.
0.54395 0.0730149 0.
0.545951 0.0730133 0.
0.547952 0.0730117 0.
0.549953 0.0730101 0.
0.551955 0.0730092 0.
0.553957 0.0730084 0.
0.555959 0.0730075 0.
0.557961 0.0730064 0.
0.559962 0.0730053 0.
0.561963 0.0730039 0.
0.563965 0.0730022 0.
0.565967 0.0730005 0.
0.567969 0.072999 0.
0.56997 0.0729975 0.
0.571972 0.072996 0.
0.573974 0.0729946 0.
0.575977 0.0729932 0.
0.577979 0.0729918 0.
0.579981 0.0729905 0.
0.581983 0.0729893 0.
0.583985 0.0729883 0.
0.585986 0.0729877 0.
0.587988 0.0729872 0.
0.58999 0.0729867 0.
0.591991 0.0729864 0.
0.593993 0.0729861 0.
0.595995 0.0729866 0.
0.597998 0.0729873 0.
0.600001 0.072988 0.
0.602003 0.0729876 0.
0.604006 0.0729872 0.
0.606008 0.0729869 0.
0.60801 0.0729866 0.
0.610012 0.0729863 0.
0.612013 0.072987 0.
0.614014 0.0729888 0.
0.616015 0.0729906 0.
0.618017 0.0729916 0.
0.620019 0.0729922 0.
0.62202 0.0729929 0.
0.624023 0.0729941 0.
0.626026 0.0729954 0.
0.628028 0.0729968 0.
0.63003 0.0729986 0.
0.632032 0.0730005 0.
0.634034 0.0730024 0.
0.636035 0.0730044 0.
0.638037 0.0730063 0.
0.640038 0.0730082 0.
0.64204 0.0730099 0.
0.644041 0.0730116 0.
0.646043 0.0730132 0.
0.648045 0.0730147 0.
0.650047 0.0730162 0.
0.652048 0.0730176 0.
0.654048 0.073019 0.
0.656049 0.0730204 0.
0.65805 0.0730221 0.
0.660051 0.0730238 0.
0.662052 0.0730257 0.
0.664053 0.0730279 0.
0.666054 0.07303 0.
0.668055 0.0730324 0.
0.670055 0.0730349 0.
0.672056 0.0730374 0.
0.674057 0.0730388 0.
0.676058 0.0730401 0.
0.678059 0.0730415 0.
0.68006 0.073044 0.
0.68206 0.0730464 0.
0.68406 0.0730487 0.
0.68606 0.0730505 0.
0.68806 0.0730524 0.
0.690061 0.0730549 0.
0.692062 0.0730577 0.
0.694063 0.0730604 0.
0.696063 0.073062 0.
0.698062 0.0730633 0.
0.499939 0.0750619 0.
0.501939 0.07506 0.
0.503939 0.0750581 0.
0.505939 0.0750559 0.
0.507939 0.0750528 0.
0.50994 0.0750498 0.
0.51194 0.0750472 0.
0.51394 0.0750452 0.
0.51594 0.0750432 0.
0.517941 0.075041 0.
0.519941 0.0750387 0.
0.521942 0.0750364 0.
0.523943 0.0750339 0.
0.525943 0.0750314 0.
0.527944 0.075029 0.
0.529945 0.0750269 0.
0.531946 0.0750249 0.
0.533947 0.075023 0.
0.535948 0.0750215 0.
0.537949 0.07502 0.
0.53995 0.0750183 0.
0.541951 0.0750164 0.
0.543952 0.0750146 0.
0.545953 0.0750128 0.
0.547954 0.0750109 0.
0.549955 0.075009 0.
0.551957 0.0750082 0.
0.553958 0.0750075 0.
0.55596 0.0750068 0.
0.557962 0.0750056 0.
0.559963 0.0750045 0.
0.561965 0.0750031 0.
0.563967 0.0750012 0.
0.565969 0.0749993 0.
0.56797 0.0749978 0.
0.569972 0.0749966 0.
0.571973 0.0749953 0.
0.573975 0.0749939 0.
0.575977 0.0749925 0.
0.577979 0.0749912 0.
0.579981 0.07499 0.
0.581983 0.0749889 0.
0.583984 0.0749879 0.
0.585987 0.0749873 0.
0.587989 0.0749866 0.
0.589991 0.0749863 0.
0.591992 0.0749863 0.
0.593993 0.0749862 0.
0.595995 0.0749864 0.
0.597998 0.0749867 0.
0.600001 0.0749869 0.
0.602003 0.0749868 0.
0.604006 0.0749867 0.
0.606008 0.0749865 0.
0.60801 0.074986 0.
0.610011 0.0749856 0.
0.612013 0.0749864 0.
0.614013 0.0749885 0.
0.616013 0.0749907 0.
0.618015 0.0749916 0.
0.620017 0.0749918 0.
0.622019 0.074992 0.
0.624022 0.0749931 0.
0.626025 0.0749942 0.
0.628027 0.0749955 0.
0.630029 0.0749977 0.
0.632031 0.0749999 0.
0.634032 0.0750018 0.
0.636034 0.0750033 0.
0.638035 0.0750048 0.
0.640037 0.0750067 0.
0.642038 0.0750088 0.
0.64404 0.0750109 0.
0.646041 0.0750127 0.
0.648043 0.0750145 0.
0.650044 0.0750163 0.
0.652045 0.0750178 0.
0.654046 0.0750193 0.
0.656047 0.0750208 0.
0.658048 0.0750221 0.
0.660049 0.0750235 0.
0.66205 0.0750255 0.
0.664051 0.0750281 0.
0.666052 0.0750307 0.
0.668053 0.0750331 0.
0.670053 0.0750353 0.
0.672054 0.0750376 0.
0.674055 0.0750388 0.
0.676056 0.0750398 0.
0.678056 0.0750411 0.
0.680057 0.0750441 0.
0.682057 0.0750471 0.
0.684057 0.0750495 0.
0.686057 0.0750512 0.
0.688057 0.0750529 0.
0.690057 0.0750553 0.
0.692058 0.0750582 0.
0.694059 0.075061 0.
0.696059 0.0750627 0.
0.698059 0.0750641 0.
0.499941 0.0770616 0.
0.501941 0.07706 0.
0.503941 0.0770583 0.
0.505942 0.0770563 0.
0.507942 0.0770535 0.
0.509942 0.0770507 0.
0.511943 0.077048 0.
0.513943 0.0770455 0.
0.515943 0.077043 0.
0.517943 0.0770405 0.
0.519944 0.0770381 0.
0.521945 0.0770357 0.
0.523945 0.0770334 0.
0.525946 0.0770311 0.
0.527947 0.0770288 0.
0.529948 0.0770268 0.
0.531949 0.0770248 0.
0.53395 0.0770229 0.
0.535951 0.0770213 0.
0.537952 0.0770197 0.
0.539953 0.0770179 0.
0.541954 0.077016 0.
0.543955 0.0770141 0.
0.545956 0.0770125 0.
0.547957 0.0770109 0.
0.549958 0.0770093 0.
0.55196 0.0770084 0.
0.553961 0.0770075 0.
0.555962 0.0770065 0.
0.557964 0.0770051 0.
0.559965 0.0770037 0.
0.561966 0.0770022 0.
0.563968 0.0770004 0.
0.565969 0.0769986 0.
0.567971 0.0769971 0.
0.569972 0.0769958 0.
0.571974 0.0769944 0.
0.573976 0.0769932 0.
0.575978 0.076992 0.
0.57798 0.0769907 0.
0.579981 0.0769895 0.
0.581983 0.0769883 0.
0.583985 0.0769873 0.
0.585987 0.0769867 0.
0.587989 0.0769862 0.
0.58999 0.0769859 0.
0.591992 0.0769858 0.
0.593993 0.0769857 0.
0.595995 0.0769858 0.
0.597998 0.076986 0.
0.600001 0.0769862 0.
0.602003 0.0769862 0.
0.604005 0.0769862 0.
0.606008 0.0769861 0.
0.608009 0.076986 0.
0.61001 0.0769858 0.
0.612012 0.0769864 0.
0.614013 0.0769878 0.
0.616014 0.0769893 0.
0.618015 0.0769903 0.
0.620017 0.076991 0.
0.622019 0.0769918 0.
0.624021 0.0769928 0.
0.626023 0.0769938 0.
0.628026 0.0769949 0.
0.630027 0.0769967 0.
0.632029 0.0769985 0.
0.63403 0.0770004 0.
0.636032 0.0770024 0.
0.638034 0.0770045 0.
0.640035 0.0770065 0.
0.642037 0.0770084 0.
0.644038 0.0770103 0.
0.646039 0.0770123 0.
0.648041 0.0770144 0.
0.650042 0.0770164 0.
0.652043 0.0770177 0.
0.654044 0.077019 0.
0.656045 0.0770203 0.
0.658046 0.0770216 0.
0.660047 0.0770229 0.
0.662048 0.0770248 0.
0.664048 0.0770275 0.
0.666049 0.0770302 0.
0.66805 0.0770325 0.
0.67005 0.0770346 0.
0.672051 0.0770368 0.
0.674052 0.0770385 0.
0.676053 0.0770401 0.
0.678054 0.0770419 0.
0.680054 0.0770448 0.
0.682055 0.0770478 0.
0.684055 0.0770502 0.
0.686055 0.0770517 0.
0.688054 0.0770531 0.
0.690055 0.0770552 0.
0.692055 0.0770578 0.
0.694056 0.0770603 0.
0.696056 0.0770622 0.
0.698056 0.077064 0.
0.499944 0.0790612 0.
0.501944 0.0790599 0.
0.503944 0.0790585 0.
0.505944 0.0790568 0.
0.507945 0.0790542 0.
0.509945 0.0790517 0.
0.511945 0.0790489 0.
0.513945 0.0790458 0.
0.515945 0.0790428 0.
0.517946 0.07904 0.
0.519946 0.0790375 0.
0.521947 0.079035 0.
0.523948 0.0790329 0.
0.525949 0.0790308 0.
0.52795 0.0790287 0.
0.529951 0.0790267 0.
0.531952 0.0790247 0.
0.533953 0.0790228 0.
0.535954 0.0790211 0.
0.537955 0.0790194 0.
0.539956 0.0790176 0.
0.541957 0.0790156 0.
0.543957 0.0790136 0.
0.545959 0.0790122 0.
0.54796 0.0790109 0.
0.549961 0.0790095 0.
0.551963 0.0790085 0.
0.553964 0.0790075 0.
0.555965 0.0790063 0.
0.557966 0.0790046 0.
0.559967 0.0790029 0.
0.561968 0.0790013 0.
0.563969 0.0789996 0.
0.56597 0.078998 0.
0.567972 0.0789964 0.
0.569973 0.078995 0.
0.571975 0.0789935 0.
0.573977 0.0789924 0.
0.575979 0.0789914 0.
0.57798 0.0789903 0.
0.579982 0.078989 0.
0.581983 0.0789877 0.
0.583985 0.0789867 0.
0.585987 0.0789862 0.
0.587988 0.0789857 0.
0.58999 0.0789854 0.
0.591991 0.0789852 0.
0.593993 0.0789851 0.
0.595995 0.0789851 0.
0.597997 0.0789853 0.
0.6 0.0789854 0.
0.602002 0.0789855 0.
0.604005 0.0789856 0.
0.606007 0.0789858 0.
0.608008 0.0789859 0.
0.610009 0.078986 0.
0.612011 0.0789864 0.
0.614012 0.0789871 0.
0.616014 0.0789879 0.
0.618015 0.078989 0.
0.620017 0.0789903 0.
0.622018 0.0789915 0.
0.62402 0.0789925 0.
0.626022 0.0789934 0.
0.628024 0.0789944 0.
0.630025 0.0789958 0.
0.632027 0.0789971 0.
0.634028 0.0789989 0.
0.63603 0.0790015 0.
0.638032 0.0790041 0.
0.640034 0.0790062 0.
0.642035 0.0790079 0.
0.644036 0.0790096 0.
0.646037 0.0790118 0.
0.648039 0.0790142 0.
0.65004 0.0790166 0.
0.652041 0.0790176 0.
0.654041 0.0790186 0.
0.656042 0.0790197 0.
0.658043 0.079021 0.
0.660045 0.0790223 0.
0.662046 0.0790242 0.
0.664046 0.0790269 0.
0.666046 0.0790296 0.
0.668047 0.0790319 0.
0.670047 0.0790339 0.
0.672048 0.079036 0.
0.674049 0.0790382 0.
0.67605 0.0790403 0.
0.678051 0.0790426 0.
0.680051 0.0790456 0.
0.682052 0.0790486 0.
0.684052 0.0790509 0.
0.686052 0.0790522 0.
0.688052 0.0790534 0.
0.690052 0.0790552 0.
0.692052 0.0790573 0.
0.694053 0.0790595 0.
0.696053 0.0790617 0.
0.698054 0.0790639 0.
0.499946 0.0810614 0.
0.501946 0.08106 0.
0.503946 0.0810584 0.
0.505947 0.0810567 0.
0.507947 0.0810543 0.
0.509948 0.0810519 0.
0.511948 0.0810491 0.
0.513948 0.0810459 0.
0.515948 0.0810427 0.
0.517949 0.0810399 0.
0.519949 0.0810374 0.
0.52195 0.0810348 0.
0.523951 0.0810327 0.
0.525952 0.0810305 0.
0.527953 0.0810284 0.
0.529954 0.0810265 0.
0.531955 0.0810246 0.
0.533956 0.0810227 0.
0.535957 0.0810209 0.
0.537958 0.0810192 0.
0.539959 0.0810173 0.
0.541959 0.0810154 0.
0.54396 0.0810134 0.
0.545961 0.0810121 0.
0.547962 0.081011 0.
0.549964 0.0810099 0.
0.551965 0.0810086 0.
0.553966 0.0810073 0.
0.555966 0.0810058 0.
0.557967 0.0810042 0.
0.559968 0.0810026 0.
0.561969 0.0810009 0.
0.563971 0.0809991 0.
0.565972 0.0809973 0.
0.567973 0.0809958 0.
0.569975 0.0809943 0.
0.571976 0.0809929 0.
0.573978 0.0809919 0.
0.575979 0.080991 0.
0.577981 0.08099 0.
0.579983 0.0809887 0.
0.581984 0.0809874 0.
0.583986 0.0809864 0.
0.585987 0.0809859 0.
0.587988 0.0809855 0.
0.58999 0.0809851 0.
0.591991 0.0809847 0.
0.593993 0.0809844 0.
0.595995 0.0809845 0.
0.597997 0.0809846 0.
0.599999 0.0809848 0.
0.602002 0.0809848 0.
0.604004 0.0809849 0.
0.606007 0.0809851 0.
0.608007 0.0809854 0.
0.610008 0.0809858 0.
0.61201 0.0809862 0.
0.614011 0.0809866 0.
0.616013 0.0809871 0.
0.618014 0.0809882 0.
0.620016 0.0809896 0.
0.622017 0.080991 0.
0.624019 0.080992 0.
0.626021 0.080993 0.
0.628022 0.080994 0.
0.630024 0.0809952 0.
0.632025 0.0809964 0.
0.634026 0.0809981 0.
0.636028 0.0810007 0.
0.63803 0.0810033 0.
0.640031 0.0810055 0.
0.642033 0.0810073 0.
0.644034 0.0810091 0.
0.646035 0.0810114 0.
0.648037 0.0810137 0.
0.650038 0.0810161 0.
0.652038 0.0810171 0.
0.654039 0.0810182 0.
0.65604 0.0810193 0.
0.658041 0.0810207 0.
0.660042 0.0810221 0.
0.662043 0.0810241 0.
0.664043 0.0810267 0.
0.666043 0.0810292 0.
0.668044 0.0810315 0.
0.670045 0.0810337 0.
0.672045 0.0810358 0.
0.674046 0.0810382 0.
0.676047 0.0810405 0.
0.678048 0.0810429 0.
0.680049 0.0810459 0.
0.682049 0.0810488 0.
0.68405 0.0810512 0.
0.68605 0.0810524 0.
0.68805 0.0810537 0.
0.69005 0.0810553 0.
0.69205 0.0810573 0.
0.694051 0.0810593 0.
0.696051 0.0810617 0.
0.698052 0.0810642 0.
0.499949 0.0830621 0.
0.501949 0.0830602 0.
0.503949 0.0830581 0.
0.505949 0.083056 0.
0.50795 0.0830537 0.
0.50995 0.0830514 0.
0.511951 0.0830488 0.
0.513951 0.0830459 0.
0.515952 0.0830429 0.
0.517952 0.0830402 0.
0.519952 0.0830377 0.
0.521952 0.0830352 0.
0.523953 0.0830328 0.
0.525954 0.0830303 0.
0.527955 0.0830279 0.
0.529956 0.0830262 0.
0.531957 0.0830244 0.
0.533957 0.0830226 0.
0.535958 0.0830208 0.
0.537959 0.083019 0.
0.53996 0.0830172 0.
0.541961 0.0830153 0.
0.543962 0.0830134 0.
0.545963 0.0830123 0.
0.547964 0.0830114 0.
0.549964 0.0830104 0.
0.551966 0.0830087 0.
0.553967 0.0830069 0.
0.555968 0.0830052 0.
0.557969 0.0830039 0.
0.55997 0.0830026 0.
0.561971 0.083001 0.
0.563973 0.0829989 0.
0.565974 0.0829967 0.
0.567975 0.0829951 0.
0.569976 0.0829938 0.
0.571978 0.0829925 0.
0.573979 0.0829915 0.
0.575981 0.0829906 0.
0.577982 0.0829896 0.
0.579984 0.0829884 0.
0.581985 0.0829872 0.
0.583987 0.0829863 0.
0.585988 0.0829858 0.
0.587989 0.0829854 0.
0.58999 0.0829848 0.
0.591992 0.0829842 0.
0.593993 0.0829836 0.
0.595995 0.0829837 0.
0.597997 0.082984 0.
0.599999 0.0829843 0.
0.602001 0.0829842 0.
0.604003 0.082984 0.
0.606005 0.082984 0.
0.608006 0.0829845 0.
0.610007 0.082985 0.
0.612009 0.0829856 0.
0.61401 0.0829863 0.
0.616012 0.082987 0.
0.618013 0.0829879 0.
0.620014 0.082989 0.
0.622016 0.0829901 0.
0.624017 0.0829913 0.
0.626019 0.0829925 0.
0.628021 0.0829938 0.
0.630022 0.082995 0.
0.632023 0.0829963 0.
0.634024 0.0829979 0.
0.636025 0.0829999 0.
0.638027 0.083002 0.
0.640028 0.0830042 0.
0.64203 0.0830066 0.
0.644031 0.0830089 0.
0.646033 0.083011 0.
0.648034 0.083013 0.
0.650036 0.0830149 0.
0.652037 0.0830163 0.
0.654037 0.0830176 0.
0.656038 0.083019 0.
0.658039 0.0830206 0.
0.66004 0.0830223 0.
0.66204 0.0830243 0.
0.664041 0.0830267 0.
0.666041 0.0830291 0.
0.668041 0.0830314 0.
0.670042 0.0830338 0.
0.672043 0.0830362 0.
0.674043 0.0830384 0.
0.676044 0.0830407 0.
0.678045 0.083043 0.
0.680046 0.0830458 0.
0.682047 0.0830486 0.
0.684047 0.083051 0.
0.686048 0.0830525 0.
0.688048 0.083054 0.
0.690049 0.0830557 0.
0.692049 0.0830576 0.
0.694049 0.0830595 0.
0.69605 0.083062 0.
0.698051 0.0830647 0.
0.499952 0.0850631 0.
0.501952 0.0850604 0.
0.503952 0.0850579 0.
0.505952 0.0850554 0.
0.507953 0.0850532 0.
0.509953 0.085051 0.
0.511954 0.0850485 0.
0.513954 0.0850458 0.
0.515955 0.085043 0.
0.517955 0.0850404 0.
0.519955 0.085038 0.
0.521955 0.0850355 0.
0.523956 0.0850329 0.
0.525957 0.0850302 0.
0.527958 0.0850275 0.
0.529958 0.0850259 0.
0.531958 0.0850242 0.
0.533959 0.0850225 0.
0.53596 0.0850207 0.
0.53796 0.0850188 0.
0.539961 0.085017 0.
0.541963 0.0850153 0.
0.543965 0.0850135 0.
0.545965 0.0850125 0.
0.547965 0.0850117 0.
0.549965 0.0850109 0.
0.551967 0.0850087 0.
0.553968 0.0850065 0.
0.555969 0.0850045 0.
0.55797 0.0850036 0.
0.559972 0.0850027 0.
0.561973 0.0850011 0.
0.563975 0.0849986 0.
0.565976 0.0849961 0.
0.567977 0.0849945 0.
0.569978 0.0849933 0.
0.571979 0.0849921 0.
0.57398 0.0849912 0.
0.575982 0.0849903 0.
0.577983 0.0849893 0.
0.579985 0.0849882 0.
0.581987 0.0849871 0.
0.583988 0.0849862 0.
0.585989 0.0849857 0.
0.58799 0.0849853 0.
0.589991 0.0849845 0.
0.591992 0.0849836 0.
0.593993 0.0849827 0.
0.595995 0.0849829 0.
0.597997 0.0849834 0.
0.599999 0.084984 0.
0.602001 0.0849835 0.
0.604002 0.0849831 0.
0.606004 0.0849829 0.
0.608005 0.0849836 0.
0.610006 0.0849843 0.
0.612008 0.0849851 0.
0.614009 0.084986 0.
0.61601 0.0849868 0.
0.618011 0.0849876 0.
0.620013 0.0849884 0.
0.622014 0.0849892 0.
0.624016 0.0849906 0.
0.626018 0.0849921 0.
0.628019 0.0849935 0.
0.63002 0.0849949 0.
0.632021 0.0849963 0.
0.634022 0.0849976 0.
0.636023 0.0849992 0.
0.638024 0.0850007 0.
0.640025 0.085003 0.
0.642027 0.0850059 0.
0.644028 0.0850087 0.
0.64603 0.0850106 0.
0.648032 0.0850122 0.
0.650034 0.0850138 0.
0.652035 0.0850154 0.
0.654035 0.085017 0.
0.656036 0.0850187 0.
0.658036 0.0850206 0.
0.660037 0.0850225 0.
0.662038 0.0850245 0.
0.664038 0.0850267 0.
0.666038 0.0850289 0.
0.668039 0.0850313 0.
0.670039 0.0850339 0.
0.67204 0.0850365 0.
0.67404 0.0850387 0.
0.676041 0.0850408 0.
0.678042 0.085043 0.
0.680043 0.0850457 0.
0.682044 0.0850485 0.
0.684045 0.0850508 0.
0.686046 0.0850526 0.
0.688047 0.0850543 0.
0.690047 0.0850561 0.
0.692048 0.0850579 0.
0.694048 0.0850598 0.
0.696049 0.0850624 0.
0.698049 0.0850651 0.
0.499956 0.0870635 0.
0.501956 0.0870608 0.
0.503956 0.0870581 0.
0.505956 0.0870556 0.
0.507956 0.0870534 0.
0.509956 0.0870513 0.
0.511957 0.0870488 0.
0.513957 0.0870459 0.
0.515958 0.0870429 0.
0.517958 0.0870403 0.
0.519958 0.0870379 0.
0.521958 0.0870354 0.
0.523959 0.0870329 0.
0.52596 0.0870304 0.
0.52796 0.0870278 0.
0.529961 0.0870259 0.
0.531961 0.087024 0.
0.533961 0.0870221 0.
0.535962 0.0870204 0.
0.537962 0.0870187 0.
0.539964 0.0870171 0.
0.541965 0.0870156 0.
0.543966 0.0870141 0.
0.545967 0.0870126 0.
0.547967 0.0870112 0.
0.549967 0.0870098 0.
0.551968 0.0870079 0.
0.553969 0.087006 0.
0.555971 0.0870042 0.
0.557972 0.0870031 0.
0.559973 0.0870019 0.
0.561974 0.0870005 0.
0.563976 0.0869988 0.
0.565977 0.0869971 0.
0.567978 0.0869955 0.
0.569979 0.086994 0.
0.571979 0.0869925 0.
0.573981 0.0869911 0.
0.575982 0.0869897 0.
0.577984 0.0869883 0.
0.579985 0.0869874 0.
0.581987 0.0869864 0.
0.583988 0.0869856 0.
0.585989 0.0869849 0.
0.58799 0.0869842 0.
0.589991 0.0869837 0.
0.591993 0.0869833 0.
0.593994 0.0869829 0.
0.595996 0.0869827 0.
0.597998 0.0869826 0.
0.599999 0.0869824 0.
0.602001 0.0869825 0.
0.604002 0.0869826 0.
0.606004 0.0869828 0.
0.608005 0.0869834 0.
0.610006 0.086984 0.
0.612007 0.0869846 0.
0.614008 0.0869851 0.
0.616009 0.0869857 0.
0.61801 0.0869866 0.
0.620012 0.0869877 0.
0.622013 0.0869888 0.
0.624015 0.0869903 0.
0.626017 0.0869918 0.
0.628018 0.0869933 0.
0.630019 0.0869945 0.
0.632019 0.0869956 0.
0.63402 0.0869969 0.
0.636021 0.0869985 0.
0.638022 0.087 0.
0.640023 0.0870023 0.
0.642025 0.087005 0.
0.644026 0.0870077 0.
0.646028 0.0870098 0.
0.64803 0.0870116 0.
0.650032 0.0870135 0.
0.652032 0.0870151 0.
0.654032 0.0870167 0.
0.656033 0.0870184 0.
0.658033 0.0870204 0.
0.660034 0.0870224 0.
0.662035 0.0870245 0.
0.664035 0.0870265 0.
0.666035 0.0870285 0.
0.668036 0.0870308 0.
0.670036 0.0870333 0.
0.672037 0.0870358 0.
0.674037 0.087038 0.
0.676038 0.0870402 0.
0.678039 0.0870425 0.
0.68004 0.0870453 0.
0.682041 0.0870481 0.
0.684042 0.0870506 0.
0.686043 0.0870526 0.
0.688043 0.0870546 0.
0.690044 0.0870564 0.
0.692044 0.0870582 0.
0.694045 0.08706 0.
0.696046 0.0870623 0.
0.698046 0.0870647 0.
0.49996 0.089064 0.
0.50196 0.0890612 0.
0.503959 0.0890584 0.
0.505959 0.0890557 0.
0.507959 0.0890536 0.
0.509959 0.0890515 0.
0.511959 0.089049 0.
0.51396 0.0890459 0.
0.51596 0.0890428 0.
0.51796 0.0890401 0.
0.51996 0.0890377 0.
0.52196 0.0890353 0.
0.523961 0.0890329 0.
0.525962 0.0890305 0.
0.527963 0.0890282 0.
0.529963 0.089026 0.
0.531963 0.0890237 0.
0.533963 0.0890217 0.
0.535964 0.0890201 0.
0.537965 0.0890185 0.
0.539966 0.0890171 0.
0.541967 0.0890159 0.
0.543968 0.0890147 0.
0.545968 0.0890128 0.
0.547968 0.0890107 0.
0.549968 0.0890087 0.
0.551969 0.0890071 0.
0.553971 0.0890055 0.
0.555972 0.089004 0.
0.557973 0.0890026 0.
0.559975 0.0890012 0.
0.561976 0.089 0.
0.563977 0.0889991 0.
0.565978 0.0889981 0.
0.567978 0.0889966 0.
0.569979 0.0889947 0.
0.57198 0.0889928 0.
0.573981 0.0889909 0.
0.575983 0.0889891 0.
0.577984 0.0889873 0.
0.579986 0.0889866 0.
0.581987 0.0889858 0.
0.583988 0.088985 0.
0.585989 0.0889841 0.
0.587991 0.0889831 0.
0.589992 0.0889828 0.
0.591994 0.088983 0.
0.593995 0.0889832 0.
0.595997 0.0889826 0.
0.597998 0.0889817 0.
0.6 0.0889809 0.
0.602001 0.0889815 0.
0.604003 0.0889822 0.
0.606004 0.0889827 0.
0.608004 0.0889832 0.
0.610005 0.0889837 0.
0.612006 0.0889841 0.
0.614007 0.0889843 0.
0.616008 0.0889846 0.
0.618009 0.0889856 0.
0.62001 0.088987 0.
0.622012 0.0889884 0.
0.624013 0.0889899 0.
0.626016 0.0889915 0.
0.628017 0.088993 0.
0.630018 0.088994 0.
0.632018 0.088995 0.
0.634019 0.0889962 0.
0.63602 0.0889978 0.
0.638021 0.0889994 0.
0.640021 0.0890015 0.
0.642022 0.0890041 0.
0.644023 0.0890067 0.
0.646025 0.0890089 0.
0.648027 0.0890111 0.
0.650029 0.0890132 0.
0.652029 0.0890148 0.
0.65403 0.0890164 0.
0.65603 0.0890181 0.
0.65803 0.0890202 0.
0.660031 0.0890224 0.
0.662031 0.0890244 0.
0.664032 0.0890262 0.
0.666033 0.089028 0.
0.668033 0.0890303 0.
0.670034 0.0890327 0.
0.672034 0.0890351 0.
0.674035 0.0890374 0.
0.676035 0.0890396 0.
0.678036 0.089042 0.
0.680037 0.0890449 0.
0.682038 0.0890478 0.
0.684039 0.0890504 0.
0.68604 0.0890526 0.
0.68804 0.0890548 0.
0.690041 0.0890568 0.
0.692041 0.0890585 0.
0.694042 0.0890603 0.
0.696043 0.0890622 0.
0.698044 0.0890642 0.
0.499963 0.0910635 0.
0.501963 0.091061 0.
0.503963 0.0910583 0.
0.505962 0.0910558 0.
0.507962 0.0910536 0.
0.509962 0.0910515 0.
0.511962 0.091049 0.
0.513963 0.091046 0.
0.515963 0.0910429 0.
0.517963 0.0910403 0.
0.519963 0.091038 0.
0.521963 0.0910356 0.
0.523964 0.0910332 0.
0.525964 0.0910308 0.
0.527965 0.0910284 0.
0.529965 0.091026 0.
0.531965 0.0910237 0.
0.533966 0.0910216 0.
0.535966 0.09102 0.
0.537967 0.0910184 0.
0.539968 0.091017 0.
0.541969 0.0910158 0.
0.54397 0.0910146 0.
0.54597 0.0910125 0.
0.54797 0.0910101 0.
0.54997 0.0910077 0.
0.551971 0.0910064 0.
0.553973 0.0910051 0.
0.555974 0.0910037 0.
0.557975 0.0910021 0.
0.559976 0.0910005 0.
0.561977 0.0909994 0.
0.563978 0.0909987 0.
0.565979 0.0909981 0.
0.567979 0.0909966 0.
0.56998 0.0909946 0.
0.571981 0.0909926 0.
0.573982 0.0909905 0.
0.575984 0.0909884 0.
0.577985 0.0909865 0.
0.579986 0.0909857 0.
0.581987 0.0909849 0.
0.583988 0.0909841 0.
0.58599 0.0909832 0.
0.587991 0.0909824 0.
0.589993 0.0909822 0.
0.591994 0.0909826 0.
0.593996 0.0909829 0.
0.595997 0.0909821 0.
0.597999 0.0909809 0.
0.6 0.0909797 0.
0.602001 0.0909809 0.
0.604003 0.0909821 0.
0.606004 0.0909831 0.
0.608004 0.0909832 0.
0.610004 0.0909834 0.
0.612005 0.0909835 0.
0.614006 0.0909836 0.
0.616007 0.0909838 0.
0.618008 0.0909849 0.
0.620009 0.0909866 0.
0.622011 0.0909882 0.
0.624012 0.0909896 0.
0.626014 0.0909909 0.
0.628016 0.0909923 0.
0.630016 0.0909933 0.
0.632017 0.0909944 0.
0.634017 0.0909956 0.
0.636018 0.0909971 0.
0.638019 0.0909986 0.
0.64002 0.0910007 0.
0.642021 0.0910033 0.
0.644022 0.0910058 0.
0.646023 0.0910082 0.
0.648025 0.0910105 0.
0.650026 0.0910128 0.
0.652027 0.0910145 0.
0.654027 0.0910161 0.
0.656027 0.0910178 0.
0.658028 0.09102 0.
0.660028 0.0910222 0.
0.662029 0.0910242 0.
0.664029 0.0910261 0.
0.66603 0.091028 0.
0.66803 0.0910301 0.
0.670031 0.0910324 0.
0.672031 0.0910347 0.
0.674032 0.0910371 0.
0.676032 0.0910395 0.
0.678033 0.0910419 0.
0.680034 0.0910447 0.
0.682035 0.0910475 0.
0.684036 0.0910501 0.
0.686037 0.0910524 0.
0.688037 0.0910547 0.
0.690038 0.0910567 0.
0.692038 0.0910585 0.
0.694039 0.0910602 0.
0.69604 0.0910621 0.
0.698041 0.0910639 0.
0.499965 0.0930628 0.
0.501965 0.0930602 0.
0.503965 0.0930579 0.
0.505965 0.0930557 0.
0.507965 0.0930534 0.
0.509965 0.0930512 0.
0.511965 0.0930488 0.
0.513965 0.093046 0.
0.515965 0.0930432 0.
0.517966 0.0930408 0.
0.519966 0.0930386 0.
0.521966 0.0930365 0.
0.523966 0.0930338 0.
0.525966 0.0930311 0.
0.527966 0.0930284 0.
0.529967 0.0930261 0.
0.531968 0.0930239 0.
0.533968 0.0930218 0.
0.535969 0.09302 0.
0.537969 0.0930183 0.
0.53997 0.0930167 0.
0.541971 0.0930153 0.
0.543972 0.0930139 0.
0.545972 0.0930117 0.
0.547973 0.0930093 0.
0.549973 0.0930069 0.
0.551974 0.0930058 0.
0.553975 0.0930047 0.
0.555976 0.0930035 0.
0.557977 0.0930018 0.
0.559978 0.093 0.
0.561979 0.0929987 0.
0.56398 0.0929978 0.
0.56598 0.092997 0.
0.567981 0.0929956 0.
0.569982 0.0929937 0.
0.571983 0.0929919 0.
0.573984 0.0929898 0.
0.575985 0.0929877 0.
0.577986 0.0929857 0.
0.579987 0.0929846 0.
0.581988 0.0929836 0.
0.583989 0.0929828 0.
0.58599 0.0929823 0.
0.587992 0.0929819 0.
0.589993 0.0929818 0.
0.591994 0.092982 0.
0.593995 0.0929822 0.
0.595997 0.0929813 0.
0.597998 0.0929801 0.
0.6 0.0929789 0.
0.602001 0.0929807 0.
0.604002 0.0929826 0.
0.606003 0.0929839 0.
0.608004 0.0929835 0.
0.610004 0.0929831 0.
0.612005 0.092983 0.
0.614006 0.0929831 0.
0.616007 0.0929832 0.
0.618008 0.0929845 0.
0.620009 0.0929864 0.
0.62201 0.0929882 0.
0.624011 0.0929892 0.
0.626012 0.0929901 0.
0.628014 0.0929911 0.
0.630014 0.0929924 0.
0.632015 0.0929938 0.
0.634016 0.0929951 0.
0.636017 0.0929965 0.
0.638018 0.0929979 0.
0.640019 0.0929999 0.
0.64202 0.0930025 0.
0.64402 0.0930051 0.
0.646021 0.0930075 0.
0.648022 0.0930099 0.
0.650023 0.0930123 0.
0.652024 0.093014 0.
0.654025 0.0930158 0.
0.656026 0.0930176 0.
0.658026 0.0930197 0.
0.660027 0.0930219 0.
0.662027 0.093024 0.
0.664027 0.0930261 0.
0.666027 0.0930282 0.
0.668027 0.0930303 0.
0.670028 0.0930324 0.
0.672028 0.0930345 0.
0.674029 0.0930371 0.
0.67603 0.0930397 0.
0.678031 0.0930423 0.
0.680032 0.0930448 0.
0.682033 0.0930473 0.
0.684034 0.0930497 0.
0.686034 0.0930519 0.
0.688035 0.0930542 0.
0.690035 0.0930562 0.
0.692036 0.093058 0.
0.694036 0.0930598 0.
0.696037 0.0930618 0.
0.698037 0.0930638 0.
0.499966 0.0950613 0.
0.501967 0.0950594 0.
0.503967 0.0950575 0.
0.505968 0.0950556 0.
0.507968 0.0950532 0.
0.509968 0.0950509 0.
0.511968 0.0950485 0.
0.513968 0.095046 0.
0.515968 0.0950435 0.
0.517968 0.0950413 0.
0.519968 0.0950393 0.
0.521968 0.0950372 0.
0.523968 0.0950344 0.
0.525968 0.0950313 0.
0.527968 0.0950284 0.
0.529969 0.0950262 0.
0.53197 0.095024 0.
0.533971 0.0950219 0.
0.535971 0.09502 0.
0.537972 0.0950182 0.
0.539972 0.0950164 0.
0.541973 0.0950148 0.
0.543974 0.0950131 0.
0.545974 0.0950109 0.
0.547975 0.0950084 0.
0.549976 0.095006 0.
0.551977 0.0950052 0.
0.553977 0.0950044 0.
0.555978 0.0950033 0.
0.557979 0.0950014 0.
0.55998 0.0949995 0.
0.56198 0.094998 0.
0.563981 0.094997 0.
0.565982 0.094996 0.
0.567983 0.0949946 0.
0.569984 0.0949929 0.
0.571985 0.0949912 0.
0.573985 0.0949891 0.
0.575986 0.094987 0.
0.577986 0.0949849 0.
0.579988 0.0949836 0.
0.581989 0.0949823 0.
0.58399 0.0949815 0.
0.585991 0.0949815 0.
0.587992 0.0949815 0.
0.589993 0.0949814 0.
0.591994 0.0949814 0.
0.593995 0.0949814 0.
0.595996 0.0949805 0.
0.597998 0.0949793 0.
0.6 0.0949781 0.
0.602001 0.0949805 0.
0.604002 0.094983 0.
0.606003 0.0949847 0.
0.608004 0.0949838 0.
0.610005 0.0949829 0.
0.612005 0.0949824 0.
0.614006 0.0949825 0.
0.616006 0.0949826 0.
0.618007 0.0949841 0.
0.620008 0.0949862 0.
0.622009 0.0949882 0.
0.62401 0.0949888 0.
0.626011 0.0949893 0.
0.628011 0.0949899 0.
0.630012 0.0949915 0.
0.632013 0.0949932 0.
0.634014 0.0949947 0.
0.636015 0.0949959 0.
0.638017 0.0949971 0.
0.640018 0.0949991 0.
0.642019 0.0950018 0.
0.644019 0.0950044 0.
0.64602 0.0950069 0.
0.64802 0.0950093 0.
0.65002 0.0950117 0.
0.652022 0.0950136 0.
0.654023 0.0950155 0.
0.656024 0.0950174 0.
0.658024 0.0950195 0.
0.660025 0.0950216 0.
0.662025 0.0950238 0.
0.664025 0.0950261 0.
0.666024 0.0950284 0.
0.668024 0.0950304 0.
0.670025 0.0950324 0.
0.672025 0.0950343 0.
0.674027 0.095037 0.
0.676028 0.0950399 0.
0.678029 0.0950427 0.
0.68003 0.0950449 0.
0.68203 0.0950471 0.
0.684031 0.0950492 0.
0.686031 0.0950515 0.
0.688032 0.0950537 0.
0.690033 0.0950558 0.
0.692033 0.0950576 0.
0.694033 0.0950595 0.
0.696034 0.0950615 0.
0.698034 0.0950637 0.
0.499971 0.0970616 0.
0.501971 0.0970595 0.
0.503971 0.0970573 0.
0.505971 0.0970551 0.
0.507971 0.0970528 0.
0.509972 0.0970506 0.
0.511972 0.0970483 0.
0.513971 0.0970461 0.
0.515971 0.0970439 0.
0.517971 0.0970416 0.
0.519971 0.0970393 0.
0.521971 0.097037 0.
0.523971 0.0970341 0.
0.525971 0.097031 0.
0.527972 0.097028 0.
0.529973 0.097026 0.
0.531973 0.0970239 0.
0.533974 0.0970219 0.
0.535974 0.0970201 0.
0.537974 0.0970183 0.
0.539974 0.0970164 0.
0.541976 0.0970145 0.
0.543977 0.0970126 0.
0.545977 0.0970105 0.
0.547977 0.0970082 0.
0.549978 0.097006 0.
0.551978 0.097005 0.
0.553979 0.0970041 0.
0.555979 0.0970029 0.
0.55798 0.0970012 0.
0.559981 0.0969995 0.
0.561982 0.0969979 0.
0.563983 0.0969966 0.
0.565984 0.0969953 0.
0.567984 0.096994 0.
0.569985 0.0969926 0.
0.571985 0.0969913 0.
0.573986 0.0969891 0.
0.575987 0.0969868 0.
0.577988 0.0969847 0.
0.579989 0.0969835 0.
0.58199 0.0969823 0.
0.583991 0.0969814 0.
0.585992 0.0969814 0.
0.587993 0.0969814 0.
0.589994 0.0969811 0.
0.591995 0.0969806 0.
0.593996 0.09698 0.
0.595997 0.0969796 0.
0.597998 0.096979 0.
0.6 0.0969785 0.
0.602001 0.0969806 0.
0.604002 0.0969827 0.
0.606002 0.0969841 0.
0.608003 0.0969834 0.
0.610004 0.0969826 0.
0.612004 0.0969823 0.
0.614005 0.0969825 0.
0.616006 0.0969828 0.
0.618006 0.0969841 0.
0.620007 0.096986 0.
0.622008 0.0969878 0.
0.624008 0.0969885 0.
0.626009 0.096989 0.
0.62801 0.0969896 0.
0.630011 0.0969913 0.
0.632011 0.0969929 0.
0.634012 0.0969945 0.
0.636013 0.096996 0.
0.638014 0.0969974 0.
0.640015 0.0969994 0.
0.642016 0.0970017 0.
0.644017 0.0970039 0.
0.646018 0.0970063 0.
0.648018 0.0970087 0.
0.650019 0.097011 0.
0.65202 0.097013 0.
0.654021 0.0970149 0.
0.656022 0.097017 0.
0.658022 0.0970194 0.
0.660022 0.0970218 0.
0.662022 0.097024 0.
0.664023 0.097026 0.
0.666023 0.097028 0.
0.668023 0.09703 0.
0.670024 0.0970322 0.
0.672024 0.0970344 0.
0.674025 0.0970368 0.
0.676026 0.0970394 0.
0.678027 0.0970419 0.
0.680027 0.0970443 0.
0.682028 0.0970466 0.
0.684029 0.097049 0.
0.68603 0.0970513 0.
0.68803 0.0970537 0.
0.690031 0.0970559 0.
0.692031 0.097058 0.
0.694031 0.0970601 0.
0.696031 0.0970621 0.
0.698031 0.0970642 0.
0.499975 0.0990618 0.
0.501975 0.0990595 0.
0.503975 0.0990571 0.
0.505975 0.0990546 0.
0.507975 0.0990524 0.
0.509976 0.0990502 0.
0.511976 0.0990481 0.
0.513975 0.0990462 0.
0.515974 0.0990442 0.
0.517974 0.0990419 0.
0.519974 0.0990394 0.
0.521973 0.0990369 0.
0.523974 0.0990338 0.
0.525975 0.0990306 0.
0.527976 0.0990276 0.
0.529976 0.0990257 0.
0.531977 0.0990238 0.
0.533977 0.0990219 0.
0.535976 0.0990201 0.
0.537976 0.0990184 0.
0.539977 0.0990164 0.
0.541979 0.0990143 0.
0.54398 0.0990121 0.
0.54598 0.0990101 0.
0.54798 0.099008 0.
0.549979 0.099006 0.
0.55198 0.0990049 0.
0.55398 0.0990038 0.
0.55598 0.0990026 0.
0.557981 0.099001 0.
0.559982 0.0989994 0.
0.561983 0.0989978 0.
0.563984 0.0989962 0.
0.565985 0.0989946 0.
0.567986 0.0989934 0.
0.569986 0.0989924 0.
0.571986 0.0989913 0.
0.573987 0.0989891 0.
0.575988 0.0989867 0.
0.577989 0.0989844 0.
0.57999 0.0989833 0.
0.581991 0.0989822 0.
0.583992 0.0989814 0.
0.585993 0.0989814 0.
0.587994 0.0989813 0.
0.589995 0.0989807 0.
0.591996 0.0989797 0.
0.593997 0.0989787 0.
0.595998 0.0989786 0.
0.597999 0.0989788 0.
0.599999 0.098979 0.
0.602 0.0989807 0.
0.604001 0.0989824 0.
0.606002 0.0989835 0.
0.608002 0.098983 0.
0.610003 0.0989824 0.
0.612004 0.0989822 0.
0.614005 0.0989826 0.
0.616005 0.098983 0.
0.618006 0.0989842 0.
0.620006 0.0989858 0.
0.622006 0.0989874 0.
0.624007 0.0989881 0.
0.626008 0.0989887 0.
0.628009 0.0989894 0.
0.630009 0.098991 0.
0.63201 0.0989927 0.
0.63401 0.0989943 0.
0.636011 0.098996 0.
0.638012 0.0989977 0.
0.640013 0.0989996 0.
0.642014 0.0990016 0.
0.644014 0.0990035 0.
0.646015 0.0990057 0.
0.648017 0.0990081 0.
0.650018 0.0990104 0.
0.652019 0.0990124 0.
0.65402 0.0990144 0.
0.65602 0.0990166 0.
0.65802 0.0990193 0.
0.66002 0.099022 0.
0.66202 0.0990242 0.
0.664021 0.0990259 0.
0.666022 0.0990276 0.
0.668022 0.0990297 0.
0.670022 0.099032 0.
0.672023 0.0990344 0.
0.674023 0.0990366 0.
0.676024 0.0990389 0.
0.678025 0.0990412 0.
0.680025 0.0990437 0.
0.682026 0.0990462 0.
0.684027 0.0990487 0.
0.686028 0.0990512 0.
0.688029 0.0990537 0.
0.690029 0.0990561 0.
0.692029 0.0990584 0.
0.694029 0.0990607 0.
0.696029 0.0990627 0.
0.698028 0.0990647 0.
CELLS 5000 10000
1 0
1 1
1 2
1 3
1 4
1 5
1 6
1 7
1 8
1 9
1 10
1 11
1 12
1 13
1 14
1 15
1 16
1 17
1 18
1 19
1 20
1 21
1 22
1 23
1 24
1 25
1 26
1 27
1 28
1 29
1 30
1 31
1 32
1 33
1 34
1 35
1 36
1 37
1 38
1 39
1 40
1 41
1 42
1 43
1 44
1 45
1 46
1 47
1 48
1 49
1 50
1 51
1 52
1 53
1 54
1 55
1 56
1 57
1 58
1 59
1 60
1 61
1 62
1 63
1 64
1 65
1 66
1 67
1 68
1 69
1 70
1 71
1 72
1 73
1 74
1 75
1 76
1 77
1 78
1 79
1 80
1 81
1 82
1 83
1 84
1 85
1 86
1 87
1 88
1 89
1 90
1 91
1 92
1 93
1 94
1 95
1 96
1 97
1 98
1 99
1 100
1 101
1 102
1 103
1 104
1 105
1 106
1 107
1 108
1 109
1 110
1 111
1 112
1 113
1 114
1 115
1 116
1 117
1 118
1 119
1 120
1 121
1 122
1 123
1 124
1 125
1 126
1 127
1 128
1 129
1 130
1 131
1 132
1 133
1 134
1 135
1 136
1 137
1 138
1 139
1 140
1 141
1 142
1 143
1 144
1 145
1 146
1 147
1 148
1 149
1 150
1 151
1 152
1 153
1 154
1 155
1 156
1 157
1 158
1 159
1 160
1 161
1 162
1 163
1 164
1 165
1 166
1 167
1 168
1 169
1 170
1 171
1 172
1 173
1 174
1 175
1 176
1 177
1 178
1 179
1 180
1 181
1 182
1 183
1 184
1 185
1 186
1 187
1 188
1 189
1 190
1 191
1 192
1 193
1 194
1 195
1 196
1 197
1 198
1 199
1 200
1 201
1 202
1 203
1 204
1 205
1 206
1 207
1 208
1 209
1 210
1 211
1 212
1 213
1 214
1 215
1 216
1 217
1 218
1 219
1 220
1 221
1 222
1 223
1 224
1 225
1 226
1 227
1 228
1 229
1 230
1 231
1 232
1 233
1 234
1 235
1 236
1 237
1 238
1 239
1 240
1 241
1 242
1 243
1 244
1 245
1 246
1 247
1 248
1 249
1 250
1 251
1 252
1 253
1 254
1 255
1 256
1 257
1 258
1 259
1 260
1 261
1 262
1 263
1 264
1 265
1 266
1 267
1 268
1 269
1 270
1 271
1 272
1 273
1 274
1 275
1 276
1 277
1 278
1 279
1 280
1 281
1 282
1 283
1 284
1 285
1 286
1 287
1 288
1 289
1 290
1 291
1 292
1 293
1 294
1 295
1 296
1 297
1 298
1 299
1 300
1 301
1 302
1 303
1 304
1 305
1 306
1 307
1 308
1 309
1 310
1 311
1 312
1 313
1 314
1 315
1 316
1 317
1 318
1 319
1 320
1 321
1 322
1 323
1 324
1 325
1 326
1 327
1 328
1 329
1 330
1 331
1 332
1 333
1 334
1 335
1 336
1 337
1 338
1 339
1 340
1 341
1 342
1 343
1 344
1 345
1 346
1 347
1 348
1 349
1 350
1 351
1 352
1 353
1 354
1 355
1 356
1 357
1 358
1 359
1 360
1 361
1 362
1 363
1 364
1 365
1 366
1 367
1 368
1 369
1 370
1 371
1 372
1 373
1 374
1 375
1 376
1 377
1 378
1 379
1 380
1 381
1 382
1 383
1 384
1 385
1 386
1 387
1 388
1 389
1 390
1 391
1 392
1 393
1 394
1 395
1 396
1 397
1 398
1 399
1 400
1 401
1 402
1 403
1 404
1 405
1 406
1 407
1 408
1 409
1 410
1 411
1 412
1 413
1 414
1 415
1 416
1 417
1 418
1 419
1 420
1 421
1 422
1 423
1 424
1 425
1 426
1 427
1 428
1 429
1 430
1 431
1 432
1 433
1 434
1 435
1 436
1 437
1 438
1 439
1 440
1 441
1 442
1 443
1 444
1 445
1 446
1 447
1 448
1 449
1 450
1 451
1 452
1 453
1 454
1 455
1 456
1 457
1 458
1 459
1 460
1 461
1 462
1 463
1 464
1 465
1 466
1 467
1 468
1 469
1 470
1 471
1 472
1 473
1 474
1 475
1 476
1 477
1 478
1 479
1 480
1 481
1 482
1 483
1 484
1 485
1 486
1 487
1 488
1 489
1 490
1 491
1 492
1 493
1 494
1 495
1 496
1 497
1 498
1 499
1 500
1 501
1 502
1 503
1 504
1 505
1 506
1 507
1 508
1 509
1 510
1 511
1 512
1 513
1 514
1 515
1 516
1 517
1 518
1 519
1 520
1 521
1 522
1 523
1 524
1 525
1 526
1 527
1 528
1 529
1 530
1 531
1 532
1 533
1 534
1 535
1 536
1 537
1 538
1 539
1 540
1 541
1 542
1 543
1 544
1 545
1 546
1 547
1 548
1 549
1 550
1 551
1 552
1 553
1 554
1 555
1 556
1 557
1 558
1 559
1 560
1 561
1 562
1 563
1 564
1 565
1 566
1 567
1 568
1 569
1 570
1 571
1 572
1 573
1 574
1 575
1 576
1 577
1 578
1 579
1 580
1 581
1 582
1 583
1 584
1 585
1 586
1 587
1 588
1 589
1 590
1 591
1 592
1 593
1 594
1 595
1 596
1 597
1 598
1 599
1 600
1 601
1 602
1 603
1 604
1 605
1 606
1 607
1 608
1 609
1 610
1 611
1 612
1 613
1 614
1 615
1 616
1 617
1 618
1 619
1 620
1 621
1 622
1 623
1 624
1 625
1 626
1 627
1 628
1 629
1 630
1 631
1 632
1 633
1 634
1 635
1 636
1 637
1 638
1 639
1 640
1 641
1 642
1 643
1 644
1 645
1 646
1 647
1 648
1 649
1 650
1 651
1 652
1 653
1 654
1 655
1 656
1 657
1 658
1 659
1 660
1 661
1 662
1 663
1 664
1 665
1 666
1 667
1 668
1 669
1 670
1 671
1 672
1 673
1 674
1 675
1 676
1 677
1 678
1 679
1 680
1 681
1 682
1 683
1 684
1 685
1 686
1 687
1 688
1 689
1 690
1 691
1 692
1 693
1 694
1 695
1 696
1 697
1 698
1 699
1 700
1 701
1 702
1 703
1 704
1 705
1 706
1 707
1 708
1 709
1 710
1 711
1 712
1 713
1 714
1 715
1 716
1 717
1 718
1 719
1 720
1 721
1 722
1 723
1 724
1 725
1 726
1 727
1 728
1 729
1 730
1 731
1 732
1 733
1 734
1 735
1 736
1 737
1 738
1 739
1 740
1 741
1 742
1 743
1 744
1 745
1 746
1 747
1 748
1 749
1 750
1 751
1 752
1 753
1 754
1 755
1 756
1 757
1 758
1 759
1 760
1 761
1 762
1 763
1 764
1 765
1 766
1 767
1 768
1 769
1 770
1 771
1 772
1 773
1 774
1 775
1 776
1 777
1 778
1 779
1 780
1 781
1 782
1 783
1 784
1 785
1 786
1 787
1 788
1 789
1 790
1 791
1 792
1 793
1 794
1 795
1 796
1 797
1 798
1 799
1 800
1 801
1 802
1 803
1 804
1 805
1 806
1 807
1 808
1 809
1 810
1 811
1 812
1 813
1 814
1 815
1 816
1 817
1 818
1 819
1 820
1 821
1 822
1 823
1 824
1 825
1 826
1 827
1 828
1 829
1 830
1 831
1 832
1 833
1 834
1 835
1 836
1 837
1 838
1 839
1 840
1 841
1 842
1 843
1 844
1 845
1 846
1 847
1 848
1 849
1 850
1 851
1 852
1 853
1 854
1 855
1 856
1 857
1 858
1 859
1 860
1 861
1 862
1 863
1 864
1 865
1 866
1 867
1 868
1 869
1 870
1 871
1 872
1 873
1 874
1 875
1 876
1 877
1 878
1 879
1 880
1 881
1 882
1 883
1 884
1 885
1 886
1 887
1 888
1 889
1 890
1 891
1 892
1 893
1 894
1 895
1 896
1 897
1 898
1 899
1 900
1 901
1 902
1 903
1 904
1 905
1 906
1 907
1 908
1 909
1 910
1 911
1 912
1 913
1 914
1 915
1 916
1 917
1 918
1 919
1 920
1 921
1 922
1 923
1 924
1 925
1 926
1 927
1 928
1 929
1 930
1 931
1 932
1 933
1 934
1 935
1 936
1 937
1 938
1 939
1 940
1 941
1 942
1 943
1 944
1 945
1 946
1 947
1 948
1 949
1 950
1 951
1 952
1 953
1 954
1 955
1 956
1 957
1 958
1 959
1 960
1 961
1 962
1 963
1 964
1 965
1 966
1 967
1 968
1 969
1 970
1 971
1 972
1 973
1 974
1 975
1 976
1 977
1 978
1 979
1 980
1 981
1 982
1 983
1 984
1 985
1 986
1 987
1 988
1 989
1 990
1 991
1 992
1 993
1 994
1 995
1 996
1 997
1 998
1 999
1 1000
1 1001
1 1002
1 1003
1 1004
1 1005
1 1006
1 1007
1 1008
1 1009
1 1010
1 1011
1 1012
1 1013
1 1014
1 1015
1 1016
1 1017
1 1018
1 1019
1 1020
1 1021
1 1022
1 1023
1 1024
1 1025
1 1026
1 1027
1 1028
1 1029
1 1030
1 1031
1 1032
1 1033
1 1034
1 1035
1 1036
1 1037
1 1038
1 1039
1 1040
1 1041
1 1042
1 1043
1 1044
1 1045
1 1046
1 1047
1 1048
1 1049
1 1050
1 1051
1 1052
1 1053
1 1054
1 1055
1 1056
1 1057
1 1058
1 1059
1 1060
1 1061
1 1062
1 1063
1 1064
1 1065
1 1066
1 1067
1 1068
1 1069
1 1070
1 1071
1 1072
1 1073
1 1074
1 1075
1 1076
1 1077
1 1078
1 1079
1 1080
1 1081
1 1082
1 1083
1 1084
1 1085
1 1086
1 1087
1 1088
1 1089
1 1090
1 1091
1 1092
1 1093
1 1094
1 1095
1 1096
1 1097
1 1098
1 1099
1 1100
1 1101
1 1102
1 1103
1 1104
1 1105
1 1106
1 1107
1 1108
1 1109
1 1110
1 1111
1 1112
1 1113
1 1114
1 1115
1 1116
1 1117
1 1118
1 1119
1 1120
1 1121
1 1122
1 1123
1 1124
1 1125
1 1126
1 1127
1 1128
1 1129
1 1130
1 1131
1 1132
1 1133
1 1134
1 1135
1 1136
1 1137
1 1138
1 1139
1 1140
1 1141
1 1142
1 1143
1 1144
1 1145
1 1146
1 1147
1 1148
1 1149
1 1150
1 1151
1 1152
1 1153
1 1154
1 1155
1 1156
1 1157
1 1158
1 1159
1 1160
1 1161
1 1162
1 1163
1 1164
1 1165
1 1166
1 1167
1 1168
1 1169
1 1170
1 1171
1 1172
1 1173
1 1174
1 1175
1 1176
1 1177
1 1178
1 1179
1 1180
1 1181
1 1182
1 1183
1 1184
1 1185
1 1186
1 1187
1 1188
1 1189
1 1190
1 1191
1 1192
1 1193
1 1194
1 1195
1 1196
1 1197
1 1198
1 1199
1 1200
1 1201
1 1202
1 1203
1 1204
1 1205
1 1206
1 1207
1 1208
1 1209
1 1210
1 1211
1 1212
1 1213
1 1214
1 1215
1 1216
1 1217
1 1218
1 1219
1 1220
1 1221
1 1222
1 1223
1 1224
1 1225
1 1226
1 1227
1 1228
1 1229
1 1230
1 1231
1 1232
1 1233
1 1234
1 1235
1 1236
1 1237
1 1238
1 1239
1 1240
1 1241
1 1242
1 1243
1 1244
1 1245
1 1246
1 1247
1 1248
1 1249
1 1250
1 1251
1 1252
1 1253
1 1254
1 1255
1 1256
1 1257
1 1258
1 1259
1 1260
1 1261
1 1262
1 1263
1 1264
1 1265
1 1266
1 1267
1 1268
1 1269
1 1270
1 1271
1 1272
1 1273
1 1274
1 1275
1 1276
1 1277
1 1278
1 1279
1 1280
1 1281
1 1282
1 1283
1 1284
1 1285
1 1286
1 1287
1 1288
1 1289
1 1290
1 1291
1 1292
1 1293
1 1294
1 1295
1 1296
1 1297
1 1298
1 1299
1 1300
1 1301
1 1302
1 1303
1 1304
1 1305
1 1306
1 1307
1 1308
1 1309
1 1310
1 1311
1 1312
1 1313
1 1314
1 1315
1 1316
1 1317
1 1318
1 1319
1 1320
1 1321
1 1322
1 1323
1 1324
1 1325
1 1326
1 1327
1 1328
1 1329
1 1330
1 1331
1 1332
1 1333
1 1334
1 1335
1 1336
1 1337
1 1338
1 1339
1 1340
1 1341
1 1342
1 1343
1 1344
1 1345
1 1346
1 1347
1 1348
1 1349
1 1350
1 1351
1 1352
1 1353
1 1354
1 1355
1 1356
1 1357
1 1358
1 1359
1 1360
1 1361
1 1362
1 1363
1 1364
1 1365
1 1366
1 1367
1 1368
1 1369
1 1370
1 1371
1 1372
1 1373
1 1374
1 1375
1 1376
1 1377
1 1378
1 1379
1 1380
1 1381
1 1382
1 1383
1 1384
1 1385
1 1386
1 1387
1 1388
1 1389
1 1390
1 1391
1 1392
1 1393
1 1394
1 1395
1 1396
1 1397
1 1398
1 1399
1 1400
1 1401
1 1402
1 1403
1 1404
1 1405
1 1406
1 1407
1 1408
1 1409
1 1410
1 1411
1 1412
1 1413
1 1414
1 1415
1 1416
1 1417
1 1418
1 1419
1 1420
1 1421
1 1422
1 1423
1 1424
1 1425
1 1426
1 1427
1 1428
1 1429
1 1430
1 1431
1 1432
1 1433
1 1434
1 1435
1 1436
1 1437
1 1438
1 1439
1 1440
1 1441
1 1442
1 1443
1 1444
1 1445
1 1446
1 1447
1 1448
1 1449
1 1450
1 1451
1 1452
1 1453
1 1454
1 1455
1 1456
1 1457
1 1458
1 1459
1 1460
1 1461
1 1462
1 1463
1 1464
1 1465
1 1466
1 1467
1 1468
1 1469
1 1470
1 1471
1 1472
1 1473
1 1474
1 1475
1 1476
1 1477
1 1478
1 1479
1 1480
1 1481
1 1482
1 1483
1 1484
1 1485
1 1486
1 1487
1 1488
1 1489
1 1490
1 1491
1 1492
1 1493
1 1494
1 1495
1 1496
1 1497
1 1498
1 1499
1 1500
1 1501
1 1502
1 1503
1 1504
1 1505
1 1506
1 1507
1 1508
1 1509
1 1510
1 1511
1 1512
1 1513
1 1514
1 1515
1 1516
1 1517
1 1518
1 1519
1 1520
1 1521
1 1522
1 1523
1 1524
1 1525
1 1526
1 1527
1 1528
1 1529
1 1530
1 1531
1 1532
1 1533
1 1534
1 1535
1 1536
1 1537
1 1538
1 1539
1 1540
1 1541
1 1542
1 1543
1 1544
1 1545
1 1546
1 1547
1 1548
1 1549
1 1550
1 1551
1 1552
1 1553
1 1554
1 1555
1 1556
1 1557
1 1558
1 1559
1 1560
1 1561
1 1562
1 1563
1 1564
1 1565
1 1566
1 1567
1 1568
1 1569
1 1570
1 1571
1 1572
1 1573
1 1574
1 1575
1 1576
1 1577
1 1578
1 1579
1 1580
1 1581
1 1582
1 1583
1 1584
1 1585
1 1586
1 1587
1 1588
1 1589
1 1590
1 1591
1 1592
1 1593
1 1594
1 1595
1 1596
1 1597
1 1598
1 1599
1 1600
1 1601
1 1602
1 1603
1 1604
1 1605
1 1606
1 1607
1 1608
1 1609
1 1610
1 1611
1 1612
1 1613
1 1614
1 1615
1 1616
1 1617
1 1618
1 1619
1 1620
1 1621
1 1622
1 1623
1 1624
1 1625
1 1626
1 1627
1 1628
1 1629
1 1630
1 1631
1 1632
1 1633
1 1634
1 1635
1 1636
1 1637
1 1638
1 1639
1 1640
1 1641
1 1642
1 1643
1 1644
1 1645
1 1646
1 1647
1 1648
1 1649
1 1650
1 1651
1 1652
1 1653
1 1654
1 1655
1 1656
1 1657
1 1658
1 1659
1 1660
1 1661
1 1662
1 1663
1 1664
1 1665
1 1666
1 1667
1 1668
1 1669
1 1670
1 1671
1 1672
1 1673
1 1674
1 1675
1 1676
1 1677
1 1678
1 1679
1 1680
1 1681
1 1682
1 1683
1 1684
1 1685
1 1686
1 1687
1 1688
1 1689
1 1690
1 1691
1 1692
1 1693
1 1694
1 1695
1 1696
1 1697
1 1698
1 1699
1 1700
1 1701
1 1702
1 1703
1 1704
1 1705
1 1706
1 1707
1 1708
1 1709
1 1710
1 1711
1 1712
1 1713
1 1714
1 1715
1 1716
1 1717
1 1718
1 1719
1 1720
1 1721
1 1722
1 1723
1 1724
1 1725
1 1726
1 1727
1 1728
1 1729
1 1730
1 1731
1 1732
1 1733
1 1734
1 1735
1 1736
1 1737
1 1738
1 1739
1 1740
1 1741
1 1742
1 1743
1 1744
1 1745
1 1746
1 1747
1 1748
1 1749
1 1750
1 1751
1 1752
1 1753
1 1754
1 1755
1 1756
1 1757
1 1758
1 1759
1 1760
1 1761
1 1762
1 1763
1 1764
1 1765
1 1766
1 1767
1 1768
1 1769
1 1770
1 1771
1 1772
1 1773
1 1774
1 1775
1 1776
1 1777
1 1778
1 1779
1 1780
1 1781
1 1782
1 1783
1 1784
1 1785
1 1786
1 1787
1 1788
1 1789
1 1790
1 1791
1 1792
1 1793
1 1794
1 1795
1 1796
1 1797
1 1798
1 1799
1 1800
1 1801
1 1802
1 1803
1 1804
1 1805
1 1806
1 1807
1 1808
1 1809
1 1810
1 1811
1 1812
1 1813
1 1814
1 1815
1 1816
1 1817
1 1818
1 1819
1 1820
1 1821
1 1822
1 1823
1 1824
1 1825
1 1826
1 1827
1 1828
1 1829
1 1830
1 1831
1 1832
1 1833
1 1834
1 1835
1 1836
1 1837
1 1838
1 1839
1 1840
1 1841
1 1842
1 1843
1 1844
1 1845
1 1846
1 1847
1 1848
1 1849
1 1850
1 1851
1 1852
1 1853
1 1854
1 1855
1 1856
1 1857
1 1858
1 1859
1 1860
1 1861
1 1862
1 1863
1 1864
1 1865
1 1866
1 1867
1 1868
1 1869
1 1870
1 1871
1 1872
1 1873
1 1874
1 1875
1 1876
1 1877
1 1878
1 1879
1 1880
1 1881
1 1882
1 1883
1 1884
1 1885
1 1886
1 1887
1 1888
1 1889
1 1890
1 1891
1 1892
1 1893
1 1894
1 1895
1 1896
1 1897
1 1898
1 1899
1 1900
1 1901
1 1902
1 1903
1 1904
1 1905
1 1906
1 1907
1 1908
1 1909
1 1910
1 1911
1 1912
1 1913
1 1914
1 1915
1 1916
1 1917
1 1918
1 1919
1 1920
1 1921
1 1922
1 1923
1 1924
1 1925
1 1926
1 1927
1 1928
1 1929
1 1930
1 1931
1 1932
1 1933
1 1934
1 1935
1 1936
1 1937
1 1938
1 1939
1 1940
1 1941
1 1942
1 1943
1 1944
1 1945
1 1946
1 1947
1 1948
1 1949
1 1950
1 1951
1 1952
1 1953
1 1954
1 1955
1 1956
1 1957
1 1958
1 1959
1 1960
1 1961
1 1962
1 1963
1 1964
1 1965
1 1966
1 1967
1 1968
1 1969
1 1970
1 1971
1 1972
1 1973
1 1974
1 1975
1 1976
1 1977
1 1978
1 1979
1 1980
1 1981
1 1982
1 1983
1 1984
1 1985
1 1986
1 1987
1 1988
1 1989
1 1990
1 1991
1 1992
1 1993
1 1994
1 1995
1 1996
1 1997
1 1998
1 1999
1 2000
1 2001
1 2002
1 2003
1 2004
1 2005
1 2006
1 2007
1 2008
1 2009
1 2010
1 2011
1 2012
1 2013
1 2014
1 2015
1 2016
1 2017
1 2018
1 2019
1 2020
1 2021
1 2022
1 2023
1 2024
1 2025
1 2026
1 2027
1 2028
1 2029
1 2030
1 2031
1 2032
1 2033
1 2034
1 2035
1 2036
1 2037
1 2038
1 2039
1 2040
1 2041
1 2042
1 2043
1 2044
1 2045
1 2046
1 2047
1 2048
1 2049
1 2050
1 2051
1 2052
1 2053
1 2054
1 2055
1 2056
1 2057
1 2058
1 2059
1 2060
1 2061
1 2062
1 2063
1 2064
1 2065
1 2066
1 2067
1 2068
1 2069
1 2070
1 2071
1 2072
1 2073
1 2074
1 2075
1 2076
1 2077
1 2078
1 2079
1 2080
1 2081
1 2082
1 2083
1 2084
1 2085
1 2086
1 2087
1 2088
1 2089
1 2090
1 2091
1 2092
1 2093
1 2094
1 2095
1 2096
1 2097
1 2098
1 2099
1 2100
1 2101
1 2102
1 2103
1 2104
1 2105
1 2106
1 2107
1 2108
1 2109
1 2110
1 2111
1 2112
1 2113
1 2114
1 2115
1 2116
1 2117
1 2118
1 2119
1 2120
1 2121
1 2122
1 2123
1 2124
1 2125
1 2126
1 2127
1 2128
1 2129
1 2130
1 2131
1 2132
1 2133
1 2134
1 2135
1 2136
1 2137
1 2138
1 2139
1 2140
1 2141
1 2142
1 2143
1 2144
1 2145
1 2146
1 2147
1 2148
1 2149
1 2150
1 2151
1 2152
1 2153
1 2154
1 2155
1 2156
1 2157
1 2158
1 2159
1 2160
1 2161
1 2162
1 2163
1 2164
1 2165
1 2166
1 2167
1 2168
1 2169
1 2170
1 2171
1 2172
1 2173
1 2174
1 2175
1 2176
1 2177
1 2178
1 2179
1 2180
1 2181
1 2182
1 2183
1 2184
1 2185
1 2186
1 2187
1 2188
1 2189
1 2190
1 2191
1 2192
1 2193
1 2194
1 2195
1 2196
1 2197
1 2198
1 2199
1 2200
1 2201
1 2202
1 2203
1 2204
1 2205
1 2206
1 2207
1 2208
1 2209
1 2210
1 2211
1 2212
1 2213
1 2214
1 2215
1 2216
1 2217
1 2218
1 2219
1 2220
1 2221
1 2222
1 2223
1 2224
1 2225
1 2226
1 2227
1 2228
1 2229
1 2230
1 2231
1 2232
1 2233
1 2234
1 2235
1 2236
1 2237
1 2238
1 2239
1 2240
1 2241
1 2242
1 2243
1 2244
1 2245
1 2246
1 2247
1 2248
1 2249
1 2250
1 2251
1 2252
1 2253
1 2254
1 2255
1 2256
1 2257
1 2258
1 2259
1 2260
1 2261
1 2262
1 2263
1 2264
1 2265
1 2266
1 2267
1 2268
1 2269
1 2270
1 2271
1 2272
1 2273
1 2274
1 2275
1 2276
1 2277
1 2278
1 2279
1 2280
1 2281
1 2282
1 2283
1 2284
1 2285
1 2286
1 2287
1 2288
1 2289
1 2290
1 2291
1 2292
1 2293
1 2294
1 2295
1 2296
1 2297
1 2298
1 2299
1 2300
1 2301
1 2302
1 2303
1 2304
1 2305
1 2306
1 2307
1 2308
1 2309
1 2310
1 2311
1 2312
1 2313
1 2314
1 2315
1 2316
1 2317
1 2318
1 2319
1 2320
1 2321
1 2322
1 2323
1 2324
1 2325
1 2326
1 2327
1 2328
1 2329
1 2330
1 2331
1 2332
1 2333
1 2334
1 2335
1 2336
1 2337
1 2338
1 2339
1 2340
1 2341
1 2342
1 2343
1 2344
1 2345
1 2346
1 2347
1 2348
1 2349
1 2350
1 2351
1 2352
1 2353
1 2354
1 2355
1 2356
1 2357
1 2358
1 2359
1 2360
1 2361
1 2362
1 2363
1 2364
1 2365
1 2366
1 2367
1 2368
1 2369
1 2370
1 2371
1 2372
1 2373
1 2374
1 2375
1 2376
1 2377
1 2378
1 2379
1 2380
1 2381
1 2382
1 2383
1 2384
1 2385
1 2386
1 2387
1 2388
1 2389
1 2390
1 2391
1 2392
1 2393
1 2394
1 2395
1 2396
1 2397
1 2398
1 2399
1 2400
1 2401
1 2402
1 2403
1 2404
1 2405
1 2406
1 2407
1 2408
1 2409
1 2410
1 2411
1 2412
1 2413
1 2414
1 2415
1 2416
1 2417
1 2418
1 2419
1 2420
1 2421
1 2422
1 2423
1 2424
1 2425
1 2426
1 2427
1 2428
1 2429
1 2430
1 2431
1 2432
1 2433
1 2434
1 2435
1 2436
1 2437
1 2438
1 2439
1 2440
1 2441
1 2442
1 2443
1 2444
1 2445
1 2446
1 2447
1 2448
1 2449
1 2450
1 2451
1 2452
1 2453
1 2454
1 2455
1 2456
1 2457
1 2458
1 2459
1 2460
1 2461
1 2462
1 2463
1 2464
1 2465
1 2466
1 2467
1 2468
1 2469
1 2470
1 2471
1 2472
1 2473
1 2474
1 2475
1 2476
1 2477
1 2478
1 2479
1 2480
1 2481
1 2482
1 2483
1 2484
1 2485
1 2486
1 2487
1 2488
1 2489
1 2490
1 2491
1 2492
1 2493
1 2494
1 2495
1 2496
1 2497
1 2498
1 2499
1 2500
1 2501
1 2502
1 2503
1 2504
1 2505
1 2506
1 2507
1 2508
1 2509
1 2510
1 2511
1 2512
1 2513
1 2514
1 2515
1 2516
1 2517
1 2518
1 2519
1 2520
1 2521
1 2522
1 2523
1 2524
1 2525
1 2526
1 2527
1 2528
1 2529
1 2530
1 2531
1 2532
1 2533
1 2534
1 2535
1 2536
1 2537
1 2538
1 2539
1 2540
1 2541
1 2542
1 2543
1 2544
1 2545
1 2546
1 2547
1 2548
1 2549
1 2550
1 2551
1 2552
1 2553
1 2554
1 2555
1 2556
1 2557
1 2558
1 2559
1 2560
1 2561
1 2562
1 2563
1 2564
1 2565
1 2566
1 2567
1 2568
1 2569
1 2570
1 2571
1 2572
1 2573
1 2574
1 2575
1 2576
1 2577
1 2578
1 2579
1 2580
1 2581
1 2582
1 2583
1 2584
1 2585
1 2586
1 2587
1 2588
1 2589
1 2590
1 2591
1 2592
1 2593
1 2594
1 2595
1 2596
1 2597
1 2598
1 2599
1 2600
1 2601
1 2602
1 2603
1 2604
1 2605
1 2606
1 2607
1 2608
1 2609
1 2610
1 2611
1 2612
1 2613
1 2614
1 2615
1 2616
1 2617
1 2618
1 2619
1 2620
1 2621
1 2622
1 2623
1 2624
1 2625
1 2626
1 2627
1 2628
1 2629
1 2630
1 2631
1 2632
1 2633
1 2634
1 2635
1 2636
1 2637
1 2638
1 2639
1 2640
1 2641
1 2642
1 2643
1 2644
1 2645
1 2646
1 2647
1 2648
1 2649
1 2650
1 2651
1 2652
1 2653
1 2654
1 2655
1 2656
1 2657
1 2658
1 2659
1 2660
1 2661
1 2662
1 2663
1 2664
1 2665
1 2666
1 2667
1 2668
1 2669
1 2670
1 2671
1 2672
1 2673
1 2674
1 2675
1 2676
1 2677
1 2678
1 2679
1 2680
1 2681
1 2682
1 2683
1 2684
1 2685
1 2686
1 2687
1 2688
1 2689
1 2690
1 2691
1 2692
1 2693
1 2694
1 2695
1 2696
1 2697
1 2698
1 2699
1 2700
1 2701
1 2702
1 2703
1 2704
1 2705
1 2706
1 2707
1 2708
1 2709
1 2710
1 2711
1 2712
1 2713
1 2714
1 2715
1 2716
1 2717
1 2718
1 2719
1 2720
1 2721
1 2722
1 2723
1 2724
1 2725
1 2726
1 2727
1 2728
1 2729
1 2730
1 2731
1 2732
1 2733
1 2734
1 2735
1 2736
1 2737
1 2738
1 2739
1 2740
1 2741
1 2742
1 2743
1 2744
1 2745
1 2746
1 2747
1 2748
1 2749
1 2750
1 2751
1 2752
1 2753
1 2754
1 2755
1 2756
1 2757
1 2758
1 2759
1 2760
1 2761
1 2762
1 2763
1 2764
1 2765
1 2766
1 2767
1 2768
1 2769
1 2770
1 2771
1 2772
1 2773
1 2774
1 2775
1 2776
1 2777
1 2778
1 2779
1 2780
1 2781
1 2782
1 2783
1 2784
1 2785
1 2786
1 2787
1 2788
1 2789
1 2790
1 2791
1 2792
1 2793
1 2794
1 2795
1 2796
1 2797
1 2798
1 2799
1 2800
1 2801
1 2802
1 2803
1 2804
1 2805
1 2806
1 2807
1 2808
1 2809
1 2810
1 2811
1 2812
1 2813
1 2814
1 2815
1 2816
1 2817
1 2818
1 2819
1 2820
1 2821
1 2822
1 2823
1 2824
1 2825
1 2826
1 2827
1 2828
1 2829
1 2830
1 2831
1 2832
1 2833
1 2834
1 2835
1 2836
1 2837
1 2838
1 2839
1 2840
1 2841
1 2842
1 2843
1 2844
1 2845
1 2846
1 2847
1 2848
1 2849
1 2850
1 2851
1 2852
1 2853
1 2854
1 2855
1 2856
1 2857
1 2858
1 2859
1 2860
1 2861
1 2862
1 2863
1 2864
1 2865
1 2866
1 2867
1 2868
1 2869
1 2870
1 2871
1 2872
1 2873
1 2874
1 2875
1 2876
1 2877
1 2878
1 2879
1 2880
1 2881
1 2882
1 2883
1 2884
1 2885
1 2886
1 2887
1 2888
1 2889
1 2890
1 2891
1 2892
1 2893
1 2894
1 2895
1 2896
1 2897
1 2898
1 2899
1 2900
1 2901
1 2902
1 2903
1 2904
1 2905
1 2906
1 2907
1 2908
1 2909
1 2910
1 2911
1 2912
1 2913
1 2914
1 2915
1 2916
1 2917
1 2918
1 2919
1 2920
1 2921
1 2922
1 2923
1 2924
1 2925
1 2926
1 2927
1 2928
1 2929
1 2930
1 2931
1 2932
1 2933
1 2934
1 2935
1 2936
1 2937
1 2938
1 2939
1 2940
1 2941
1 2942
1 2943
1 2944
1 2945
1 2946
1 2947
1 2948
1 2949
1 2950
1 2951
1 2952
1 2953
1 2954
1 2955
1 2956
1 2957
1 2958
1 2959
1 2960
1 2961
1 2962
1 2963
1 2964
1 2965
1 2966
1 2967
1 2968
1 2969
1 2970
1 2971
1 2972
1 2973
1 2974
1 2975
1 2976
1 2977
1 2978
1 2979
1 2980
1 2981
1 2982
1 2983
1 2984
1 2985
1 2986
1 2987
1 2988
1 2989
1 2990
1 2991
1 2992
1 2993
1 2994
1 2995
1 2996
1 2997
1 2998
1 2999
1 3000
1 3001
1 3002
1 3003
1 3004
1 3005
1 3006
1 3007
1 3008
1 3009
1 3010
1 3011
1 3012
1 3013
1 3014
1 3015
1 3016
1 3017
1 3018
1 3019
1 3020
1 3021
1 3022
1 3023
1 3024
1 3025
1 3026
1 3027
1 3028
1 3029
1 3030
1 3031
1 3032
1 3033
1 3034
1 3035
1 3036
1 3037
1 3038
1 3039
1 3040
1 3041
1 3042
1 3043
1 3044
1 3045
1 3046
1 3047
1 3048
1 3049
1 3050
1 3051
1 3052
1 3053
1 3054
1 3055
1 3056
1 3057
1 3058
1 3059
1 3060
1 3061
1 3062
1 3063
1 3064
1 3065
1 3066
1 3067
1 3068
1 3069
1 3070
1 3071
1 3072
1 3073
1 3074
1 3075
1 3076
1 3077
1 3078
1 3079
1 3080
1 3081
1 3082
1 3083
1 3084
1 3085
1 3086
1 3087
1 3088
1 3089
1 3090
1 3091
1 3092
1 3093
1 3094
1 3095
1 3096
1 3097
1 3098
1 3099
1 3100
1 3101
1 3102
1 3103
1 3104
1 3105
1 3106
1 3107
1 3108
1 3109
1 3110
1 3111
1 3112
1 3113
1 3114
1 3115
1 3116
1 3117
1 3118
1 3119
1 3120
1 3121
1 3122
1 3123
1 3124
1 3125
1 3126
1 3127
1 3128
1 3129
1 3130
1 3131
1 3132
1 3133
1 3134
1 3135
1 3136
1 3137
1 3138
1 3139
1 3140
1 3141
1 3142
1 3143
1 3144
1 3145
1 3146
1 3147
1 3148
1 3149
1 3150
1 3151
1 3152
1 3153
1 3154
1 3155
1 3156
1 3157
1 3158
1 3159
1 3160
1 3161
1 3162
1 3163
1 3164
1 3165
1 3166
1 3167
1 3168
1 3169
1 3170
1 3171
1 3172
1 3173
1 3174
1 3175
1 3176
1 3177
1 3178
1 3179
1 3180
1 3181
1 3182
1 3183
1 3184
1 3185
1 3186
1 3187
1 3188
1 3189
1 3190
1 3191
1 3192
1 3193
1 3194
1 3195
1 3196
1 3197
1 3198
1 3199
1 3200
1 3201
1 3202
1 3203
1 3204
1 3205
1 3206
1 3207
1 3208
1 3209
1 3210
1 3211
1 3212
1 3213
1 3214
1 3215
1 3216
1 3217
1 3218
1 3219
1 3220
1 3221
1 3222
1 3223
1 3224
1 3225
1 3226
1 3227
1 3228
1 3229
1 3230
1 3231
1 3232
1 3233
1 3234
1 3235
1 3236
1 3237
1 3238
1 3239
1 3240
1 3241
1 3242
1 3243
1 3244
1 3245
1 3246
1 3247
1 3248
1 3249
1 3250
1 3251
1 3252
1 3253
1 3254
1 3255
1 3256
1 3257
1 3258
1 3259
1 3260
1 3261
1 3262
1 3263
1 3264
1 3265
1 3266
1 3267
1 3268
1 3269
1 3270
1 3271
1 3272
1 3273
1 3274
1 3275
1 3276
1 3277
1 3278
1 3279
1 3280
1 3281
1 3282
1 3283
1 3284
1 3285
1 3286
1 3287
1 3288
1 3289
1 3290
1 3291
1 3292
1 3293
1 3294
1 3295
1 3296
1 3297
1 3298
1 3299
1 3300
1 3301
1 3302
1 3303
1 3304
1 3305
1 3306
1 3307
1 3308
1 3309
1 3310
1 3311
1 3312
1 3313
1 3314
1 3315
1 3316
1 3317
1 3318
1 3319
1 3320
1 3321
1 3322
1 3323
1 3324
1 3325
1 3326
1 3327
1 3328
1 3329
1 3330
1 3331
1 3332
1 3333
1 3334
1 3335
1 3336
1 3337
1 3338
1 3339
1 3340
1 3341
1 3342
1 3343
1 3344
1 3345
1 3346
1 3347
1 3348
1 3349
1 3350
1 3351
1 3352
1 3353
1 3354
1 3355
1 3356
1 3357
1 3358
1 3359
1 3360
1 3361
1 3362
1 3363
1 3364
1 3365
1 3366
1 3367
1 3368
1 3369
1 3370
1 3371
1 3372
1 3373
1 3374
1 3375
1 3376
1 3377
1 3378
1 3379
1 3380
1 3381
1 3382
1 3383
1 3384
1 3385
1 3386
1 3387
1 3388
1 3389
1 3390
1 3391
1 3392
1 3393
1 3394
1 3395
1 3396
1 3397
1 3398
1 3399
1 3400
1 3401
1 3402
1 3403
1 3404
1 3405
1 3406
1 3407
1 3408
1 3409
1 3410
1 3411
1 3412
1 3413
1 3414
1 3415
1 3416
1 3417
1 3418
1 3419
1 3420
1 3421
1 3422
1 3423
1 3424
1 3425
1 3426
1 3427
1 3428
1 3429
1 3430
1 3431
1 3432
1 3433
1 3434
1 3435
1 3436
1 3437
1 3438
1 3439
1 3440
1 3441
1 3442
1 3443
1 3444
1 3445
1 3446
1 3447
1 3448
1 3449
1 3450
1 3451
1 3452
1 3453
1 3454
1 3455
1 3456
1 3457
1 3458
1 3459
1 3460
1 3461
1 3462
1 3463
1 3464
1 3465
1 3466
1 3467
1 3468
1 3469
1 3470
1 3471
1 3472
1 3473
1 3474
1 3475
1 3476
1 3477
1 3478
1 3479
1 3480
1 3481
1 3482
1 3483
1 3484
1 3485
1 3486
1 3487
1 3488
1 3489
1 3490
1 3491
1 3492
1 3493
1 3494
1 3495
1 3496
1 3497
1 3498
1 3499
1 3500
1 3501
1 3502
1 3503
1 3504
1 3505
1 3506
1 3507
1 3508
1 3509
1 3510
1 3511
1 3512
1 3513
1 3514
1 3515
1 3516
1 3517
1 3518
1 3519
1 3520
1 3521
1 3522
1 3523
1 3524
1 3525
1 3526
1 3527
1 3528
1 3529
1 3530
1 3531
1 3532
1 3533
1 3534
1 3535
1 3536
1 3537
1 3538
1 3539
1 3540
1 3541
1 3542
1 3543
1 3544
1 3545
1 3546
1 3547
1 3548
1 3549
1 3550
1 3551
1 3552
1 3553
1 3554
1 3555
1 3556
1 3557
1 3558
1 3559
1 3560
1 3561
1 3562
1 3563
1 3564
1 3565
1 3566
1 3567
1 3568
1 3569
1 3570
1 3571
1 3572
1 3573
1 3574
1 3575
1 3576
1 3577
1 3578
1 3579
1 3580
1 3581
1 3582
1 3583
1 3584
1 3585
1 3586
1 3587
1 3588
1 3589
1 3590
1 3591
1 3592
1 3593
1 3594
1 3595
1 3596
1 3597
1 3598
1 3599
1 3600
1 3601
1 3602
1 3603
1 3604
1 3605
1 3606
1 3607
1 3608
1 3609
1 3610
1 3611
1 3612
1 3613
1 3614
1 3615
1 3616
1 3617
1 3618
1 3619
1 3620
1 3621
1 3622
1 3623
1 3624
1 3625
1 3626
1 3627
1 3628
1 3629
1 3630
1 3631
1 3632
1 3633
1 3634
1 3635
1 3636
1 3637
1 3638
1 3639
1 3640
1 3641
1 3642
1 3643
1 3644
1 3645
1 3646
1 3647
1 3648
1 3649
1 3650
1 3651
1 3652
1 3653
1 3654
1 3655
1 3656
1 3657
1 3658
1 3659
1 3660
1 3661
1 3662
1 3663
1 3664
1 3665
1 3666
1 3667
1 3668
1 3669
1 3670
1 3671
1 3672
1 3673
1 3674
1 3675
1 3676
1 3677
1 3678
1 3679
1 3680
1 3681
1 3682
1 3683
1 3684
1 3685
1 3686
1 3687
1 3688
1 3689
1 3690
1 3691
1 3692
1 3693
1 3694
1 3695
1 3696
1 3697
1 3698
1 3699
1 3700
1 3701
1 3702
1 3703
1 3704
1 3705
1 3706
1 3707
1 3708
1 3709
1 3710
1 3711
1 3712
1 3713
1 3714
1 3715
1 3716
1 3717
1 3718
1 3719
1 3720
1 3721
1 3722
1 3723
1 3724
1 3725
1 3726
1 3727
1 3728
1 3729
1 3730
1 3731
1 3732
1 3733
1 3734
1 3735
1 3736
1 3737
1 3738
1 3739
1 3740
1 3741
1 3742
1 3743
1 3744
1 3745
1 3746
1 3747
1 3748
1 3749
1 3750
1 3751
1 3752
1 3753
1 3754
1 3755
1 3756
1 3757
1 3758
1 3759
1 3760
1 3761
1 3762
1 3763
1 3764
1 3765
1 3766
1 3767
1 3768
1 3769
1 3770
1 3771
1 3772
1 3773
1 3774
1 3775
1 3776
1 3777
1 3778
1 3779
1 3780
1 3781
1 3782
1 3783
1 3784
1 3785
1 3786
1 3787
1 3788
1 3789
1 3790
1 3791
1 3792
1 3793
1 3794
1 3795
1 3796
1 3797
1 3798
1 3799
1 3800
1 3801
1 3802
1 3803
1 3804
1 3805
1 3806
1 3807
1 3808
1 3809
1 3810
1 3811
1 3812
1 3813
1 3814
1 3815
1 3816
1 3817
1 3818
1 3819
1 3820
1 3821
1 3822
1 3823
1 3824
1 3825
1 3826
1 3827
1 3828
1 3829
1 3830
1 3831
1 3832
1 3833
1 3834
1 3835
1 3836
1 3837
1 3838
1 3839
1 3840
1 3841
1 3842
1 3843
1 3844
1 3845
1 3846
1 3847
1 3848
1 3849
1 3850
1 3851
1 3852
1 3853
1 3854
1 3855
1 3856
1 3857
1 3858
1 3859
1 3860
1 3861
1 3862
1 3863
1 3864
1 3865
1 3866
1 3867
1 3868
1 3869
1 3870
1 3871
1 3872
1 3873
1 3874
1 3875
1 3876
1 3877
1 3878
1 3879
1 3880
1 3881
1 3882
1 3883
1 3884
1 3885
1 3886
1 3887
1 3888
1 3889
1 3890
1 3891
1 3892
1 3893
1 3894
1 3895
1 3896
1 3897
1 3898
1 3899
1 3900
1 3901
1 3902
1 3903
1 3904
1 3905
1 3906
1 3907
1 3908
1 3909
1 3910
1 3911
1 3912
1 3913
1 3914
1 3915
1 3916
1 3917
1 3918
1 3919
1 3920
1 3921
1 3922
1 3923
1 3924
1 3925
1 3926
1 3927
1 3928
1 3929
1 3930
1 3931
1 3932
1 3933
1 3934
1 3935
1 3936
1 3937
1 3938
1 3939
1 3940
1 3941
1 3942
1 3943
1 3944
1 3945
1 3946
1 3947
1 3948
1 3949
1 3950
1 3951
1 3952
1 3953
1 3954
1 3955
1 3956
1 3957
1 3958
1 3959
1 3960
1 3961
1 3962
1 3963
1 3964
1 3965
1 3966
1 3967
1 3968
1 3969
1 3970
1 3971
1 3972
1 3973
1 3974
1 3975
1 3976
1 3977
1 3978
1 3979
1 3980
1 3981
1 3982
1 3983
1 3984
1 3985
1 3986
1 3987
1 3988
1 3989
1 3990
1 3991
1 3992
1 3993
1 3994
1 3995
1 3996
1 3997
1 3998
1 3999
1 4000
1 4001
1 4002
1 4003
1 4004
1 4005
1 4006
1 4007
1 4008
1 4009
1 4010
1 4011
1 4012
1 4013
1 4014
1 4015
1 4016
1 4017
1 4018
1 4019
1 4020
1 4021
1 4022
1 4023
1 4024
1 4025
1 4026
1 4027
1 4028
1 4029
1 4030
1 4031
1 4032
1 4033
1 4034
1 4035
1 4036
1 4037
1 4038
1 4039
1 4040
1 4041
1 4042
1 4043
1 4044
1 4045
1 4046
1 4047
1 4048
1 4049
1 4050
1 4051
1 4052
1 4053
1 4054
1 4055
1 4056
1 4057
1 4058
1 4059
1 4060
1 4061
1 4062
1 4063
1 4064
1 4065
1 4066
1 4067
1 4068
1 4069
1 4070
1 4071
1 4072
1 4073
1 4074
1 4075
1 4076
1 4077
1 4078
1 4079
1 4080
1 4081
1 4082
1 4083
1 4084
1 4085
1 4086
1 4087
1 4088
1 4089
1 4090
1 4091
1 4092
1 4093
1 4094
1 4095
1 4096
1 4097
1 4098
1 4099
1 4100
1 4101
1 4102
1 4103
1 4104
1 4105
1 4106
1 4107
1 4108
1 4109
1 4110
1 4111
1 4112
1 4113
1 4114
1 4115
1 4116
1 4117
1 4118
1 4119
1 4120
1 4121
1 4122
1 4123
1 4124
1 4125
1 4126
1 4127
1 4128
1 4129
1 4130
1 4131
1 4132
1 4133
1 4134
1 4135
1 4136
1 4137
1 4138
1 4139
1 4140
1 4141
1 4142
1 4143
1 4144
1 4145
1 4146
1 4147
1 4148
1 4149
1 4150
1 4151
1 4152
1 4153
1 4154
1 4155
1 4156
1 4157
1 4158
1 4159
1 4160
1 4161
1 4162
1 4163
1 4164
1 4165
1 4166
1 4167
1 4168
1 4169
1 4170
1 4171
1 4172
1 4173
1 4174
1 4175
1 4176
1 4177
1 4178
1 4179
1 4180
1 4181
1 4182
1 4183
1 4184
1 4185
1 4186
1 4187
1 4188
1 4189
1 4190
1 4191
1 4192
1 4193
1 4194
1 4195
1 4196
1 4197
1 4198
1 4199
1 4200
1 4201
1 4202
1 4203
1 4204
1 4205
1 4206
1 4207
1 4208
1 4209
1 4210
1 4211
1 4212
1 4213
1 4214
1 4215
1 4216
1 4217
1 4218
1 4219
1 4220
1 4221
1 4222
1 4223
1 4224
1 4225
1 4226
1 4227
1 4228
1 4229
1 4230
1 4231
1 4232
1 4233
1 4234
1 4235
1 4236
1 4237
1 4238
1 4239
1 4240
1 4241
1 4242
1 4243
1 4244
1 4245
1 4246
1 4247
1 4248
1 4249
1 4250
1 4251
1 4252
1 4253
1 4254
1 4255
1 4256
1 4257
1 4258
1 4259
1 4260
1 4261
1 4262
1 4263
1 4264
1 4265
1 4266
1 4267
1 4268
1 4269
1 4270
1 4271
1 4272
1 4273
1 4274
1 4275
1 4276
1 4277
1 4278
1 4279
1 4280
1 4281
1 4282
1 4283
1 4284
1 4285
1 4286
1 4287
1 4288
1 4289
1 4290
1 4291
1 4292
1 4293
1 4294
1 4295
1 4296
1 4297
1 4298
1 4299
1 4300
1 4301
1 4302
1 4303
1 4304
1 4305
1 4306
1 4307
1 4308
1 4309
1 4310
1 4311
1 4312
1 4313
1 4314
1 4315
1 4316
1 4317
1 4318
1 4319
1 4320
1 4321
1 4322
1 4323
1 4324
1 4325
1 4326
1 4327
1 4328
1 4329
1 4330
1 4331
1 4332
1 4333
1 4334
1 4335
1 4336
1 4337
1 4338
1 4339
1 4340
1 4341
1 4342
1 4343
1 4344
1 4345
1 4346
1 4347
1 4348
1 4349
1 4350
1 4351
1 4352
1 4353
1 4354
1 4355
1 4356
1 4357
1 4358
1 4359
1 4360
1 4361
1 4362
1 4363
1 4364
1 4365
1 4366
1 4367
1 4368
1 4369
1 4370
1 4371
1 4372
1 4373
1 4374
1 4375
1 4376
1 4377
1 4378
1 4379
1 4380
1 4381
1 4382
1 4383
1 4384
1 4385
1 4386
1 4387
1 4388
1 4389
1 4390
1 4391
1 4392
1 4393
1 4394
1 4395
1 4396
1 4397
1 4398
1 4399
1 4400
1 4401
1 4402
1 4403
1 4404
1 4405
1 4406
1 4407
1 4408
1 4409
1 4410
1 4411
1 4412
1 4413
1 4414
1 4415
1 4416
1 4417
1 4418
1 4419
1 4420
1 4421
1 4422
1 4423
1 4424
1 4425
1 4426
1 4427
1 4428
1 4429
1 4430
1 4431
1 4432
1 4433
1 4434
1 4435
1 4436
1 4437
1 4438
1 4439
1 4440
1 4441
1 4442
1 4443
1 4444
1 4445
1 4446
1 4447
1 4448
1 4449
1 4450
1 4451
1 4452
1 4453
1 4454
1 4455
1 4456
1 4457
1 4458
1 4459
1 4460
1 4461
1 4462
1 4463
1 4464
1 4465
1 4466
1 4467
1 4468
1 4469
1 4470
1 4471
1 4472
1 4473
1 4474
1 4475
1 4476
1 4477
1 4478
1 4479
1 4480
1 4481
1 4482
1 4483
1 4484
1 4485
1 4486
1 4487
1 4488
1 4489
1 4490
1 4491
1 4492
1 4493
1 4494
1 4495
1 4496
1 4497
1 4498
1 4499
1 4500
1 4501
1 4502
1 4503
1 4504
1 4505
1 4506
1 4507
1 4508
1 4509
1 4510
1 4511
1 4512
1 4513
1 4514
1 4515
1 4516
1 4517
1 4518
1 4519
1 4520
1 4521
1 4522
1 4523
1 4524
1 4525
1 4526
1 4527
1 4528
1 4529
1 4530
1 4531
1 4532
1 4533
1 4534
1 4535
1 4536
1 4537
1 4538
1 4539
1 4540
1 4541
1 4542
1 4543
1 4544
1 4545
1 4546
1 4547
1 4548
1 4549
1 4550
1 4551
1 4552
1 4553
1 4554
1 4555
1 4556
1 4557
1 4558
1 4559
1 4560
1 4561
1 4562
1 4563
1 4564
1 4565
1 4566
1 4567
1 4568
1 4569
1 4570
1 4571
1 4572
1 4573
1 4574
1 4575
1 4576
1 4577
1 4578
1 4579
1 4580
1 4581
1 4582
1 4583
1 4584
1 4585
1 4586
1 4587
1 4588
1 4589
1 4590
1 4591
1 4592
1 4593
1 4594
1 4595
1 4596
1 4597
1 4598
1 4599
1 4600
1 4601
1 4602
1 4603
1 4604
1 4605
1 4606
1 4607
1 4608
1 4609
1 4610
1 4611
1 4612
1 4613
1 4614
1 4615
1 4616
1 4617
1 4618
1 4619
1 4620
1 4621
1 4622
1 4623
1 4624
1 4625
1 4626
1 4627
1 4628
1 4629
1 4630
1 4631
1 4632
1 4633
1 4634
1 4635
1 4636
1 4637
1 4638
1 4639
1 4640
1 4641
1 4642
1 4643
1 4644
1 4645
1 4646
1 4647
1 4648
1 4649
1 4650
1 4651
1 4652
1 4653
1 4654
1 4655
1 4656
1 4657
1 4658
1 4659
1 4660
1 4661
1 4662
1 4663
1 4664
1 4665
1 4666
1 4667
1 4668
1 4669
1 4670
1 4671
1 4672
1 4673
1 4674
1 4675
1 4676
1 4677
1 4678
1 4679
1 4680
1 4681
1 4682
1 4683
1 4684
1 4685
1 4686
1 4687
1 4688
1 4689
1 4690
1 4691
1 4692
1 4693
1 4694
1 4695
1 4696
1 4697
1 4698
1 4699
1 4700
1 4701
1 4702
1 4703
1 4704
1 4705
1 4706
1 4707
1 4708
1 4709
1 4710
1 4711
1 4712
1 4713
1 4714
1 4715
1 4716
1 4717
1 4718
1 4719
1 4720
1 4721
1 4722
1 4723
1 4724
1 4725
1 4726
1 4727
1 4728
1 4729
1 4730
1 4731
1 4732
1 4733
1 4734
1 4735
1 4736
1 4737
1 4738
1 4739
1 4740
1 4741
1 4742
1 4743
1 4744
1 4745
1 4746
1 4747
1 4748
1 4749
1 4750
1 4751
1 4752
1 4753
1 4754
1 4755
1 4756
1 4757
1 4758
1 4759
1 4760
1 4761
1 4762
1 4763
1 4764
1 4765
1 4766
1 4767
1 4768
1 4769
1 4770
1 4771
1 4772
1 4773
1 4774
1 4775
1 4776
1 4777
1 4778
1 4779
1 4780
1 4781
1 4782
1 4783
1 4784
1 4785
1 4786
1 4787
1 4788
1 4789
1 4790
1 4791
1 4792
1 4793
1 4794
1 4795
1 4796
1 4797
1 4798
1 4799
1 4800
1 4801
1 4802
1 4803
1 4804
1 4805
1 4806
1 4807
1 4808
1 4809
1 4810
1 4811
1 4812
1 4813
1 4814
1 4815
1 4816
1 4817
1 4818
1 4819
1 4820
1 4821
1 4822
1 4823
1 4824
1 4825
1 4826
1 4827
1 4828
1 4829
1 4830
1 4831
1 4832
1 4833
1 4834
1 4835
1 4836
1 4837
1 4838
1 4839
1 4840
1 4841
1 4842
1 4843
1 4844
1 4845
1 4846
1 4847
1 4848
1 4849
1 4850
1 4851
1 4852
1 4853
1 4854
1 4855
1 4856
1 4857
1 4858
1 4859
1 4860
1 4861
1 4862
1 4863
1 4864
1 4865
1 4866
1 4867
1 4868
1 4869
1 4870
1 4871
1 4872
1 4873
1 4874
1 4875
1 4876
1 4877
1 4878
1 4879
1 4880
1 4881
1 4882
1 4883
1 4884
1 4885
1 4886
1 4887
1 4888
1 4889
1 4890
1 4891
1 4892
1 4893
1 4894
1 4895
1 4896
1 4897
1 4898
1 4899
1 4900
1 4901
1 4902
1 4903
1 4904
1 4905
1 4906
1 4907
1 4908
1 4909
1 4910
1 4911
1 4912
1 4913
1 4914
1 4915
1 4916
1 4917
1 4918
1 4919
1 4920
1 4921
1 4922
1 4923
1 4924
1 4925
1 4926
1 4927
1 4928
1 4929
1 4930
1 4931
1 4932
1 4933
1 4934
1 4935
1 4936
1 4937
1 4938
1 4939
1 4940
1 4941
1 4942
1 4943
1 4944
1 4945
1 4946
1 4947
1 4948
1 4949
1 4950
1 4951
1 4952
1 4953
1 4954
1 4955
1 4956
1 4957
1 4958
1 4959
1 4960
1 4961
1 4962
1 4963
1 4964
1 4965
1 4966
1 4967
1 4968
1 4969
1 4970
1 4971
1 4972
1 4973
1 4974
1 4975
1 4976
1 4977
1 4978
1 4979
1 4980
1 4981
1 4982
1 4983
1 4984
1 4985
1 4986
1 4987
1 4988
1 4989
1 4990
1 4991
1 4992
1 4993
1 4994
1 4995
1 4996
1 4997
1 4998
1 4999
CELL_TYPES 5000
1 
1 
1 
1 
1 
1 
1 
1 
1 
1 
1 
1 
1 
1 
1 
1 
1 
1 
1 
1 
1 
1 
1 
1 
1 
1 
1 
1 
1 
1 
1 
1 
1 
1 
1 
1 
1 
1 
1 
1 
1 
1 
1 
1 
1 
1 
1 
1 
1 
1 
1 
1 
1 
1 
1 
1 
1 
1 
1 
1 
1 
1 
1 
1 
1 
1 
1 
1 
1 
1 
1 
1 
1 
1 
1 
1 
1 
1 
1 
1 
1 
1 
1 
1 
1 
1 
1 
1 
1 
1 
1 
1 
1 
1 
1 
1 
1 
1 
1 
1 
1 
1 
1 
1 
1 
1 
1 
1 
1 
1 
1 
1 
1 
1 
1 
1 
1 
1 
1 
1 
1 
1 
1 
1 
1 
1 
1 
1 
1 
1 
1 
1 
1 
1 
1 
1 
1 
1 
1 
1 
1 
1 
1 
1 
1 
1 
1 
1 
1 
1 
1 
1 
1 
1 
1 
1 
1 
1 
1 
1 
1 
1 
1 
1 
1 
1 
1 
1 
1 
1 
1 
1 
1 
1 
1 
1 
1 
1 
1 
1 
1 
1 
1 
1 
1 
1 
1 
1 
1 
1 
1 
1 
1 
1 
1 
1 
1 
1 
1 
1 
1 
1 
1 
1 
1 
1 
1 
1 
1 
1 
1 
1 
1 
1 
1 
1 
1 
1 
1 
1 
1 
1 
1 
1 
1 
1 
1 
1 
1 
1 
1 
1 
1 
1 
1 
1 
1 
1 
1 
1 
1 
1 
1 
1 
1 
1 
1 
1 
1 
1 
1 
1 
1 
1 
1 
1 
1 
1 
1 
1 
1 
1 
1 
1 
1 
1 
1 
1 
1 
1 
1 
1 
1 
1 
1 
1 
1 
1 
1 
1 
1 
1 
1 
1 
1 
1 
1 
1 
1 
1 
1 
1 
1 
1 
1 
1 
1 
1 
1 
1 
1 
1 
1 
1 
1 
1 
1 
1 
1 
1 
1 
1 
1 
1 
1 
1 
1 
1 
1 
1 
1 
1 
1 
1 
1 
1 
1 
1 
1 
1 
1 
1 
1 
1 
1 
1 
1 
1 
1 
1 
1 
1 
1 
1 
1 
1 
1 
1 
1 
1 
1 
1 
1 
1 
1 
1 
1 
1 
1 
1 
1 
1 
1 
1 
1 
1 
1 
1 
1 
1 
1 
1 
1 
1 
1 
1 
1 
1 
1 
1 
1 
1 
1 
1 
1 
1 
1 
1 
1 
1 
1 
1 
1 
1 
1 
1 
1 
1 
1 
1 
1 
1 
1 
1 
1 
1 
1 
1 
1 
1 
1 
1 
1 
1 
1 
1 
1 
1 
1 
1 
1 
1 
1 
1 
1 
1 
1 
1 
1 
1 
1 
1 
1 
1 
1 
1 
1 
1 
1 
1 
1 
1 
1 
1 
1 
1 
1 
1 
1 
1 
1 
1 
1 
1 
1 
1 
1 
1 
1 
1 
1 
1 
1 
1 
1 
1 
1 
1 
1 
1 
1 
1 
1 
1 
1 
1 
1 
1 
1 
1 
1 
1 
1 
1 
1 
1 
1 
1 
1 
1 
1 
1 
1 
1 
1 
1 
1 
1 
1 
1 
1 
1 
1 
1 
1 
1 
1 
1 
1 
1 
1 
1 
1 
1 
1 
1 
1 
1 
1 
1 
1 
1 
1 
1 
1 
1 
1 
1 
1 
1 
1 
1 
1 
1 
1 
1 
1 
1 
1 
1 
1 
1 
1 
1 
1 
1 
1 
1 
1 
1 
1 
1 
1 
1 
1 
1 
1 
1 
1 
1 
1 
1 
1 
1 
1 
1 
1 
1 
1 
1 
1 
1 
1 
1 
1 
1 
1 
1 
1 
1 
1 
1 
1 
1 
1 
1 
1 
1 
1 
1 
1 
1 
1 
1 
1 
1 
1 
1 
1 
1 
1 
1 
1 
1 
1 
1 
1 
1 
1 
1 
1 
1 
1 
1 
1 
1 
1 
1 
1 
1 
1 
1 
1 
1 
1 
1 
1 
1 
1 
1 
1 
1 
1 
1 
1 
1 
1 
1 
1 
1 
1 
1 
1 
1 
1 
1 
1 
1 
1 
1 
1 
1 
1 
1 
1 
1 
1 
1 
1 
1 
1 
1 
1 
1 
1 
1 
1 
1 
1 
1 
1 
1 
1 
1 
1 
1 
1 
1 
1 
1 
1 
1 
1 
1 
1 
1 
1 
1 
1 
1 
1 
1 
1 
1 
1 
1 
1 
1 
1 
1 
1 
1 
1 
1 
1 
1 
1 
1 
1 
1 
1 
1 
1 
1 
1 
1 
1 
1 
1 
1 
1 
1 
1 
1 
1 
1 
1 
1 
1 
1 
1 
1 
1 
1 
1 
1 
1 
1 
1 
1 
1 
1 
1 
1 
1 
1 
1 
1 
1 
1 
1 
1 
1 
1 
1 
1 
1 
1 
1 
1 
1 
1 
1 
1 
1 
1 
1 
1 
1 
1 
1 
1 
1 
1 
1 
1 
1 
1 
1 
1 
1 
1 
1 
1 
1 
1 
1 
1 
1 
1 
1 
1 
1 
1 
1 
1 
1 
1 
1 
1 
1 
1 
1 
1 
1 
1 
1 
1 
1 
1 
1 
1 
1 
1 
1 
1 
1 
1 
1 
1 
1 
1 
1 
1 
1 
1 
1 
1 
1 
1 
1 
1 
1 
1 
1 
1 
1 
1 
1 
1 
1 
1 
1 
1 
1 
1 
1 
1 
1 
1 
1 
1 
1 
1 
1 
1 
1 
1 
1 
1 
1 
1 
1 
1 
1 
1 
1 
1 
1 
1 
1 
1 
1 
1 
1 
1 
1 
1 
1 
1 
1 
1 
1 
1 
1 
1 
1 
1 
1 
1 
1 
1 
1 
1 
1 
1 
1 
1 
1 
1 
1 
1 
1 
1 
1 
1 
1 
1 
1 
1 
1 
1 
1 
1 
1 
1 
1 
1 
1 
1 
1 
1 
1 
1 
1 
1 
1 
1 
1 
1 
1 
1 
1 
1 
1 
1 
1 
1 
1 
1 
1 
1 
1 
1 
1 
1 
1 
1 
1 
1 
1 
1 
1 
1 
1 
1 
1 
1 
1 
1 
1 
1 
1 
1 
1 
1 
1 
1 
1 
1 
1 
1 
1 
1 
1 
1 
1 
1 
1 
1 
1 
1 
1 
1 
1 
1 
1 
1 
1 
1 
1 
1 
1 
1 
1 
1 
1 
1 
1 
1 
1 
1 
1 
1 
1 
1 
1 
1 
1 
1 
1 
1 
1 
1 
1 
1 
1 
1 
1 
1 
1 
1 
1 
1 
1 
1 
1 
1 
1 
1 
1 
1 
1 
1 
1 
1 
1 
1 
1 
1 
1 
1 
1 
1 
1 
1 
1 
1 
1 
1 
1 
1 
1 
1 
1 
1 
1 
1 
1 
1 
1 
1 
1 
1 
1 
1 
1 
1 
1 
1 
1 
1 
1 
1 
1 
1 
1 
1 
1 
1 
1 
1 
1 
1 
1 
1 
1 
1 
1 
1 
1 
1 
1 
1 
1 
1 
1 
1 
1 
1 
1 
1 
1 
1 
1 
1 
1 
1 
1 
1 
1 
1 
1 
1 
1 
1 
1 
1 
1 
1 
1 
1 
1 
1 
1 
1 
1 
1 
1 
1 
1 
1 
1 
1 
1 
1 
1 
1 
1 
1 
1 
1 
1 
1 
1 
1 
1 
1 
1 
1 
1 
1 
1 
1 
1 
1 
1 
1 
1 
1 
1 
1 
1 
1 
1 
1 
1 
1 
1 
1 
1 
1 
1 
1 
1 
1 
1 
1 
1 
1 
1 
1 
1 
1 
1 
1 
1 
1 
1 
1 
1 
1 
1 
1 
1 
1 
1 
1 
1 
1 
1 
1 
1 
1 
1 
1 
1 
1 
1 
1 
1 
1 
1 
1 
1 
1 
1 
1 
1 
1 
1 
1 
1 
1 
1 
1 
1 
1 
1 
1 
1 
1 
1 
1 
1 
1 
1 
1 
1 
1 
1 
1 
1 
1 
1 
1 
1 
1 
1 
1 
1 
1 
1 
1 
1 
1 
1 
1 
1 
1 
1 
1 
1 
1 
1 
1 
1 
1 
1 
1 
1 
1 
1 
1 
1 
1 
1 
1 
1 
1 
1 
1 
1 
1 
1 
1 
1 
1 
1 
1 
1 
1 
1 
1 
1 
1 
1 
1 
1 
1 
1 
1 
1 
1 
1 
1 
1 
1 
1 
1 
1 
1 
1 
1 
1 
1 
1 
1 
1 
1 
1 
1 
1 
1 
1 
1 
1 
1 
1 
1 
1 
1 
1 
1 
1 
1 
1 
1 
1 
1 
1 
1 
1 
1 
1 
1 
1 
1 
1 
1 
1 
1 
1 
1 
1 
1 
1 
1 
1 
1 
1 
1 
1 
1 
1 
1 
1 
1 
1 
1 
1 
1 
1 
1 
1 
1 
1 
1 
1 
1 
1 
1 
1 
1 
1 
1 
1 
1 
1 
1 
1 
1 
1 
1 
1 
1 
1 
1 
1 
1 
1 
1 
1 
1 
1 
1 
1 
1 
1 
1 
1 
1 
1 
1 
1 
1 
1 
1 
1 
1 
1 
1 
1 
1 
1 
1 
1 
1 
1 
1 
1 
1 
1 
1 
1 
1 
1 
1 
1 
1 
1 
1 
1 
1 
1 
1 
1 
1 
1 
1 
1 
1 
1 
1 
1 
1 
1 
1 
1 
1 
1 
1 
1 
1 
1 
1 
1 
1 
1 
1 
1 
1 
1 
1 
1 
1 
1 
1 
1 
1 
1 
1 
1 
1 
1 
1 
1 
1 
1 
1 
1 
1 
1 
1 
1 
1 
1 
1 
1 
1 
1 
1 
1 
1 
1 
1 
1 
1 
1 
1 
1 
1 
1 
1 
1 
1 
1 
1 
1 
1 
1 
1 
1 
1 
1 
1 
1 
1 
1 
1 
1 
1 
1 
1 
1 
1 
1 
1 
1 
1 
1 
1 
1 
1 
1 
1 
1 
1 
1 
1 
1 
1 
1 
1 
1 
1 
1 
1 
1 
1 
1 
1 
1 
1 
1 
1 
1 
1 
1 
1 
1 
1 
1 
1 
1 
1 
1 
1 
1 
1 
1 
1 
1 
1 
1 
1 
1 
1 
1 
1 
1 
1 
1 
1 
1 
1 
1 
1 
1 
1 
1 
1 
1 
1 
1 
1 
1 
1 
1 
1 
1 
1 
1 
1 
1 
1 
1 
1 
1 
1 
1 
1 
1 
1 
1 
1 
1 
1 
1 
1 
1 
1 
1 
1 
1 
1 
1 
1 
1 
1 
1 
1 
1 
1 
1 
1 
1 
1 
1 
1 
1 
1 
1 
1 
1 
1 
1 
1 
1 
1 
1 
1 
1 
1 
1 
1 
1 
1 
1 
1 
1 
1 
1 
1 
1 
1 
1 
1 
1 
1 
1 
1 
1 
1 
1 
1 
1 
1 
1 
1 
1 
1 
1 
1 
1 
1 
1 
1 
1 
1 
1 
1 
1 
1 
1 
1 
1 
1 
1 
1 
1 
1 
1 
1 
1 
1 
1 
1 
1 
1 
1 
1 
1 
1 
1 
1 
1 
1 
1 
1 
1 
1 
1 
1 
1 
1 
1 
1 
1 
1 
1 
1 
1 
1 
1 
1 
1 
1 
1 
1 
1 
1 
1 
1 
1 
1 
1 
1 
1 
1 
1 
1 
1 
1 
1 
1 
1 
1 
1 
1 
1 
1 
1 
1 
1 
1 
1 
1 
1 
1 
1 
1 
1 
1 
1 
1 
1 
1 
1 
1 
1 
1 
1 
1 
1 
1 
1 
1 
1 
1 
1 
1 
1 
1 
1 
1 
1 
1 
1 
1 
1 
1 
1 
1 
1 
1 
1 
1 
1 
1 
1 
1 
1 
1 
1 
1 
1 
1 
1 
1 
1 
1 
1 
1 
1 
1 
1 
1 
1 
1 
1 
1 
1 
1 
1 
1 
1 
1 
1 
1 
1 
1 
1 
1 
1 
1 
1 
1 
1 
1 
1 
1 
1 
1 
1 
1 
1 
1 
1 
1 
1 
1 
1 
1 
1 
1 
1 
1 
1 
1 
1 
1 
1 
1 
1 
1 
1 
1 
1 
1 
1 
1 
1 
1 
1 
1 
1 
1 
1 
1 
1 
1 
1 
1 
1 
1 
1 
1 
1 
1 
1 
1 
1 
1 
1 
1 
1 
1 
1 
1 
1 
1 
1 
1 
1 
1 
1 
1 
1 
1 
1 
1 
1 
1 
1 
1 
1 
1 
1 
1 
1 
1 
1 
1 
1 
1 
1 
1 
1 
1 
1 
1 
1 
1 
1 
1 
1 
1 
1 
1 
1 
1 
1 
1 
1 
1 
1 
1 
1 
1 
1 
1 
1 
1 
1 
1 
1 
1 
1 
1 
1 
1 
1 
1 
1 
1 
1 
1 
1 
1 
1 
1 
1 
1 
1 
1 
1 
1 
1 
1 
1 
1 
1 
1 
1 
1 
1 
1 
1 
1 
1 
1 
1 
1 
1 
1 
1 
1 
1 
1 
1 
1 
1 
1 
1 
1 
1 
1 
1 
1 
1 
1 
1 
1 
1 
1 
1 
1 
1 
1 
1 
1 
1 
1 
1 
1 
1 
1 
1 
1 
1 
1 
1 
1 
1 
1 
1 
1 
1 
1 
1 
1 
1 
1 
1 
1 
1 
1 
1 
1 
1 
1 
1 
1 
1 
1 
1 
1 
1 
1 
1 
1 
1 
1 
1 
1 
1 
1 
1 
1 
1 
1 
1 
1 
1 
1 
1 
1 
1 
1 
1 
1 
1 
1 
1 
1 
1 
1 
1 
1 
1 
1 
1 
1 
1 
1 
1 
1 
1 
1 
1 
1 
1 
1 
1 
1 
1 
1 
1 
1 
1 
1 
1 
1 
1 
1 
1 
1 
1 
1 
1 
1 
1 
1 
1 
1 
1 
1 
1 
1 
1 
1 
1 
1 
1 
1 
1 
1 
1 
1 
1 
1 
1 
1 
1 
1 
1 
1 
1 
1 
1 
1 
1 
1 
1 
1 
1 
1 
1 
1 
1 
1 
1 
1 
1 
1 
1 
1 
1 
1 
1 
1 
1 
1 
1 
1 
1 
1 
1 
1 
1 
1 
1 
1 
1 
1 
1 
1 
1 
1 
1 
1 
1 
1 
1 
1 
1 
1 
1 
1 
1 
1 
1 
1 
1 
1 
1 
1 
1 
1 
1 
1 
1 
1 
1 
1 
1 
1 
1 
1 
1 
1 
1 
1 
1 
1 
1 
1 
1 
1 
1 
1 
1 
1 
1 
1 
1 
1 
1 
1 
1 
1 
1 
1 
1 
1 
1 
1 
1 
1 
1 
1 
1 
1 
1 
1 
1 
1 
1 
1 
1 
1 
1 
1 
1 
1 
1 
1 
1 
1 
1 
1 
1 
1 
1 
1 
1 
1 
1 
1 
1 
1 
1 
1 
1 
1 
1 
1 
1 
1 
1 
1 
1 
1 
1 
1 
1 
1 
1 
1 
1 
1 
1 
1 
1 
1 
1 
1 
1 
1 
1 
1 
1 
1 
1 
1 
1 
1 
1 
1 
1 
1 
1 
1 
1 
1 
1 
1 
1 
1 
1 
1 
1 
1 
1 
1 
1 
1 
1 
1 
1 
1 
1 
1 
1 
1 
1 
1 
1 
1 
1 
1 
1 
1 
1 
1 
1 
1 
1 
1 
1 
1 
1 
1 
1 
1 
1 
1 
1 
1 
1 
1 
1 
1 
1 
1 
1 
1 
1 
1 
1 
1 
1 
1 
1 
1 
1 
1 
1 
1 
1 
1 
1 
1 
1 
1 
1 
1 
1 
1 
1 
1 
1 
1 
1 
1 
1 
1 
1 
1 
1 
1 
1 
1 
1 
1 
1 
1 
1 
1 
1 
1 
1 
1 
1 
1 
1 
1 
1 
1 
1 
1 
1 
1 
1 
1 
1 
1 
1 
1 
1 
1 
1 
1 
1 
1 
1 
1 
1 
1 
1 
1 
1 
1 
1 
1 
1 
1 
1 
1 
1 
1 
1 
1 
1 
1 
1 
1 
1 
1 
1 
1 
1 
1 
1 
1 
1 
1 
1 
1 
1 
1 
1 
1 
1 
1 
1 
1 
1 
1 
1 
1 
1 
1 
1 
1 
1 
1 
1 
1 
1 
1 
1 
1 
1 
1 
1 
1 
1 
1 
1 
1 
1 
1 
1 
1 
1 
1 
1 
1 
1 
1 
1 
1 
1 
1 
1 
1 
1 
1 
1 
1 
1 
1 
1 
1 
1 
1 
1 
1 
1 
1 
1 
1 
1 
1 
1 
1 
1 
1 
1 
1 
1 
1 
1 
1 
1 
1 
1 
1 
1 
1 
1 
1 
1 
1 
1 
1 
1 
1 
1 
1 
1 
1 
1 
1 
1 
1 
1 
1 
1 
1 
1 
1 
1 
1 
1 
1 
1 
1 
1 
1 
1 
1 
1 
1 
1 
1 
1 
1 
1 
1 
1 
1 
1 
1 
1 
1 
1 
1 
1 
1 
1 
1 
1 
1 
1 
1 
1 
1 
1 
1 
1 
1 
1 
1 
1 
1 
1 
1 
1 
1 
1 
1 
1 
1 
1 
1 
1 
1 
1 
1 
1 
1 
1 
1 
1 
1 
1 
1 
1 
1 
1 
1 
1 
1 
1 
1 
1 
1 
1 
1 
1 
1 
1 
1 
1 
1 
1 
1 
1 
1 
1 
1 
1 
1 
1 
1 
1 
1 
1 
1 
1 
1 
1 
1 
1 
1 
1 
1 
1 
1 
1 
1 
1 
1 
1 
1 
1 
1 
1 
1 
1 
1 
1 
1 
1 
1 
1 
1 
1 
1 
1 
1 
1 
1 
1 
1 
1 
1 
1 
1 
1 
1 
1 
1 
1 
1 
1 
1 
1 
1 
1 
1 
1 
1 
1 
1 
1 
1 
1 
1 
1 
1 
1 
1 
1 
1 
1 
1 
1 
1 
1 
1 
1 
1 
1 
1 
1 
1 
1 
1 
1 
1 
1 
1 
1 
1 
1 
1 
1 
1 
1 
1 
1 
1 
1 
1 
1 
1 
1 
1 
1 
1 
1 
1 
1 
1 
1 
1 
1 
1 
1 
1 
1 
1 
1 
1 
1 
1 
1 
1 
1 
1 
1 
1 
1 
1 
1 
1 
1 
1 
1 
1 
1 
1 
1 
1 
1 
1 
1 
1 
1 
1 
1 
1 
1 
1 
1 
1 
1 
1 
1 
1 
1 
1 
1 
1 
1 
1 
1 
1 
1 
1 
1 
1 
1 
1 
1 
1 
1 
1 
1 
1 
1 
1 
1 
1 
1 
1 
1 
1 
1 
1 
1 
1 
1 
1 
1 
1 
1 
1 
1 
1 
1 
1 
1 
1 
1 
1 
1 
1 
1 
1 
1 
1 
1 
1 
1 
1 
1 
1 
1 
1 
1 
1 
1 
1 
1 
1 
1 
1 
1 
1 
1 
1 
1 
1 
1 
1 
1 
1 
1 
1 
1 
1 
1 
1 
1 
1 
1 
1 
1 
1 
1 
1 
1 
1 
1 
1 
1 
1 
1 
1 
1 
1 
1 
1 
1 
1 
1 
1 
1 
1 
1 
1 
1 
1 
1 
1 
1 
1 
1 
1 
1 
1 
1 
1 
1 
1 
1 
1 
1 
1 
1 
1 
1 
1 
1 
1 
1 
1 
1 
1 
1 
1 
1 
1 
1 
1 
1 
1 
1 
1 
1 
1 
1 
1 
1 
1 
1 
1 
1 
1 
1 
1 
1 
1 
1 
1 
1 
1 
1 
1 
1 
1 
1 
1 
1 
1 
1 
1 
1 
1 
1 
1 
1 
1 
1 
1 
1 
1 
1 
1 
1 
1 
1 
1 
1 
1 
1 
1 
1 
1 
1 
1 
1 
1 
1 
1 
1 
1 
1 
1 
1 
1 
1 
1 
1 
1 
1 
1 
1 
1 
1 
1 
1 
1 
1 
1 
1 
1 
1 
1 
1 
1 
1 
1 
1 
1 
1 
1 
1 
1 
1 
1 
1 
1 
1 
1 
1 
1 
1 
1 
1 
1 
1 
1 
1 
1 
1 
1 
1 
1 
1 
1 
1 
1 
1 
1 
1 
1 
1 
1 
1 
1 
1 
1 
1 
1 
1 
1 
1 
1 
1 
1 
1 
1 
1 
1 
1 
1 
1 
1 
1 
1 
1 
1 
1 
1 
1 
1 
1 
1 
1 
1 
1 
1 
1 
1 
1 
1 
1 
1 
1 
1 
1 
1 
1 
1 
1 
1 
1 
1 
1 
1 
1 
1 
1 
1 
1 
1 
1 
1 
1 
1 
1 
1 
1 
1 
1 
1 
1 
1 
1 
1 
1 
1 
1 
1 
1 
1 
1 
1 
1 
1 
1 
1 
1 
1 
1 
1 
1 
1 
1 
1 
1 
1 
1 
1 
1 
1 
1 
1 
1 
1 
1 
1 
1 
1 
1 
1 
1 
1 
1 
1 
1 
1 
1 
1 
1 
1 
1 
1 
1 
1 
1 
1 
1 
1 
1 
1 
1 
1 
1 
1 
1 
1 
1 
1 
1 
1 
1 
1 
1 
1 
1 
1 
1 
1 
1 
1 
1 
1 
1 
1 
1 
1 
1 
1 
1 
1 
1 
1 
1 
1 
1 
1 
1 
1 
1 
1 
1 
1 
1 
1 
1 
1 
1 
1 
1 
1 
1 
1 
1 
1 
1 
1 
1 
1 
1 
1 
1 
1 
1 
1 
1 
1 
1 
1 
1 
1 
1 
1 
1 
1 
1 
1 
1 
1 
1 
1 
1 
1 
1 
1 
1 
1 
1 
1 
1 
1 
1 
1 
1 
1 
1 
1 
1 
1 
1 
1 
1 
1 
1 
1 
1 
1 
1 
1 
1 
1 
1 
1 
1 
1 
1 
1 
1 
1 
1 
1 
1 
1 
1 
1 
1 
1 
1 
1 
1 
1 
1 
1 
1 
1 
1 
1 
1 
1 
1 
1 
1 
1 
1 
1 
1 
1 
1 
1 
1 
1 
1 
1 
1 
1 
1 
1 
1 
1 
1 
1 
1 
1 
1 
1 
1 
1 
1 
1 
1 
1 
1 
1 
1 
1 
1 
1 
1 
1 
1 
1 
1 
1 
1 
1 
1 
1 
1 
1 
1 
1 
1 
1 
1 
1 
1 
1 
1 
1 
1 
1 
1 
1 
1 
1 
1 
1 
1 
1 
1 
1 
1 
1 
1 
1 
1 
1 
1 
1 
1 
1 
1 
1 
1 
1 
1 
1 
1 
1 
1 
1 
1 
1 
1 
1 
1 
1 
1 
1 
1 
1 
1 
1 
1 
1 
1 
1 
1 
1 
1 
1 
1 
1 
1 
1 
1 
1 
1 
1 
1 
1 
1 
1 
1 
1 
1 
1 
1 
1 
1 
1 
1 
1 
1 
1 
1 
1 
1 
1 
1 
1 
1 
1 
1 
1 
1 
1 
1 
1 
1 
1 
1 
1 
1 
1 
1 
1 
1 
1 
1 
1 
1 
1 
1 
1 
1 
1 
1 
1 
1 
1 
1 
1 
1 
1 
1 
1 
1 
1 
1 
1 
1 
1 
1 
1 
1 
1 
1 
1 
1 
1 
1 
1 
1 
1 
1 
1 
1 
1 
1 
1 
1 
1 
1 
1 
1 
1 
1 
1 
1 
1 
1 
1 
1 
1 
1 
1 
1 
1 
1 
1 
1 
1 
1 
1 
1 
1 
1 
1 
1 
1 
1 
1 
1 
1 
1 
1 
1 
1 
1 
1 
1 
1 
1 
1 
1 
1 
1 
1 
1 
1 
1 
1 
1 
1 
1 
1 
1 
1 
1 
1 
1 
1 
1 
1 
1 
1 
1 
1 
1 
1 
1 
1 
1 
1 
1 
1 
1 
1 
1 
1 
1 
1 
1 
1 
1 
1 
1 
1 
1 
1 
1 
1 
1 
1 
1 
1 
1 
1 
1 
1 
1 
1 
1 
1 
1 
1 
1 
1 
1 
1 
1 
1 
1 
1 
1 
1 
1 
1 
1 
1 
1 
1 
1 
1 
1 
1 
1 
1 
1 
1 
1 
1 
1 
1 
1 
1 
1 
1 
1 
1 
1 
1 
1 
1 
1 
1 
1 
1 
1 
1 
1 
1 
1 
1 
1 
1 
1 
1 
1 
1 
1 
1 
1 
1 
1 
1 
1 
1 
1 
1 
1 
1 
1 
1 
1 
1 
1 
1 
1 
1 
1 
1 
1 
1 
1 
1 
1 
1 
1 
1 
1 
1 
1 
1 
1 
1 
1 
1 
1 
1 
1 
1 
1 
1 
1 
1 
1 
1 
1 
1 
1 
1 
1 
1 
1 
1 
1 
1 
1 
1 
1 
1 
1 
1 
1 
1 
1 
1 
1 
1 
1 
1 
1 
1 
1 
1 
1 
1 
1 
1 
1 
1 
1 
1 
1 
1 
1 
1 
1 
1 
1 
1 
1 
1 
1 
1 
1 
1 
1 
1 
1 
1 
1 
1 
1 
1 
1 
1 
1 
1 
1 
1 
1 
1 
1 
1 
1 
1 
1 
1 
1 
1 
1 
1 
1 
1 
1 
1 
1 
1 
1 
1 
1 
1 
1 
1 
1 
1 
1 
1 
1 
1 
1 
1 
1 
1 
1 
1 
1 
1 
1 
1 
1 
1 
1 
1 
1 
1 
1 
1 
1 
1 
1 
1 
1 
1 
1 
1 
1 
1 
1 
1 
1 
1 
1 
1 
1 
1 
1 
1 
1 
1 
1 
1 
1 
1 
1 
1 
1 
1 
1 
1 
1 
1 
1 
1 
1 
1 
1 
1 
1 
1 
1 
1 
1 
1 
1 
1 
1 
1 
1 
1 
1 
1 
1 
1 
1 
1 
1 
1 
1 
1 
1 
1 
1 
1 
1 
1 
1 
1 
1 
1 
1 
1 
1 
1 
1 
1 
1 
1 
1 
1 
1 
1 
1 
1 
1 
1 
1 
1 
1 
1 
1 
1 
1 
1 
1 
1 
1 
1 
1 
1 
1 
1 
1 
1 
1 
1 
1 
1 
1 
1 
1 
1 
1 
1 
1 
1 
1 
1 
1 
1 
1 
1 
1 
1 
1 
1 
1 
1 
1 
1 
1 
1 
1 
1 
1 
1 
1 
1 
1 
1 
1 
1 
1 
1 
1 
1 
1 
1 
1 
1 
1 
1 
1 
1 
1 
1 
1 
1 
1 
1 
1 
1 
1 
1 
1 
1 
1 
1 
1 
1 
1 
1 
1 
1 
1 
1 
1 
1 
1 
1 
1 
1 
1 
1 
1 
1 
1 
1 
1 
1 
1 
1 
1 
1 
1 
1 
1 
1 
1 
1 
1 
1 
1 
1 
1 
1 
1 
1 
1 
1 
1 
1 
1 
1 
1 
1 
1 
1 
1 
1 
1 
1 
1 
1 
1 
1 
1 
1 
1 
1 
1 
1 
1 
1 
1 
1 
1 
1 
1 
1 
1 
1 
1 
1 
1 
1 
1 
1 
1 
1 
1 
1 
1 
1 
1 
1 
1 
1 
1 
1 
1 
1 
1 
1 
1 
1 
1 
1 
1 
1 
1 
1 
1 
1 
1 
1 
1 
1 
1 
1 
1 
1 
1 
1 
1 
1 
1 
1 
1 
1 
1 
1 
1 
1 
1 
1 
1 
1 
1 
1 
1 
1 
1 
1 
1 
1 
1 
1 
1 
1 
1 
1 
1 
1 
1 
1 
1 
1 
1 
1 
1 
1 
1 
1 
1 
1 
1 
1 
1 
1 
1 
1 
1 
1 
1 
1 
1 
1 
1 
1 
1 
1 
1 
1 
1 
1 
1 
1 
1 
1 
1 
1 
1 
1 
1 
1 
1 
1 
1 
1 
1 
1 
1 
1 
1 
1 
1 
1 
1 
1 
1 
1 
1 
1 
1 
1 
1 
1 
1 
1 
1 
1 
1 
1 
1 
1 
1 
1 
1 
1 
1 
1 
1 
1 
1 
1 
1 
1 
1 
1 
1 
1 
1 
1 
1 
1 
1 
1 
1 
1 
1 
1 
1 
1 
1 
1 
1 
1 
1 
1 
1 
1 
1 
1 
1 
1 
1 
1 
1 
1 
1 
1 
1 
1 
1 
1 
1 
1 
1 
1 
1 
1 
1 
1 
1 
1 
1 
1 
1 
1 
1 
1 
1 
1 
1 
1 
1 
1 
1 
1 
1 
1 
1 
1 
1 
1 
1 
1 
1 
1 
1 
1 
1 
1 
1 
1 
1 
1 
1 
1 
1 
1 
1 
1 
1 
1 
1 
1 
1 
1 
1 
1 
1 
1 
1 
1 
1 
1 
1 
1 
1 
1 
1 
1 
1 
1 
1 
1 
1 
1 
1 
1 
1 
1 
1 
1 
1 
1 
1 
1 
1 
1 
1 
1 
1 
1 
1 
1 
1 
1 
1 
1 
1 
1 
1 
1 
1 
1 
1 
1 
1 
1 
1 
1 
1 
1 
1 
1 
1 
1 
1 
1 
1 
1 
1 
1 
1 
1 
1 
1 
1 
1 
1 
1 
1 
1 
1 
1 
1 
1 
1 
1 
1 
1 
1 
1 
1 
1 
1 
1 
1 
1 
1 
1 
1 
1 
1 
1 
1 
1 
1 
1 
1 
1 
1 
1 
1 
1 
1 
1 
1 
1 
1 
1 
1 
1 
1 
1 
1 
1 
1 
1 
1 
1 
1 
1 
1 
1 
1 
1 
1 
1 
1 
1 
1 
1 
1 
1 
1 
1 
1 
1 
1 
1 
1 
1 
1 
1 
1 
1 
1 
1 
1 
1 
1 
1 
1 
1 
1 
1 
1 
1 
1 
1 
1 
1 
1 
1 
1 
1 
1 
1 
1 
1 
1 
1 
1 
1 
1 
1 
1 
1 
1 
1 
1 
1 
1 
1 
1 
1 
1 
1 
1 
1 
1 
1 
1 
1 
1 
1 
1 
1 
1 
1 
1 
1 
1 
1 
1 
1 
1 
1 
1 
1 
1 
1 
1 
1 
1 
1 
1 
1 
1 
1 
1 
1 
1 
1 
1 
1 
1 
1 
1 
1 
1 
1 
1 
1 
1 
1 
1 
1 
1 
1 
1 
1 
1 
1 
1 
1 
1 
1 
1 
1 
1 
1 
1 
1 
1 
1 
1 
1 
1 
1 
1 
1 
1 
1 
1 
1 
1 
1 
1 
1 
1 
1 
1 
1 
1 
1 
1 
1 
1 
1 
1 
1 
1 
1 
1 
1 
1 
1 
1 
1 
1 
1 
1 
1 
1 
1 
1 
1 
1 
1 
1 
1 
1 
1 
1 
1 
1 
1 
1 
1 
1 
1 
1 
1 
1 
1 
1 
1 
1 
1 
1 
1 
1 
1 
1 
1 
1 
1 
1 
1 
1 
1 
1 
1 
1 
1 
1 
1 
1 
1 
1 
1 
1 
1 
1 
1 
1 
1 
1 
1 
1 
1 
1 
1 
1 
1 
1 
1 
1 
1 
1 
1 
1 
1 
1 
1 
1 
1 
1 
1 
1 
1 
1 
1 
1 
1 
1 
1 
1 
1 
1 
1 
1 
1 
1 
1 
1 
1 
1 
1 
1 
1 
1 
1 
1 
1 
1 
1 
1 
1 
1 
1 
1 
1 
1 
1 
1 
1 
1 
1 
1 
1 
1 
1 
1 
1 
1 
1 
1 
1 
1 
1 
1 
1 
1 
1 
1 
1 
1 
1 
1 
1 
1 
1 
1 
1 
1 
1 
1 
1 
1 
1 
1 
1 
1 
1 
1 
1 
1 
1 
1 
1 
1 
1 
1 
1 
1 
1 
1 
1 
1 
1 
1 
1 
1 
1 
1 
1 
1 
1 
1 
1 
1 
1 
1 
1 
1 
1 
1 
1 
1 
1 
1 
1 
1 
1 
1 
1 
1 
1 
1 
1 
1 
1 
1 
1 
1 
1 
1 
1 
1 
1 
1 
1 
1 
1 
1 
1 
1 
1 
1 
1 
1 
1 
1 
1 
1 
1 
1 
1 
1 
1 
1 
1 
1 
1 
1 
1 
1 
1 
1 
1 
1 
1 
1 
1 
1 
1 
1 
1 
1 
1 
1 
1 
1 
1 
1 
1 
1 
1 
1 
1 
1 
1 
1 
1 
1 
1 
1 
1 
1 
1 
1 
1 
1 
1 
1 
1 
1 
1 
1 
1 
1 
1 
1 
1 
1 
1 
1 
1 
1 
1 
1 
1 
1 
1 
1 
1 
1 
1 
1 
1 
POINT_DATA 5000
VECTORS Stress float
1129.29 1210.85 0.
278.169 548.675 0.
134.648 213.469 0.
-282.305 -203.403 0.
-292.529 -227.467 0.
-302.753 -251.532 0.
110.964 -254.614 0.
-110.862 -772.092 0.
-332.688 -1289.57 0.
450.567 -995.164 0.
542.1 -780.992 0.
633.633 -566.82 0.
-378.279 -1012.48 0.
-400.015 -1063.39 0.
-1247.55 -1416.32 0.
-915.645 -642.557 0.
-583.744 131.205 0.
260.027 662.233 0.
-221.236 -460.875 0.
-702.5 -1583.98 0.
-307.439 -1641.99 0.
-93.197 -1142.18 0.
121.045 -642.372 0.
-73.2835 -503.354 0.
7.95464 -314.254 0.
217.661 -70.1023 0.
-1505.77 -489.588 0.
-1335.72 -92.1033 0.
-1212.32 141.374 0.
-1417.3 -337.169 0.
-1622.28 -815.713 0.
-1902.45 -961.166 0.
-1645.66 -360.596 0.
-1388.86 239.974 0.
-1731.05 -325.327 0.
-2238.69 -1508.94 0.
-2746.33 -2692.55 0.
-5943.7 -3025.78 0.
-5207.45 -1307.43 0.
-6441.41 -456.577 0.
-6193.45 121.019 0.
-5945.48 698.616 0.
-8580.75 -61.7688 0.
-8476.66 183.485 0.
-8372.56 428.739 0.
-13274.6 -2703.64 0.
-14454 -5451.11 0.
-15633.4 -8198.58 0.
76425.6 32757.6 0.
77938.2 36297.6 0.
-803249 -338463 0.
77820.5 36276.4 0.
76324.1 32774.3 0.
-15165.7 -8013.01 0.
-14191.3 -5741.42 0.
-13216.9 -3469.84 0.
-8664.19 -482.425 0.
-8571.88 -268.076 0.
-8479.58 -53.7265 0.
-5796.69 1041.8 0.
-5846.77 924.17 0.
-5896.86 806.537 0.
-5618.43 253.763 0.
-5997.05 -627.803 0.
-1797.18 393.657 0.
-2393.73 -998.555 0.
-2990.28 -2390.77 0.
-1501.88 -2188.57 0.
-1107.36 -1268.55 0.
-712.839 -348.527 0.
-1307.25 -352.594 0.
-1346.68 -444.967 0.
-1386.12 -537.339 0.
-1677.35 -345.105 0.
-1463.85 153.275 0.
148.107 1222.32 0.
-170.32 411.521 0.
-524.751 -414.697 0.
210.788 -700.798 0.
18.8642 -1148.16 0.
-173.06 -1595.52 0.
105.202 -1371.43 0.
418.935 -638.332 0.
732.669 94.7687 0.
-76.0002 -105.589 0.
-92.7201 -143.432 0.
-109.44 -181.276 0.
-150.068 -403.685 0.
-273.759 -692.58 0.
-295.735 -868.662 0.
-157.362 -545.564 0.
-18.9885 -222.466 0.
457.022 47.171 0.
320.242 -273.327 0.
183.462 -593.826 0.
-310.866 -694.633 0.
-122.737 -255.559 0.
65.3916 183.514 0.
-807.076 -143.414 0.
-817.883 -167.668 0.
515.435 978.819 0.
243.542 563.762 0.
100.02 227.908 0.
-133.144 -107.384 0.
-143.305 -131.722 0.
-153.467 -156.06 0.
135.403 -212.143 0.
-86.3745 -729.276 0.
-308.152 -1246.41 0.
343.854 -1010.86 0.
435.013 -796.372 0.
526.172 -581.885 0.
-525.473 -1043.94 0.
-547.069 -1094.93 0.
-850.25 -1215.57 0.
-517.811 -441.901 0.
-185.372 331.772 0.
-443.958 392.821 0.
-924.925 -729.917 0.
-1405.89 -1852.66 0.
1001.18 -1050.88 0.
1215.62 -550.782 0.
1430.06 -50.6887 0.
-634.039 -711.004 0.
-552.81 -522.837 0.
-802.279 -476.398 0.
-1416.89 -421.38 0.
-1247.39 -23.7689 0.
-1254.52 154.602 0.
-1459.3 -323.992 0.
-1664.07 -802.586 0.
-1734.74 -857.477 0.
-1478.54 -255.558 0.
-1222.35 346.361 0.
-1140.32 -43.5244 0.
-1648.6 -1226.86 0.
-2156.88 -2410.19 0.
-5787.2 -2926.71 0.
-5051.16 -1207.92 0.
-5224.03 98.2903 0.
-4975.23 675.847 0.
-4726.44 1253.4 0.
-8513 -3.1781 0.
-8410.29 243.553 0.
-8307.58 490.284 0.
-8939.63 -826.279 0.
-10125.5 -3579.84 0.
-11311.3 -6333.38 0.
69837.2 29975.7 0.
71335.8 33504.6 0.
-713653 -300034 0.
71194.2 33473.3 0.
69711.5 29982.3 0.
-11402.6 -6383.28 0.
-10424.2 -4106.7 0.
-9445.83 -1830.11 0.
-7910.52 -130.502 0.
-7817.78 82.8043 0.
-7725.04 296.112 0.
-4938.35 1444.01 0.
-4987.96 1325.97 0.
-5037.57 1207.92 0.
-4988.4 557.081 0.
-5368.3 -323.633 0.
-1997.18 337.801 0.
-2593.43 -1054.23 0.
-3189.68 -2446.26 0.
-553.339 -1750.52 0.
-158.305 -830.358 0.
236.729 89.8066 0.
-1137.29 -247.717 0.
-1176.57 -340.448 0.
-1215.84 -433.179 0.
-1924.99 -419.761 0.
-1711.65 78.6419 0.
-985.045 768.982 0.
-1228.86 -8.7439 0.
-1583.55 -833.991 0.
2641.01 372.086 0.
2448.45 -75.8362 0.
2255.89 -523.759 0.
-737.943 -1700.78 0.
-425.088 -967.62 0.
-112.234 -234.457 0.
-376.676 -204.803 0.
-394.321 -242.465 0.
-411.966 -280.127 0.
-473.318 -510.283 0.
-596.839 -799.353 0.
-86.9512 -748.277 0.
51.2771 -425.062 0.
189.505 -101.847 0.
396.562 51.3883 0.
260.372 -270.424 0.
124.181 -592.236 0.
-282.087 -649.656 0.
-94.0539 -210.591 0.
93.9792 228.475 0.
-131.411 178.436 0.
-142.724 154.925 0.
-706.488 -682.625 0.
-243.516 -477.756 0.
-138.297 -232.802 0.
-470.594 -1147.42 0.
-237.475 -604.47 0.
-622.774 -1504.51 0.
-1420.14 -3854.45 0.
-1062.36 -3021.58 0.
-3499.4 -8709.96 0.
-5522.91 -14465.4 0.
-1383.14 -4808.57 0.
-1491.83 -5064.75 0.
-2417.39 -5143.51 0.
-2808.47 -6051.4 0.
-4255.83 -9898.32 0.
-1455.05 -3361.58 0.
-1996.17 -4622.59 0.
-3497.02 -5362.52 0.
-3039.06 -4294.7 0.
-5314.26 -9604.24 0.
-26533.9 -67761.4 0.
-1669.03 -9740.43 0.
-858.958 -7847.29 0.
-3591.64 -6520.78 0.
-2992.44 -5122.47 0.
-3950.98 -7415.1 0.
-3228.43 -4779.68 0.
-3031.48 -4321.7 0.
-2822.73 -3405.97 0.
-2746.68 -3226.5 0.
-3861.69 -5826.19 0.
-7182.5 -13854.2 0.
-4098.05 -6659.54 0.
-4159.43 -6805.16 0.
-3254.67 -6056.74 0.
-3338.56 -6258.35 0.
-18188.1 -40913.3 0.
-15116.5 -24966.5 0.
-11434.6 -16379.9 0.
-10165.8 -13722 0.
-8008.32 -8690.61 0.
-7980.02 -8627.37 0.
-11552.1 -7244.99 0.
-10471.3 -4726.76 0.
-10560.8 -4939.12 0.
-7706.9 -6180.97 0.
-9597.57 -10573.1 0.
-33836.2 -67110.7 0.
60970.4 21904.6 0.
65920.1 33555.4 0.
-577752 -236065 0.
65668.2 33322 0.
60566.3 21315.8 0.
-32892.1 -63681.7 0.
-10657.9 -11819 0.
-9969.96 -10231 0.
-10864.3 -8468.82 0.
-10308.3 -7170.86 0.
-11431.7 -9791.52 0.
-8157.45 -7694.32 0.
-6909.36 -4781.34 0.
-6978.34 -4941.54 0.
-6491.04 -4109.22 0.
-6798.25 -4832.25 0.
-5811.76 -8157.16 0.
-5330.2 -7032.9 0.
-7383.25 -11822.7 0.
-24490.6 -59380.9 0.
-2978.76 -9183.36 0.
-3034.15 -9309.34 0.
-4590.21 -8597.44 0.
-3926.11 -7046.74 0.
-5690.71 -11163 0.
-3385.6 -3320.53 0.
-3052.46 -2542.74 0.
-3881.3 -3930.22 0.
-3086.3 -2290.54 0.
-3883.84 -4149.18 0.
-5063.74 -22193.4 0.
-5916.83 -24186.2 0.
-33662.2 -88927.5 0.
-12918.8 -28485.4 0.
-6276.58 -12987.7 0.
-6391.66 -13257 0.
-2521.1 -4596.82 0.
-1384.79 -1948.98 0.
-1990.2 -3365.16 0.
-1996.98 -3415.31 0.
-2220.64 -3935.18 0.
-3029.16 -7995.72 0.
-505.878 -2104.14 0.
-389.064 -1828.02 0.
-573.745 -2078.95 0.
-272.751 -1374.39 0.
-1069.56 -3231.33 0.
-752.356 -1771.97 0.
-34.7626 -97.1216 0.
39.3612 76.2626 0.
210.316 -260.141 0.
-688.938 -2358.03 0.
-263.916 276.848 0.
243.157 589.467 0.
242.758 588.811 0.
400.528 648.122 0.
369.444 577.55 0.
338.361 506.978 0.
484.387 865.661 0.
907.875 1852.68 0.
1331.36 2839.7 0.
1857.51 3195.34 0.
1731.09 2897.93 0.
1604.67 2600.51 0.
985.921 2495.62 0.
1094.58 2751.3 0.
1413.32 3014.23 0.
984.424 2016.39 0.
555.531 1018.54 0.
-378.696 759.579 0.
867.089 3663.19 0.
2112.88 6566.8 0.
4690.42 8066.6 0.
3943.28 6323.83 0.
3196.12 4581.05 0.
786.601 2821.88 0.
528.883 2221.58 0.
821.081 1856.9 0.
-225.967 1325.21 0.
-253.249 1259.96 0.
-285.572 1384.52 0.
162.103 2430.92 0.
609.778 3477.31 0.
499.27 3660.57 0.
170.578 2892.8 0.
-158.115 2125.03 0.
522.505 3716.13 0.
1788.71 6665.59 0.
3054.92 9615.06 0.
-296.522 7616.75 0.
-856.862 6304.92 0.
-1007.45 5139.74 0.
-1401.14 4221.88 0.
-1794.83 3304.03 0.
-4171.34 1646.13 0.
-4431.5 1037.33 0.
-4691.63 428.546 0.
-2070.46 189.911 0.
-3316.24 -2697.33 0.
-4561.98 -5584.52 0.
53340.7 24968 0.
58028.7 36054.9 0.
-404524 -153106 0.
58032.6 36366.4 0.
53510.1 25661.7 0.
-4717.89 -4760.79 0.
-3348.42 -1586.4 0.
-1978.92 1588.03 0.
-3409.33 2184.66 0.
-3469.43 2046.84 0.
-3529.54 1909.02 0.
-2580.57 2227.36 0.
-2633.95 2104.33 0.
-2687.31 1981.3 0.
-2485.69 1832.47 0.
-2602.79 1554.64 0.
-913.553 2389.49 0.
179.332 4934.74 0.
1272.22 7480 0.
3981.23 9288.13 0.
3010.04 7022.21 0.
2038.84 4756.28 0.
739.038 3546.92 0.
830.575 3758.63 0.
922.113 3970.34 0.
209.09 3049.25 0.
-208.554 2077.68 0.
-384.422 1254.53 0.
268.386 2936.67 0.
1004.8 4654.64 0.
5667.14 8117.46 0.
6476.25 10004.5 0.
7285.35 11891.5 0.
3964.45 10094.6 0.
2680.99 7099.82 0.
1397.54 4105.08 0.
1075.24 2865.82 0.
785.836 2188.25 0.
496.434 1510.68 0.
559.549 1552.33 0.
599.294 1649.19 0.
1087.48 1880.88 0.
884.532 1410.04 0.
681.587 939.204 0.
514.735 777.086 0.
715.941 1251.32 0.
917.146 1725.55 0.
547.584 1520.64 0.
379.135 1129.1 0.
210.686 737.56 0.
686.56 1247.7 0.
917.946 1790.2 0.
-208.411 333.067 0.
295.187 642.565 0.
294.467 641.993 0.
541.626 740.238 0.
509.534 670.279 0.
477.442 600.321 0.
355.482 841.113 0.
778.69 1828.31 0.
1201.9 2815.5 0.
1642.42 3133.29 0.
1516.02 2836.07 0.
1389.63 2538.84 0.
1161.3 2602.9 0.
1270.62 2857.63 0.
1594.87 3122.4 0.
1165.5 2124.75 0.
736.127 1127.1 0.
244.292 1059.26 0.
1491.44 3963.55 0.
2738.59 6867.85 0.
3147.41 7437.5 0.
2401.72 5695.74 0.
1656.03 3953.97 0.
1262.31 3058.62 0.
1004.15 2458.17 0.
1441.95 2155.9 0.
263.099 1565.48 0.
235.727 1500.03 0.
324.179 1677.74 0.
772.081 2724.46 0.
1219.98 3771.18 0.
729.219 3787.75 0.
400.1 3020.57 0.
70.9807 2253.38 0.
35.4201 3539.04 0.
1300.83 6487.48 0.
2566.23 9435.93 0.
769.418 8107.29 0.
208.57 6794.45 0.
325.777 5742.78 0.
-69.2439 4825.38 0.
-464.263 3907.99 0.
217.245 3555.5 0.
-44.2113 2945.48 0.
-305.65 2335.48 0.
1489.95 1716.78 0.
240.733 -1178.31 0.
-1008.45 -4073.35 0.
42458.6 20443.1 0.
47094.1 31454.1 0.
-237652 -81558.2 0.
47122.9 31771.6 0.
42652.8 21139.5 0.
-1142.04 -3236.02 0.
232.466 -53.7843 0.
1606.99 3128.5 0.
147.569 3742.69 0.
86.5509 3604.51 0.
25.5312 3466.33 0.
-942.45 2958.59 0.
-996.189 2835.45 0.
-1049.92 2712.31 0.
-680.492 2640.44 0.
-798.162 2362.9 0.
-434.482 2624.83 0.
660.705 5170.01 0.
1755.9 7715.2 0.
2824.63 8824.19 0.
1855.17 6559.22 0.
885.702 4294.25 0.
909.498 3654.1 0.
1001.79 3864.58 0.
1094.07 4075.06 0.
1286.39 3545.12 0.
867.642 2573.43 0.
967.595 1863.83 0.
1649.67 3559.28 0.
2387.87 5278.78 0.
2917.13 6972.89 0.
3724.46 8857.12 0.
4531.78 10741.4 0.
4411.3 10323 0.
3127.09 7327.26 0.
1842.88 4331.54 0.
1578.74 3111.85 0.
1288.78 2434.23 0.
998.813 1756.62 0.
1099.81 1815.34 0.
1138.78 1912.58 0.
960.873 1856.23 0.
758.22 1385.23 0.
555.568 914.236 0.
365.683 745.568 0.
566.065 1220.34 0.
766.446 1695.12 0.
427.457 1499.83 0.
258.673 1108.57 0.
89.8893 717.306 0.
495.303 1198.21 0.
726.09 1741.52 0.
-248.19 -0.049754 0.
-25.5208 -92.3857 0.
-109.765 -288.562 0.
64.5338 -335.231 0.
118.204 -209.809 0.
171.873 -84.3865 0.
-133.346 -258.552 0.
-271.361 -578.315 0.
-409.375 -898.078 0.
-101.336 -847.538 0.
-91.9384 -827.774 0.
-82.5412 -808.01 0.
-325.552 -1014.99 0.
-388.47 -1158.75 0.
-257.882 -1181.19 0.
-46.0526 -685.016 0.
165.777 -188.846 0.
58.5375 -290.874 0.
-548.632 -1696.16 0.
-1155.8 -3101.43 0.
-1970.46 -3493.34 0.
-1449.73 -2282 0.
-928.993 -1070.65 0.
-150.142 -525.934 0.
-176.68 -592.989 0.
312.655 -438.856 0.
-461.282 -698.269 0.
-424.609 -616.307 0.
-464.288 -638.24 0.
-568.368 -880.123 0.
-672.448 -1122.01 0.
-1111.66 -1249.24 0.
-902.082 -766.721 0.
-692.499 -284.201 0.
-1769.23 -1245.04 0.
-2290.21 -2464.74 0.
-2811.19 -3684.43 0.
-3119.4 -3661.7 0.
-2945.99 -3258.97 0.
-1995.82 -2576.27 0.
-2166.3 -2974.82 0.
-2336.78 -3373.37 0.
-46.69 -2922.9 0.
-593.068 -4188.87 0.
-1139.43 -5454.84 0.
1500.67 -3288.94 0.
3041.21 326.009 0.
4581.74 3940.94 0.
28943.7 7596.68 0.
23547.2 -4810.14 0.
4107.43 -23224 0.
22962.1 -4835.74 0.
28479.9 7837.41 0.
4309.09 4331.57 0.
2652.96 461.321 0.
996.809 -3408.92 0.
-1684.98 -5657.59 0.
-1096.03 -4291.51 0.
-507.074 -2925.42 0.
-1994.85 -2906.08 0.
-1755.59 -2346.46 0.
-1516.33 -1786.84 0.
-1530.49 -1710.41 0.
-1500.35 -1641.58 0.
-1666.92 -1720.63 0.
-1943.68 -2362.17 0.
-2220.42 -3003.7 0.
-2407.08 -3125.47 0.
-1964.11 -2092.89 0.
-1521.15 -1060.32 0.
-805.479 -666.679 0.
-1031.48 -1191.9 0.
-1257.48 -1717.13 0.
-337.396 -1193.71 0.
-201.901 -888.769 0.
336.242 -418.085 0.
183.579 -694.118 0.
69.1791 -953.753 0.
-1636.2 -2082.54 0.
-2120.71 -3207.24 0.
-2605.21 -4331.93 0.
-1371.34 -3724.73 0.
-757.519 -2294.51 0.
-143.702 -864.283 0.
339.209 -224.911 0.
405.354 -73.8909 0.
471.497 77.1288 0.
406.691 -74.2819 0.
332.907 -245.954 0.
-152.769 -568.685 0.
-142.822 -539.45 0.
-132.875 -510.215 0.
-139.213 -446.794 0.
-86.4901 -321.452 0.
-33.767 -196.11 0.
-261.981 -146.585 0.
-167.389 72.2065 0.
-72.7963 290.998 0.
98.9071 462.678 0.
134.554 552.122 0.
-28.8655 120.84 0.
-55.2897 -75.5291 0.
-141.04 -270.167 0.
-83.4547 -370.829 0.
-29.2007 -245.864 0.
25.0532 -120.899 0.
-38.0593 -185.33 0.
-176.149 -505.618 0.
-314.238 -825.907 0.
54.8429 -751.487 0.
64.4781 -732.016 0.
74.1133 -712.545 0.
-336.013 -988.688 0.
-399.066 -1132.76 0.
-415.818 -1219.89 0.
-204.565 -723.563 0.
6.68619 -227.239 0.
401.707 -111.619 0.
-204.891 -1518.46 0.
-811.485 -2925.29 0.
-1492.12 -3255.02 0.
-970.88 -2043.68 0.
-449.638 -832.327 0.
-276.254 -550.057 0.
-302.55 -617.02 0.
-853.823 -909.012 0.
-327.066 -611.678 0.
-291.366 -529.606 0.
-536.694 -638.146 0.
-640.861 -879.86 0.
-745.029 -1121.57 0.
-549.106 -979.976 0.
-340.364 -496.48 0.
-131.618 -12.9812 0.
-710.869 -765.236 0.
-1233.37 -1984.46 0.
-1755.86 -3203.67 0.
-1344.51 -2871.23 0.
-1170.64 -2468.28 0.
-261.042 -1806.86 0.
-432.75 -2205.25 0.
-604.453 -2603.65 0.
1780.85 -2118.05 0.
1232.45 -3385.43 0.
684.064 -4652.8 0.
3248.64 -2486.65 0.
4793.35 1130.21 0.
6338.04 4747.05 0.
20199.1 3809.78 0.
14860.5 -8540.21 0.
2901.51 -23703.9 0.
13175.4 -9031.73 0.
18628.7 3574.63 0.
6162.84 5188.24 0.
4503.08 1314.57 0.
2843.31 -2559.1 0.
200.54 -4829.7 0.
789.533 -3460.56 0.
1378.53 -2091.42 0.
-44.1074 -2044.97 0.
195.233 -1484.54 0.
434.584 -924.108 0.
-799.286 -1366.52 0.
-769.328 -1297.89 0.
-612.001 -1238.97 0.
-888.819 -1880.76 0.
-1165.63 -2522.55 0.
-1546.13 -2727.53 0.
-1102.62 -1694.37 0.
-659.108 -661.2 0.
-614.71 -553.121 0.
-840.214 -1078.85 0.
-1065.72 -1604.57 0.
-369.868 -1177.36 0.
-234.967 -871.359 0.
-93.6672 -571.75 0.
-257.868 -853.272 0.
-371.587 -1113.16 0.
-622.532 -1617.43 0.
-1106.95 -2742.62 0.
-1591.36 -3867.8 0.
-1193.32 -3620.03 0.
-579.245 -2189.34 0.
34.8346 -758.647 0.
333.045 -196.855 0.
399.525 -45.6862 0.
466.004 105.483 0.
164.295 -148.176 0.
90.6651 -319.838 0.
-179.354 -548.977 0.
-169.308 -519.936 0.
-159.261 -490.894 0.
54.855 -332.83 0.
107.665 -207.364 0.
160.475 -81.8967 0.
-64.9879 -33.1466 0.
29.1959 185.841 0.
123.38 404.829 0.
98.3539 493.981 0.
132.641 584.291 0.
126.358 139.548 0.
148.828 477.065 0.
134.821 440.329 0.
-117.147 -146.511 0.
-61.2346 -14.9732 0.
-96.6834 -96.5921 0.
-622.806 -1703.06 0.
330.57 525.772 0.
294.122 444.605 0.
415.313 -196.639 0.
46.9461 -1051.86 0.
493.035 -6.70301 0.
200.271 322.209 0.
168.705 243.82 0.
-220.493 -426.646 0.
-14.9288 46.769 0.
-486.481 -1059.77 0.
-42.5895 -1740.36 0.
202.561 -1172.28 0.
675.25 -73.2955 0.
229.775 -121.896 0.
220.873 -144.973 0.
225.15 -137.34 0.
-200.357 -116.989 0.
-475.662 -760.087 0.
-364.69 -392.536 0.
-46.7189 -178.927 0.
-413.637 -1046.97 0.
-739.064 -935.366 0.
-287.363 113.679 0.
77.1385 959.279 0.
-455.857 -1804.06 0.
-128.595 -1043.76 0.
247.065 -170.444 0.
488.321 62.7382 0.
-512.358 -2269.49 0.
-1337.47 -4192.15 0.
-5.63925 -3078.16 0.
496.992 -1902.44 0.
1214.57 -1621.42 0.
1018.94 -2075.41 0.
1027.57 -2052.89 0.
3395.07 -1746.99 0.
3240.43 -2110.71 0.
3925.26 -515.807 0.
5797.47 231.198 0.
5660.32 -86.6993 0.
6745.26 2449.86 0.
12175.6 1626.35 0.
12224.9 1755.66 0.
3012.84 -4137.46 0.
9167.02 110.547 0.
9509.48 903.414 0.
5389.84 -31.0308 0.
4806.74 -1401.42 0.
4242.19 -2728.51 0.
3256.8 -1228.57 0.
3921.43 313.917 0.
3946.25 363.519 0.
1710.03 -1600.92 0.
1314.33 -2525.85 0.
2488.5 212.34 0.
-111.286 -1151.58 0.
-682.629 -2476.21 0.
52.78 -1648.34 0.
1144.38 899.797 0.
698.331 -139.963 0.
-4.9972 -724.188 0.
-138.04 -1032.72 0.
35.9532 -624.8 0.
-784.663 -1285.41 0.
142.812 879.044 0.
84.2838 742.874 0.
-319.056 -966.487 0.
-549.558 -1502.35 0.
12.5887 61.9834 0.
-596.116 -801.898 0.
-979.027 -1698.82 0.
965.282 222.85 0.
445.89 -989.256 0.
417.547 -1055.51 0.
-12.5596 -1169.08 0.
196.928 -680.234 0.
368.644 -279.464 0.
-179.337 -1354.78 0.
-159.802 -1307.34 0.
-565.14 -2251.32 0.
-223.087 -555.901 0.
261.485 572.215 0.
521.167 1165.73 0.
498.13 1102.45 0.
456.599 995.853 0.
713.917 900.473 0.
587.582 602.941 0.
945.818 1436.08 0.
214.471 264.325 0.
77.1324 -57.0189 0.
47.6728 -126.609 0.
138.283 614.818 0.
-289.25 -393.151 0.
180.407 104.367 0.
86.3526 136.859 0.
159.644 303.566 0.
35.3357 322.231 0.
-118.469 -36.293 0.
-272.273 -394.817 0.
125.489 -441.937 0.
89.1535 -520.756 0.
52.8187 -599.575 0.
-30.1935 -654.239 0.
-35.6955 -663.194 0.
-41.1992 -672.15 0.
-171.333 -627.326 0.
-102.456 -470.53 0.
-74.0794 -343.907 0.
-151.129 -526.795 0.
-228.179 -709.684 0.
406.313 -586.955 0.
334.456 -756.372 0.
262.598 -925.788 0.
23.8439 -1103.94 0.
8.39498 -1142.73 0.
-7.05382 -1181.52 0.
-526.199 -1225.33 0.
-394.198 -919.216 0.
-266.901 -614.953 0.
-297.677 -746.304 0.
-353.521 -889.524 0.
-623.131 -1121.81 0.
-650.09 -1187.37 0.
-677.048 -1252.94 0.
82.0746 -1034.22 0.
-18.2001 -1270.81 0.
-118.475 -1507.4 0.
229.449 -1443.71 0.
214.427 -1474.78 0.
199.409 -1505.84 0.
1344.9 -1232.37 0.
1215.88 -1529.97 0.
1583.48 -1604.42 0.
1355.3 -2132.16 0.
1127.12 -2659.9 0.
3087.99 -2119.34 0.
3088.17 -2121.15 0.
3088.35 -2122.96 0.
4656.76 -1180.63 0.
4918.8 -571.677 0.
5180.83 37.2719 0.
9897.79 1128.63 0.
9178.92 -538.387 0.
4101.05 -4073.57 0.
7565.75 -1269.63 0.
8258.86 346.108 0.
4585.03 -302.301 0.
4407.98 -722.754 0.
4230.93 -1143.21 0.
3018.49 -1896.56 0.
2957.03 -2047.99 0.
2895.56 -2199.43 0.
1644.98 -2534.51 0.
1834.81 -2091.53 0.
2024.65 -1648.56 0.
207.655 -1965.61 0.
444.791 -1405.02 0.
648.081 -951.351 0.
570.422 -1132.3 0.
492.764 -1313.25 0.
-348.431 -1677.65 0.
-214.719 -1364.19 0.
-81.0072 -1050.73 0.
-337.47 -968.122 0.
-264.13 -794.789 0.
-190.789 -621.456 0.
-136.699 -542.698 0.
-114.949 -487.803 0.
-195.719 -482.593 0.
-417.959 -941.079 0.
-608.379 -1385.93 0.
444.91 -1245.56 0.
368.239 -1422.54 0.
291.569 -1599.52 0.
-213.112 -1720.34 0.
-15.8011 -1258.47 0.
181.51 -796.611 0.
-142.905 -691.691 0.
-41.7159 -453.008 0.
59.4723 -214.325 0.
-58.4438 -376.893 0.
-137.656 -561.875 0.
-58.966 -630.273 0.
79.8913 -312.4 0.
218.75 5.4745 0.
-85.5364 -60.4843 0.
-207.65 -346.495 0.
-329.764 -632.506 0.
48.9406 -473.457 0.
124.102 -299.317 0.
199.263 -125.176 0.
-13.8232 -262.564 0.
-51.8797 -357.709 0.
280.084 175.654 0.
204.071 217.008 0.
277.465 383.75 0.
-6.81003 336.869 0.
-160.474 -22.0929 0.
-314.139 -381.055 0.
396.594 -294.257 0.
359.757 -372.682 0.
322.921 -451.108 0.
-318.161 -744.978 0.
-323.62 -754.197 0.
-329.08 -763.417 0.
-112.252 -572.32 0.
-43.7078 -415.278 0.
79.2136 -245.371 0.
1.14741 -427.85 0.
-76.9199 -610.329 0.
366.001 -575.151 0.
293.495 -744.058 0.
220.989 -912.965 0.
302.953 -954.272 0.
287.6 -993.005 0.
272.247 -1031.74 0.
-327.087 -1108.9 0.
-194.501 -803.016 0.
-80.2008 -504.764 0.
-289.334 -709.884 0.
-344.82 -853.344 0.
-367.225 -980.656 0.
-395.264 -1046.03 0.
-423.303 -1111.4 0.
353.305 -887.864 0.
252.541 -1124.44 0.
151.777 -1361.01 0.
718.93 -1203.68 0.
703.467 -1234.53 0.
688.007 -1265.37 0.
2048.01 -897.797 0.
1918.83 -1195.59 0.
2040.86 -1380.17 0.
1811.86 -1907.85 0.
1582.86 -2435.53 0.
2923.5 -2159.68 0.
2923.55 -2160.82 0.
2923.61 -2161.97 0.
4017.88 -1421.64 0.
4281.31 -813.428 0.
4544.73 -205.211 0.
7386.13 83.6739 0.
6669.9 -1581.1 0.
905.247 -5413.8 0.
6342.84 -1765.09 0.
7033.77 -150.041 0.
3757.96 -625.984 0.
3580.15 -1045.56 0.
3402.34 -1465.13 0.
3093.01 -1834.79 0.
3031.45 -1986.23 0.
2969.89 -2137.68 0.
2071.1 -2322.12 0.
2260.55 -1877.88 0.
2449.99 -1433.64 0.
1040.88 -1580.2 0.
1278.79 -1019.5 0.
1028.58 -754.941 0.
951.455 -936.247 0.
874.328 -1117.55 0.
-250.759 -1602.18 0.
-116.977 -1288.89 0.
16.805 -975.594 0.
60.0805 -767.456 0.
132.78 -593.555 0.
205.48 -419.655 0.
-119.505 -504.084 0.
-98.4423 -448.793 0.
195.542 -285.208 0.
-111.069 -778.931 0.
-302.331 -1223.2 0.
594.101 -1152.28 0.
516.926 -1328.3 0.
439.751 -1504.33 0.
-153.477 -1663.76 0.
43.6612 -1201.33 0.
240.799 -738.902 0.
-429.157 -781.539 0.
-328.162 -542.713 0.
-227.167 -303.887 0.
66.3665 -290.808 0.
-13.7349 -475.178 0.
188.347 -494.59 0.
326.309 -175.588 0.
464.272 143.414 0.
-545.236 -228.296 0.
-667.88 -513.996 0.
-790.524 -799.695 0.
249.944 -356.139 0.
325.173 -182.126 0.
400.402 -8.11328 0.
276.586 -107.426 0.
237.206 -201.64 0.
118.637 -163.113 0.
108.189 -73.5844 0.
118.977 -49.6027 0.
-216.598 -186.222 0.
-237.42 -240.647 0.
-258.243 -295.071 0.
517.98 59.7917 0.
577.668 189.879 0.
637.356 319.968 0.
-105.656 -41.8387 0.
-173.21 -203.17 0.
-240.764 -364.502 0.
-27.9947 -628.784 0.
-244.288 -1126.72 0.
-395.265 -1567.65 0.
-273.298 -1283.24 0.
-151.332 -998.818 0.
250.73 -688.268 0.
198.146 -810.398 0.
145.561 -932.527 0.
389.161 -963.018 0.
295.294 -1182.12 0.
201.426 -1401.22 0.
-393.967 -1549.81 0.
-281.929 -1287.29 0.
115.204 -902.521 0.
-188.022 -1099.76 0.
-227.406 -1192.68 0.
-326.822 -1311.54 0.
-333.981 -1330.58 0.
-341.139 -1349.63 0.
495.81 -1066.43 0.
414.542 -1263.61 0.
333.273 -1460.8 0.
781.894 -1591.23 0.
562.054 -2101.67 0.
342.213 -2612.1 0.
1892.75 -2236.7 0.
1749.63 -2565.53 0.
1532.33 -2890.62 0.
1598.56 -2729.96 0.
1664.79 -2569.29 0.
2759.08 -1912.81 0.
2913.16 -1544.92 0.
3067.23 -1177.03 0.
3901.45 -458.639 0.
4114.45 38.9774 0.
4327.46 536.594 0.
6360.94 1122.04 0.
6101.81 515.439 0.
933.381 -2197.25 0.
6340.12 260.24 0.
6415.9 433.579 0.
3221.86 -887.313 0.
3064.87 -1251.29 0.
2907.88 -1615.27 0.
2906.67 -1824.32 0.
2857.28 -1933.3 0.
2807.9 -2042.27 0.
1992.51 -2368.31 0.
2031.97 -2274.29 0.
2071.44 -2180.28 0.
1249.06 -2298.84 0.
1377.56 -2002.2 0.
598.352 -2118.16 0.
631.699 -2036.54 0.
665.045 -1954.93 0.
-268.561 -2215.91 0.
-144.949 -1926.01 0.
-21.3373 -1636.11 0.
-61.7877 -1490.3 0.
-2.89785 -1357.55 0.
55.9922 -1224.8 0.
-408.839 -1411.17 0.
-408.24 -1416.7 0.
34.3674 -1232.53 0.
-151.988 -1435.95 0.
-213.942 -1586.07 0.
439.95 -1446.74 0.
358.106 -1647.32 0.
276.261 -1847.9 0.
-259.584 -2006.88 0.
-92.4816 -1619.18 0.
74.6211 -1231.47 0.
-615.229 -1263.34 0.
-490.158 -975.235 0.
-365.087 -687.128 0.
37.3287 -472.054 0.
54.2199 -435.926 0.
237.314 -338.069 0.
220.675 -377.693 0.
204.035 -417.317 0.
-814.915 -754.938 0.
-653.627 -384.718 0.
-492.339 -14.4961 0.
626.731 434.877 0.
499.872 142.632 0.
373.015 -149.611 0.
415.687 2.15569 0.
523.488 254.216 0.
6.14892 -176.424 0.
109.97 -40.3462 0.
120.155 -15.9279 0.
-106.571 -108.069 0.
-127.579 -162.444 0.
-148.586 -216.818 0.
240.486 -27.3533 0.
299.997 102.564 0.
359.507 232.481 0.
-1.35642 33.2154 0.
-69.2364 -128.246 0.
-137.116 -289.708 0.
197.529 -501.038 0.
-18.261 -999.806 0.
-296.112 -1495.09 0.
-174.649 -1210.3 0.
-53.1858 -925.506 0.
164.827 -694.036 0.
111.957 -815.988 0.
59.0877 -937.941 0.
355.609 -946.973 0.
262.133 -1166.29 0.
168.657 -1385.61 0.
-270.036 -1467.12 0.
-158.382 -1204.42 0.
565.315 -679.349 0.
482.053 -780.939 0.
443.427 -874.394 0.
-106.051 -1184.78 0.
-113.791 -1203.73 0.
-121.53 -1222.67 0.
805.958 -905.589 0.
723.491 -1101.89 0.
641.023 -1298.19 0.
900.378 -1510.55 0.
679.459 -2020.64 0.
458.54 -2530.74 0.
2259.26 -2048.06 0.
2116.12 -2376.91 0.
1476.06 -2883.67 0.
1542.55 -2723.3 0.
1609.04 -2562.92 0.
2280.48 -2087.22 0.
2435.11 -1719.85 0.
2589.74 -1352.49 0.
3256.74 -701.599 0.
3469.83 -204.427 0.
3682.92 292.746 0.
5292.99 692.523 0.
5033.43 86.7882 0.
2654.63 -1428.83 0.
5452.78 -88.0932 0.
5527.67 85.2851 0.
3035.81 -933.504 0.
2878.99 -1298.58 0.
2722.16 -1663.65 0.
2401.83 -2008.66 0.
2352.19 -2118.68 0.
2302.54 -2228.7 0.
1471.04 -2557.84 0.
1510.2 -2464.06 0.
1549.35 -2370.28 0.
1749.06 -2053.58 0.
1877.14 -1756.29 0.
627.268 -2076.34 0.
660.923 -1994.11 0.
694.578 -1911.88 0.
243.911 -1965.31 0.
367.476 -1675.14 0.
491.04 -1384.97 0.
40.1199 -1418.95 0.
98.9348 -1286.15 0.
157.75 -1153.35 0.
-150.278 -1266.24 0.
-149.536 -1271.53 0.
12.0259 -1211.66 0.
168.882 -1267.37 0.
106.681 -1416.96 0.
271.256 -1490.59 0.
188.667 -1689.77 0.
106.077 -1888.95 0.
-186.418 -1945.74 0.
-19.1935 -1557.92 0.
148.031 -1170.1 0.
-234.918 -1067.6 0.
-109.959 -778.993 0.
14.9988 -490.385 0.
82.0618 -423.168 0.
98.2583 -385.838 0.
-15.0126 -413.286 0.
-31.3113 -453.282 0.
-47.6105 -493.277 0.
-450.835 -568.268 0.
-290.472 -196.683 0.
-130.11 174.902 0.
552.959 432.926 0.
426.138 140.812 0.
299.319 -151.301 0.
384.483 18.801 0.
492.406 271.321 0.
157.95 410.889 0.
156.06 101.896 0.
659.335 1281.1 0.
268.216 570.286 0.
145.292 289.872 0.
359.58 796.428 0.
448.813 1006.29 0.
177.322 372.897 0.
122.644 244.143 0.
145.841 204.359 0.
180.249 285.904 0.
43.8377 -31.0731 0.
579.467 -0.136179 0.
447.788 -311.051 0.
430.411 53.6785 0.
925.121 1206.48 0.
664.248 596.244 0.
655.456 635.358 0.
459.627 176.552 0.
224.072 -375.224 0.
885.95 378.804 0.
985.086 608.651 0.
443.379 -656.664 0.
408.665 -90.0654 0.
710.483 608.833 0.
551.423 -159.039 0.
1470.57 276.259 0.
1088.62 -620.077 0.
178.436 -903.502 0.
422.484 -336.775 0.
407.126 -375.392 0.
1292.36 -330.147 0.
1193.24 -564.456 0.
1284.35 -354.475 0.
1646.47 44.9757 0.
1803.4 407.732 0.
1495.07 -314.54 0.
3991.47 1347.08 0.
3195.76 -514.142 0.
2089.32 -1305.59 0.
2127.66 -1228.7 0.
2420.39 -557.975 0.
2612.88 -353.841 0.
2978.66 489.915 0.
2784.96 28.7303 0.
3240.95 513.102 0.
3086.31 149.617 0.
2829.16 -453.995 0.
4422.25 724.368 0.
4841.42 1701.81 0.
-227.276 876.579 0.
5185.78 1033.07 0.
4932.14 440.774 0.
3419.52 327.925 0.
2972.67 -712.089 0.
2943.08 -776.623 0.
3105.26 631.869 0.
2946.89 265.124 0.
3011.5 417.956 0.
1812.22 -752.367 0.
1834.32 -696.286 0.
1998.53 -309.13 0.
2887.27 -305.401 0.
3039.75 52.9182 0.
1431.96 -222.514 0.
1426.76 -236.168 0.
1563.66 82.0583 0.
1468.22 -26.6673 0.
1840.59 836.529 0.
1394.1 -211.006 0.
449.765 -627.273 0.
751.393 76.7522 0.
915.994 460.803 0.
711.71 263.58 0.
1170.06 1331.98 0.
273.041 62.0806 0.
948.355 -22.7356 0.
1282.11 753.19 0.
648.585 -266.667 0.
633.213 -304.766 0.
760.182 -10.9641 0.
600.756 -233.202 0.
533.338 -386.574 0.
817.02 279.384 0.
598.689 186.086 0.
397.941 -278.124 0.
944.89 1001.83 0.
541.615 611.777 0.
790.412 1193.64 0.
-51.735 0.461698 0.
92.8698 337.611 0.
89.4889 329.332 0.
-199.991 -640.16 0.
290.246 503.667 0.
261.688 436.409 0.
96.2401 -454.673 0.
577.583 664.794 0.
530.369 551.138 0.
311.477 -56.3887 0.
17.4221 -738.458 0.
18.9466 93.3012 0.
18.7534 -119.719 0.
-68.4121 -319.765 0.
-195.418 -472.298 0.
-98.0235 -240.33 0.
-0.629393 -8.36148 0.
1.92917 -124.375 0.
-303.265 -836.463 0.
-608.458 -1548.55 0.
-408.288 -1613.96 0.
-339.239 -1453.5 0.
-270.19 -1293.04 0.
86.505 -959.996 0.
183.689 -732.869 0.
204.215 -562.988 0.
124.389 -749.952 0.
44.5634 -936.916 0.
73.9078 -1074.84 0.
-20.5581 -1295.44 0.
-115.023 -1516.05 0.
169.343 -1317.8 0.
343.078 -913.505 0.
516.814 -509.208 0.
47.2586 -926.109 0.
-166.549 -1428.56 0.
-19.8178 -1776.69 0.
664.346 -1352.16 0.
747.998 -1161.88 0.
255.032 -1318.3 0.
69.3764 -1755.04 0.
-116.279 -2191.79 0.
564.343 -2056.12 0.
640.462 -1882.12 0.
716.581 -1708.11 0.
1164.14 -1590.02 0.
1062.88 -1829.58 0.
961.625 -2069.14 0.
2515.81 -1739.49 0.
2319.9 -2198.54 0.
1378.06 -2916.5 0.
1579.57 -2456.63 0.
1781.08 -1996.76 0.
2029.33 -1567.99 0.
2136.9 -1325.36 0.
2244.47 -1082.72 0.
2333.19 -937.386 0.
2355.58 -891.743 0.
2377.97 -846.1 0.
3807.01 -81.5452 0.
3910.56 158.901 0.
315.246 -1184.74 0.
4343.16 328.293 0.
4229.69 66.5276 0.
2640.92 -797.431 0.
2599.28 -889.449 0.
2557.64 -981.468 0.
2012.47 -1288.62 0.
1968.64 -1391.06 0.
1924.81 -1493.5 0.
1470.61 -1864.74 0.
1351.36 -2139.91 0.
1232.11 -2415.07 0.
1995.63 -1875.02 0.
2125.65 -1570.93 0.
885.869 -1879.71 0.
928.518 -1780.31 0.
971.168 -1680.91 0.
642.075 -1715.19 0.
719.245 -1537.93 0.
796.415 -1360.67 0.
158.97 -1567.24 0.
164.532 -1553.05 0.
170.093 -1538.87 0.
426.842 -1400.02 0.
449.226 -1349.44 0.
156.099 -1437.26 0.
312.32 -1333.82 0.
333.226 -1288.31 0.
242.174 -1285.38 0.
275.429 -1211.69 0.
308.684 -1137.99 0.
188.62 -1116.86 0.
223.449 -1030.11 0.
258.277 -943.356 0.
20.8329 -1039.17 0.
12.4928 -1057 0.
4.15264 -1074.84 0.
-212.589 -1002.16 0.
-119.656 -786.341 0.
-119.023 -628.556 0.
-93.1586 -571.648 0.
-67.294 -514.741 0.
27.0678 -469.769 0.
10.1658 -512.711 0.
-6.73639 -555.653 0.
134.445 -321.188 0.
298.973 58.1791 0.
463.503 437.547 0.
-3.17066 -7.92524 0.
-193.396 -446.651 0.
29.8078 125.377 0.
-18.0234 -106.989 0.
-104.554 -307.737 0.
-197.604 -438.33 0.
-100.043 -207.519 0.
-2.48221 23.2923 0.
64.5401 -65.9041 0.
-240.841 -778.547 0.
-546.222 -1491.19 0.
-115.09 -1454.6 0.
-45.2357 -1294.77 0.
24.6194 -1134.95 0.
1.49461 -964.981 0.
97.7505 -737.27 0.
266.078 -505.298 0.
186.451 -692.222 0.
106.824 -879.146 0.
275.345 -957.309 0.
180.166 -1177.24 0.
84.9878 -1397.17 0.
200.317 -1273.69 0.
374.384 -869.178 0.
548.452 -464.664 0.
59.704 -891.685 0.
-154.873 -1393.23 0.
24.9831 -1726.1 0.
547.413 -1373.78 0.
631.833 -1184.17 0.
585.691 -1143.52 0.
400.177 -1580.76 0.
214.663 -2018 0.
597.211 -2005.51 0.
673.636 -1832.24 0.
750.062 -1658.96 0.
1448.94 -1436.29 0.
1347.55 -1675.29 0.
1246.16 -1914.29 0.
2344.52 -1783.69 0.
2148.1 -2242.16 0.
1370.28 -2886.52 0.
1571 -2426.29 0.
1771.71 -1966.05 0.
1967.45 -1565.47 0.
2074.77 -1322.59 0.
2182.09 -1079.71 0.
1998.88 -1049.63 0.
2022.23 -1004.55 0.
2045.58 -959.474 0.
3496.84 -180.596 0.
3600.71 59.159 0.
-1815.91 -2065.96 0.
3695.45 82.904 0.
3581.75 -179.231 0.
2294.49 -910.426 0.
2253.16 -1002.85 0.
2211.83 -1095.27 0.
1698.69 -1393.39 0.
1655.79 -1496.09 0.
1612.89 -1598.79 0.
1652.47 -1755.64 0.
1532.97 -2030.53 0.
1413.46 -2305.42 0.
1745.12 -1950.34 0.
1875.19 -1646.07 0.
1105.83 -1753.96 0.
1147.61 -1653.74 0.
1189.39 -1553.52 0.
530.495 -1733.14 0.
607.437 -1555.63 0.
684.378 -1378.13 0.
310.563 -1471.34 0.
316.678 -1457.4 0.
322.792 -1443.46 0.
967.412 -1136.29 0.
990.149 -1085.93 0.
806.906 -1128.23 0.
237.072 -1335.27 0.
257.232 -1289.47 0.
299.789 -1227.27 0.
333.135 -1154 0.
366.481 -1080.72 0.
161.83 -1099.08 0.
196.297 -1012.14 0.
230.765 -925.204 0.
-27.4123 -1029.12 0.
-35.0394 -1047.89 0.
-42.6665 -1066.66 0.
-271.781 -996.123 0.
-178.155 -780.705 0.
146.034 -482.972 0.
172.747 -426.757 0.
199.46 -370.542 0.
233.807 -347.396 0.
217.832 -390.903 0.
201.856 -434.411 0.
127.092 -294.077 0.
291.986 85.2498 0.
456.882 464.578 0.
-396.892 -144.073 0.
-586.842 -581.158 0.
-197.354 -329.377 0.
-117.27 -331.672 0.
-121.73 -343.295 0.
-143.832 -391.152 0.
-226.246 -585.419 0.
-308.659 -779.686 0.
-109.219 -781.343 0.
-100.97 -765.152 0.
-92.7205 -748.961 0.
306.138 -587.319 0.
294.43 -612.892 0.
282.722 -638.464 0.
52.0891 -727.842 0.
55.8652 -717.578 0.
272.217 -634.328 0.
128.787 -967.183 0.
-14.6422 -1300.04 0.
75.0864 -1399.02 0.
175.27 -1165.26 0.
275.453 -931.493 0.
400.847 -864.236 0.
318.595 -1052.42 0.
236.343 -1240.61 0.
-4.1444 -1321.06 0.
45.64 -1206.78 0.
758.567 -808.167 0.
704.175 -980.547 0.
622.221 -1172.18 0.
593.718 -1308.95 0.
611.985 -1265.02 0.
630.252 -1221.09 0.
1023.81 -1110.91 0.
925.328 -1341.71 0.
826.847 -1572.52 0.
1572.87 -1410.35 0.
1499.78 -1577.02 0.
1426.69 -1743.69 0.
2346.21 -1396.6 0.
2327.13 -1438.7 0.
1721.3 -1728.26 0.
1758.79 -1641 0.
1796.27 -1553.74 0.
2046.81 -1330 0.
2157.22 -1066.17 0.
2267.63 -802.341 0.
1890.88 -809.37 0.
1953.19 -662.208 0.
2015.51 -515.046 0.
3188.39 -42.3561 0.
3153.21 -122.683 0.
-3440.03 -3013.63 0.
3388.51 134.776 0.
3507.82 408.115 0.
2395.1 26.9766 0.
2208.46 -403.082 0.
2021.82 -833.14 0.
1666.94 -1228.15 0.
1594.67 -1393.9 0.
1522.39 -1559.65 0.
1757.88 -1563.99 0.
1707.13 -1678.21 0.
1656.39 -1792.43 0.
1804.92 -1516.13 0.
1930.47 -1217.32 0.
1255.67 -1313.67 0.
1185.61 -1476.25 0.
1115.54 -1638.83 0.
470.708 -1983.78 0.
497.209 -1917.81 0.
523.709 -1851.83 0.
252.897 -1887.93 0.
303.207 -1771.56 0.
353.515 -1655.18 0.
983.428 -1324.23 0.
1015.27 -1252 0.
1232.64 -1104.88 0.
177.374 -1497.27 0.
209.504 -1423.58 0.
403.527 -1247.33 0.
486.551 -1044.81 0.
569.576 -842.293 0.
177.914 -968.256 0.
132.981 -1076.95 0.
88.0469 -1185.64 0.
-40.379 -1019.16 0.
135.996 -607.116 0.
312.372 -195.072 0.
120.629 -219.471 0.
148.402 -155.958 0.
344.526 -53.2425 0.
247.284 -276.038 0.
150.042 -498.832 0.
237.649 -527.776 0.
303.821 -373.38 0.
369.993 -218.983 0.
135.324 -199.094 0.
190.895 -64.7635 0.
246.466 69.5663 0.
-459.473 -181.502 0.
-435.891 -131.317 0.
-273.106 -332.908 0.
-57.4532 -276.555 0.
-63.5854 -287.63 0.
-18.1658 -305.66 0.
-101.54 -500.193 0.
-184.915 -694.726 0.
184.225 -623.908 0.
192.236 -608.012 0.
200.248 -592.115 0.
183.8 -607.597 0.
172.58 -633.993 0.
161.359 -660.389 0.
30.0105 -707.944 0.
33.8063 -697.267 0.
376.331 -558.418 0.
233.496 -891.628 0.
90.661 -1224.84 0.
-108.798 -1447.11 0.
-8.43517 -1213.43 0.
91.9279 -979.753 0.
455.315 -812.002 0.
372.983 -999.895 0.
290.651 -1187.79 0.
293.1 -1162.24 0.
342.655 -1047.58 0.
592.768 -846.923 0.
822.467 -900.254 0.
740.507 -1092.06 0.
487.484 -1324.88 0.
505.368 -1280.25 0.
523.251 -1235.63 0.
1136.83 -1028.61 0.
1038.88 -1260.38 0.
940.921 -1492.15 0.
1596.57 -1369.11 0.
1523.58 -1536.23 0.
1450.59 -1703.36 0.
2149.54 -1447.37 0.
2131.01 -1489.46 0.
1413.45 -1829.29 0.
1450.69 -1742.03 0.
1487.93 -1654.78 0.
2078.07 -1285.52 0.
2188.8 -1022.68 0.
2299.53 -759.847 0.
1728.86 -842.542 0.
1791.04 -696.409 0.
1853.23 -550.276 0.
2621.57 -253.032 0.
2586.57 -333.739 0.
6900.19 1448.95 0.
3277.37 119.787 0.
3395.72 393.942 0.
2054.34 -87.3963 0.
1867.23 -516.926 0.
1680.13 -946.454 0.
1747.65 -1164.21 0.
1674.73 -1329.43 0.
1601.81 -1494.65 0.
1656.53 -1577.28 0.
1605.55 -1691.56 0.
1554.58 -1805.83 0.
1777.37 -1495.08 0.
1902.69 -1196.65 0.
983.497 -1399.29 0.
914.13 -1562.83 0.
844.763 -1726.38 0.
715.608 -1845.75 0.
742.924 -1780.64 0.
770.24 -1715.52 0.
420.905 -1786.34 0.
471.691 -1670.12 0.
522.476 -1553.91 0.
732.549 -1397.96 0.
764.362 -1325.56 0.
1343.84 -1027.12 0.
312.338 -1409.51 0.
344.395 -1335.78 0.
634.595 -1116.85 0.
718.208 -914.936 0.
801.821 -713.025 0.
142.797 -952.24 0.
96.528 -1060.27 0.
50.2599 -1168.3 0.
0.698713 -971.657 0.
176.734 -560.269 0.
352.769 -148.881 0.
334.146 -96.6821 0.
361.865 -32.9902 0.
132.872 -112.477 0.
36.8049 -336.161 0.
-59.2624 -559.845 0.
250.992 -490.819 0.
317.391 -336.442 0.
383.792 -182.065 0.
87.9982 -188.356 0.
143.742 -54.0735 0.
199.486 80.208 0.
-175.322 -27.5632 0.
-152.313 22.1031 0.
334.111 1285.39 0.
227.72 309.477 0.
67.0718 -72.8435 0.
363.383 388.399 0.
212.42 35.3641 0.
493.732 692.261 0.
384.495 -668.575 0.
622.091 -114.358 0.
847.567 410.898 0.
156.393 -419.762 0.
353.111 42.3523 0.
361.627 65.7964 0.
303.609 0.721151 0.
538.531 553.52 0.
1204.5 1205.39 0.
521.489 -387.721 0.
662.874 -56.77 0.
491.363 323.383 0.
639.935 669.583 0.
489.363 317.677 0.
1135.07 701.494 0.
855.236 45.1113 0.
836.093 -2.52546 0.
829.074 -454.77 0.
1363.28 790.602 0.
1500.43 598.862 0.
1199.75 -223.115 0.
1544.17 579.519 0.
1173.73 502.489 0.
1096.87 327.305 0.
679.092 -643.294 0.
1795.25 308.882 0.
1428.71 -540.086 0.
1545.92 -260.472 0.
2638.03 1069.68 0.
2397.29 504.314 0.
2257.63 174.015 0.
3193.89 1403.69 0.
2650.36 137.828 0.
1672.5 -623.405 0.
2059.92 275.428 0.
1949.4 14.3477 0.
2796.93 380.74 0.
2648.83 30.6803 0.
2836.03 465.584 0.
2217.06 649.684 0.
1928.87 -27.7947 0.
2366.29 988.79 0.
2358.15 248.574 0.
2728.72 1116.97 0.
-6478.39 -595.498 0.
3838.35 1678.57 0.
3353.84 550.481 0.
1802.26 4.35043 0.
2025.1 524.206 0.
1935.43 314.392 0.
2753.88 1071 0.
2671.94 876.845 0.
1668.94 -1464.37 0.
2647.84 979.163 0.
2428.86 461.415 0.
2264.95 71.175 0.
2759.55 891.325 0.
2721.69 796.098 0.
1683.23 781.81 0.
1078.18 -634.758 0.
1168.86 -428.304 0.
1702.12 19.5518 0.
1518.85 -409.154 0.
1441.76 -590.483 0.
1529.03 526.983 0.
1333.34 66.638 0.
1376.12 162.879 0.
984.069 -327.3 0.
897.711 -526.967 0.
1880.53 447.523 0.
995.355 -38.71 0.
1299.69 675.707 0.
1497.79 499.119 0.
1377.44 220.792 0.
951.095 -772.377 0.
470.595 -94.8633 0.
678.995 389.176 0.
656.062 333.72 0.
453.354 38.4433 0.
287.659 -347.883 0.
413.41 -54.3194 0.
598.219 148.922 0.
538.902 14.1032 0.
556.203 1294.46 0.
289.319 676.925 0.
-94.3169 -213.628 0.
950.352 1149.71 0.
1134.02 1581.52 0.
852.112 926.961 0.
68.7295 -119.106 0.
179.533 137.511 0.
701.96 1355.49 0.
542.937 1146.09 0.
717.35 1554.26 0.
-376.262 -487.551 0.
-126.305 -341.013 0.
-148.567 -396.336 0.
-49.7946 -410.753 0.
-115.259 -560.302 0.
-180.721 -709.852 0.
267.202 -508.832 0.
379.081 -248.461 0.
490.959 11.9101 0.
200.682 -174.859 0.
77.2066 -459.286 0.
-46.2691 -743.712 0.
192.009 -666.146 0.
201.504 -644.046 0.
291.732 -578.569 0.
270.34 -628.148 0.
248.948 -677.727 0.
50.5864 -883.335 0.
-95.6943 -1227.03 0.
-241.975 -1570.72 0.
110.337 -1621.2 0.
36.0904 -1798.36 0.
-38.1565 -1975.53 0.
416.763 -1658.96 0.
535.637 -1385.12 0.
923.635 -995.842 0.
833.327 -1171.8 0.
753.788 -1356.49 0.
369.98 -1667.94 0.
292.711 -1845.28 0.
215.443 -2022.61 0.
838.084 -1816.33 0.
869.056 -1740.17 0.
900.029 -1664 0.
1266.02 -1575.49 0.
1189.68 -1756.89 0.
1113.33 -1938.3 0.
2021.43 -1567.47 0.
2026.82 -1554.33 0.
1253.78 -1875.43 0.
1267.81 -1846.55 0.
1281.84 -1817.67 0.
1566.67 -1605.18 0.
1684.78 -1333.69 0.
1802.9 -1062.2 0.
1384.26 -968.069 0.
1554.44 -579.267 0.
1724.62 -190.463 0.
2488.48 130.448 0.
2438 10.5255 0.
451.228 -942.271 0.
2608.63 -285.174 0.
2467.98 -613.271 0.
1332.71 -1250.14 0.
1444.74 -991.813 0.
1556.78 -733.482 0.
1712.26 -702.577 0.
1553.13 -1072.17 0.
1394 -1441.76 0.
1447.47 -1453.34 0.
1489.03 -1360.04 0.
1530.58 -1266.74 0.
1804.74 -1161.03 0.
1797.85 -1183.06 0.
938.407 -1556.32 0.
965.985 -1499.09 0.
993.563 -1441.87 0.
1027.32 -1408.14 0.
1015.89 -1437.69 0.
1004.45 -1467.23 0.
595.953 -1547.9 0.
696.996 -1317.12 0.
798.04 -1086.34 0.
788.587 -1062.18 0.
784.068 -1068.75 0.
879.278 -1027.02 0.
405.356 -1319.24 0.
355.483 -1430.09 0.
516.279 -1396.14 0.
589.603 -1223.97 0.
662.928 -1051.81 0.
30.5248 -1207.74 0.
78.2976 -1094.77 0.
126.071 -981.795 0.
112.199 -1024.79 0.
65.3119 -1132.44 0.
18.4247 -1240.08 0.
113.687 -984.814 0.
230.211 -709.996 0.
-97.9607 -669.101 0.
-94.2213 -656.208 0.
-90.4802 -643.314 0.
-219.018 -684.71 0.
-222.243 -688.348 0.
-225.466 -691.986 0.
-78.9518 -614.627 0.
-63.3373 -578.528 0.
-47.7224 -542.429 0.
-58.6149 -418.124 0.
19.2462 -234.837 0.
-298.645 -422.035 0.
-200.554 -338.994 0.
-224.255 -394.129 0.
-121.689 -413.732 0.
-188.614 -562.587 0.
-255.538 -711.441 0.
55.4735 -568.593 0.
167.569 -308.433 0.
279.663 -48.2738 0.
140.61 -171.101 0.
17.1609 -455.805 0.
-106.288 -740.508 0.
422.176 -536.355 0.
432.026 -514.973 0.
128.804 -616.419 0.
106.771 -665.934 0.
84.7376 -715.45 0.
160.976 -802.858 0.
14.9918 -1146.24 0.
-130.993 -1489.62 0.
89.874 -1603.15 0.
14.6842 -1779.71 0.
-60.506 -1956.27 0.
563.748 -1561.92 0.
682.903 -1288.73 0.
372.799 -1199.68 0.
898.342 -1113.18 0.
818.673 -1297.62 0.
542.701 -1566.09 0.
465.346 -1743.33 0.
387.991 -1920.57 0.
801.427 -1797.86 0.
833.314 -1722.35 0.
865.201 -1646.83 0.
991.818 -1659.19 0.
914.95 -1839.93 0.
838.081 -2020.66 0.
2162.22 -1476.66 0.
2167.66 -1463.26 0.
1414.68 -1776.25 0.
1428.43 -1746.83 0.
1442.18 -1717.42 0.
1117.77 -1765.39 0.
1235.68 -1494.25 0.
1353.6 -1223.1 0.
1234.86 -1000.44 0.
1404.39 -611.169 0.
1573.93 -221.898 0.
2731.37 264.859 0.
2680.45 145.192 0.
632.779 -833.932 0.
2146.15 -451.928 0.
2004.77 -778.998 0.
1433.39 -1177.83 0.
1545.37 -919.612 0.
1657.35 -661.397 0.
1385.78 -808.332 0.
1226.92 -1178.68 0.
1068.06 -1549.02 0.
1268.1 -1500.66 0.
1309.38 -1406.83 0.
1350.66 -1312.99 0.
1726.62 -1162.91 0.
1719.1 -1184.82 0.
1275.46 -1379.5 0.
1303.6 -1322.97 0.
1331.74 -1266.45 0.
962.45 -1404.66 0.
951.637 -1434.42 0.
940.823 -1464.17 0.
558.869 -1533.27 0.
660.855 -1303.11 0.
762.843 -1072.95 0.
950.942 -959.327 0.
946.643 -965.207 0.
499.637 -1158.49 0.
370.135 -1303.64 0.
320.738 -1414.85 0.
326.294 -1445.49 0.
399.54 -1273.36 0.
472.787 -1101.23 0.
89.9481 -1151.53 0.
137.179 -1038.32 0.
184.409 -925.112 0.
268.596 -925.14 0.
221.772 -1033.02 0.
174.948 -1140.89 0.
130.844 -947.163 0.
247.95 -672.805 0.
147.876 -533.466 0.
151.784 -520.636 0.
155.693 -507.806 0.
-669.955 -844.366 0.
-673.342 -847.84 0.
-676.729 -851.315 0.
14.4181 -545.934 0.
29.8484 -509.81 0.
45.2792 -473.685 0.
42.1875 -344.058 0.
119.809 -160.863 0.
-83.0126 -86.7513 0.
-179.367 -268.919 0.
-187.584 -287.297 0.
-138.481 -255.783 0.
-78.1418 -117.876 0.
-17.8015 20.0312 0.
239.122 85.9354 0.
88.6429 -260.014 0.
-61.8371 -605.962 0.
-106.713 -661.411 0.
-42.4989 -513.369 0.
21.7148 -365.326 0.
649.219 -284.622 0.
517.977 -584.246 0.
-97.3859 -1071.46 0.
-97.2324 -1072.34 0.
-97.0789 -1073.22 0.
140.395 -1001.16 0.
94.9473 -1105.3 0.
49.4994 -1209.44 0.
313.617 -1087.17 0.
370.284 -960.026 0.
426.952 -832.885 0.
900.344 -723.978 0.
807.177 -939.653 0.
816.821 -1110.81 0.
972.529 -1076.22 0.
962.625 -1103.57 0.
818.533 -1160.2 0.
869.476 -1044 0.
920.42 -927.805 0.
1096.91 -872.797 0.
1005.04 -1089.69 0.
913.171 -1306.59 0.
1072.03 -1205.62 0.
1156.41 -1014.17 0.
1240.8 -822.73 0.
2556.92 -473.737 0.
2413.66 -809.723 0.
1477.39 -1449.08 0.
1534.6 -1315.34 0.
1591.8 -1181.6 0.
1096.79 -1315.81 0.
1100.01 -1305.95 0.
1103.23 -1296.1 0.
1115.91 -1231.07 0.
1173.25 -1100.04 0.
1230.6 -969.002 0.
2386.8 -480.652 0.
2370.82 -521.607 0.
376.64 -1413.31 0.
1803.63 -689.228 0.
1865.36 -550.033 0.
1633.14 -580.625 0.
1587.99 -685.574 0.
1542.84 -790.523 0.
1217.62 -951.86 0.
1248.89 -879.698 0.
1280.16 -807.537 0.
1455.68 -810.882 0.
1380.04 -982.69 0.
1304.42 -1154.5 0.
1827.37 -882.151 0.
1861.27 -793.233 0.
1531.94 -871.839 0.
1527.92 -872.217 0.
1523.91 -872.596 0.
955.081 -1149.72 0.
909.672 -1250.87 0.
864.264 -1352.02 0.
618.608 -1371.65 0.
718.445 -1134.51 0.
818.281 -897.384 0.
1192.84 -711.264 0.
1182.45 -737.097 0.
805.197 -923.849 0.
462.092 -1047.35 0.
476.528 -1017.15 0.
317.672 -1096.33 0.
248.023 -1258.78 0.
178.374 -1421.23 0.
29.4432 -1391.07 0.
208.383 -974.806 0.
387.323 -558.538 0.
420.862 -634.767 0.
279.923 -964.398 0.
138.984 -1294.03 0.
157.023 -1109.07 0.
270.051 -844.304 0.
120.633 -668.137 0.
259.958 -344.314 0.
399.283 -20.4911 0.
-431.513 -222.432 0.
-427.132 -215.55 0.
-422.751 -208.666 0.
119.086 -89.2717 0.
19.5582 -321.962 0.
-79.9702 -554.653 0.
-6.67822 -430.171 0.
78.7682 -240.558 0.
23.7004 -12.7264 0.
-105.204 -206.437 0.
-113.231 -225.654 0.
-219.552 -258.84 0.
-159.893 -120.498 0.
-100.234 17.8442 0.
224.083 111.144 0.
74.4711 -235.755 0.
-75.1416 -582.654 0.
-110.79 -633.439 0.
-46.9912 -485.283 0.
16.8075 -337.126 0.
737.028 -213.17 0.
606.503 -513.94 0.
30.0662 -986 0.
29.6161 -986.914 0.
29.166 -987.829 0.
213.014 -938.369 0.
168.395 -1043.33 0.
123.776 -1148.3 0.
375.131 -1027.52 0.
431.719 -900.363 0.
488.307 -773.207 0.
743.229 -761.141 0.
650.427 -977.348 0.
581.809 -1183.15 0.
1093.25 -992.488 0.
1082.85 -1018.78 0.
936.729 -1080.06 0.
986.922 -962.776 0.
1037.12 -845.493 0.
923.46 -918.25 0.
830.609 -1134.16 0.
737.759 -1350.06 0.
1097.56 -1162.18 0.
1182.19 -970.778 0.
1266.82 -779.372 0.
2368.77 -525.051 0.
2225.66 -860.431 0.
1157.59 -1553.24 0.
1213.81 -1418.65 0.
1270.03 -1284.06 0.
1054.42 -1306.64 0.
1057.25 -1295.9 0.
1060.07 -1285.16 0.
1254.27 -1137.33 0.
1312.15 -1006.89 0.
1370.03 -876.462 0.
2104.73 -571.163 0.
2088.67 -612.371 0.
1142.87 -1053.37 0.
1722.42 -691.617 0.
1783.77 -552.19 0.
1432.3 -634.683 0.
1387.35 -739.848 0.
1342.39 -845.014 0.
1296.86 -888.107 0.
1328.69 -816.397 0.
1360.52 -744.686 0.
1392.37 -807.965 0.
1318.07 -981.093 0.
1243.78 -1154.22 0.
1879.8 -827.371 0.
1914.02 -739.157 0.
1290.92 -942.335 0.
1288.01 -943.723 0.
1285.11 -945.112 0.
748.701 -1207.34 0.
703.399 -1308.79 0.
658.098 -1410.25 0.
636.07 -1332.05 0.
735.759 -1094.45 0.
835.447 -856.848 0.
1406.37 -592.025 0.
1394.89 -617.124 0.
1179.15 -730.81 0.
492.586 -1001.48 0.
506.794 -971.289 0.
161.132 -1132.87 0.
91.843 -1295.28 0.
22.5539 -1457.7 0.
114.154 -1324.39 0.
294.422 -908.786 0.
474.691 -493.186 0.
371.334 -622.992 0.
231.503 -953.211 0.
91.671 -1283.43 0.
400.031 -972.799 0.
512.637 -707.974 0.
3.10709 -688.895 0.
142.475 -364.524 0.
281.843 -40.1526 0.
-38.2483 -22.4492 0.
-34.0647 -15.2472 0.
-29.8811 -8.04492 0.
-141.15 -168.505 0.
-240.83 -401.55 0.
-340.51 -634.595 0.
-111.111 -445.45 0.
-26.2675 -256.593 0.
290.321 460.029 0.
461.88 1017.37 0.
310.664 661.103 0.
463.214 1520.32 0.
-117.632 159.053 0.
-75.8153 251.315 0.
19.0363 -317.12 0.
230.788 180.157 0.
424.557 635.415 0.
669.426 1211.56 0.
394.087 571.27 0.
419.22 632.352 0.
1278.72 928.97 0.
1192.78 732.941 0.
840.421 696.94 0.
469.883 -166.838 0.
741.523 468.354 0.
962.56 694.651 0.
1002.85 794.379 0.
1095.71 1016.43 0.
899.318 104.085 0.
1044.45 451.568 0.
1375.85 1233.62 0.
1252.53 728.746 0.
1206.95 625.718 0.
1248.73 -60.9084 0.
1612.43 7.65473 0.
2339.56 1706.99 0.
1686.64 470.688 0.
1951.55 1088.3 0.
1703.85 510.585 0.
951.26 -486.396 0.
1625.63 1080.8 0.
1431.38 621.333 0.
1525.24 -185.036 0.
1402.97 -468.529 0.
1467.1 -317.968 0.
2508.74 194.588 0.
2264.3 -377.46 0.
1339.98 -471.702 0.
1919.2 883.364 0.
1778.53 558.442 0.
1383.09 -422.741 0.
1521.57 -102.392 0.
2070.24 1175.62 0.
2267.78 988.521 0.
1590.62 -592.187 0.
1763.88 -188.883 0.
2270.34 377.063 0.
2329.92 518.166 0.
-715.016 -952.617 0.
2139.35 460.262 0.
1729.08 -496.428 0.
1594.52 164.719 0.
2026.93 1172.45 0.
1601.84 179.582 0.
1263.6 -1089.39 0.
1330.72 -936.019 0.
1305.11 -998.575 0.
1456.77 -518.374 0.
1370.26 -719.303 0.
2027.62 815.013 0.
2528.8 611.046 0.
2432.89 380.61 0.
1316.22 -395.076 0.
1520.03 83.9319 0.
1738.49 598.387 0.
923.305 -387.627 0.
1403.28 737.677 0.
1189.59 244.539 0.
1014.63 -452.856 0.
1111.44 -221.663 0.
1473.02 627.846 0.
1874.83 124.38 0.
1710.41 -259.446 0.
1775.59 1475.62 0.
1414.57 1122.27 0.
1344.02 955.309 0.
861.192 824.77 0.
419.036 -208.297 0.
739.282 537.063 0.
745.77 10.8886 0.
936.34 459.631 0.
1344.56 1416.05 0.
921.316 775.092 0.
865.831 646.396 0.
408.414 -418.58 0.
1348.36 810.74 0.
853.875 -342.206 0.
12.5662 -417.046 0.
546.707 828.353 0.
429.928 554.772 0.
7.83948 -625.8 0.
421.889 337.16 0.
403.263 290.486 0.
-512.646 -532.656 0.
-590.127 -713.498 0.
-45.9159 555.138 0.
136.047 372.792 0.
-60.7075 -83.0527 0.
-254.359 -633.774 0.
-208.156 -388.4 0.
-140.981 -234.436 0.
-172.546 -190.853 0.
-296.769 -486.308 0.
-420.991 -781.764 0.
-132.211 -748.415 0.
-56.6777 -569.753 0.
18.8555 -391.091 0.
152.237 -458.807 0.
-3.35729 -822.903 0.
-158.952 -1187 0.
200.668 -987.564 0.
256.37 -854.196 0.
173.208 -800.751 0.
127.228 -910.28 0.
81.2486 -1019.81 0.
295.119 -961.821 0.
339.625 -853.945 0.
384.131 -746.069 0.
663.636 -659.303 0.
582.402 -843.99 0.
501.167 -1028.68 0.
305.285 -1136.96 0.
310.537 -1120.1 0.
137.822 -1179.71 0.
1344.42 -724.05 0.
1317.72 -789.01 0.
975.608 -1000.29 0.
907.222 -1162.65 0.
838.836 -1325 0.
632.755 -1481.75 0.
638.359 -1473.54 0.
643.963 -1465.34 0.
965.94 -1316.29 0.
980.126 -1284.68 0.
994.312 -1253.08 0.
1853.53 -753.223 0.
1932.32 -574.765 0.
1253.84 -752.816 0.
1197.29 -888.574 0.
1140.73 -1024.33 0.
1281.1 -990.58 0.
1354.01 -823.479 0.
1426.92 -656.377 0.
1296.6 -623.842 0.
1326.68 -555.659 0.
1356.76 -487.475 0.
1844.5 -206.943 0.
1886.35 -112.129 0.
2522.14 235.281 0.
1874.77 -134.682 0.
1825.9 -248.181 0.
1085.72 -682.783 0.
981.471 -928.643 0.
877.225 -1174.5 0.
1102.07 -1157.59 0.
1139.13 -1073.27 0.
1176.19 -988.957 0.
1205.23 -989.83 0.
1178.35 -1052 0.
1151.47 -1114.17 0.
1709.17 -977.144 0.
1656.31 -1106.92 0.
812.059 -1527.28 0.
928.973 -1247.24 0.
1045.88 -967.189 0.
823.408 -965.854 0.
742.761 -1149.03 0.
662.114 -1332.21 0.
762.835 -1323.17 0.
787.306 -1266.22 0.
811.778 -1209.27 0.
1107.27 -1084.48 0.
1101.18 -1099.69 0.
1338.66 -1000.12 0.
348.482 -1096.86 0.
520.954 -695.668 0.
442.336 -532.662 0.
348.017 -758.234 0.
253.7 -983.807 0.
153.361 -1134.09 0.
141.863 -1160.35 0.
130.366 -1186.61 0.
176.386 -1005.47 0.
309.333 -694.236 0.
442.279 -383.004 0.
738.155 -280.497 0.
712.269 -341.977 0.
-118.599 -717.779 0.
-36.0467 -524.512 0.
46.5057 -331.244 0.
202.231 -194.162 0.
165.913 -281.83 0.
129.595 -369.498 0.
-130.043 -473.531 0.
-94.3406 -391.424 0.
-58.6386 -309.318 0.
-286.662 -348.572 0.
-262.082 -287.81 0.
-333.465 -641.605 0.
-275.063 -388.088 0.
-208.06 -233.602 0.
-34.931 -99.3562 0.
-159.248 -395.306 0.
-283.564 -691.258 0.
-76.3373 -694.013 0.
-0.569447 -515.377 0.
75.198 -336.742 0.
414.978 -314.547 0.
259.718 -679.289 0.
104.458 -1044.03 0.
-101.07 -1085.92 0.
-45.1395 -952.787 0.
165.008 -771.421 0.
117.99 -879.838 0.
70.9716 -988.255 0.
364.724 -902.285 0.
409.276 -794.362 0.
453.827 -686.439 0.
790.151 -576.797 0.
709.003 -761.811 0.
627.854 -946.825 0.
143.261 -1173.99 0.
148.523 -1157.25 0.
944.423 -801.98 0.
1415.85 -663.954 0.
1390.41 -729.614 0.
896.859 -1002.54 0.
828.984 -1165.35 0.
761.11 -1328.16 0.
779.076 -1388.15 0.
784.775 -1380.1 0.
790.473 -1372.05 0.
890.984 -1316.4 0.
906.424 -1285.68 0.
921.864 -1254.97 0.
1565.76 -843.806 0.
1644.82 -665.11 0.
1320.6 -689.72 0.
1263.91 -825.699 0.
1207.22 -961.678 0.
1471.98 -878.625 0.
1545.11 -711.593 0.
1618.25 -544.56 0.
966.658 -734.251 0.
997.648 -666.603 0.
1028.64 -598.955 0.
1657.07 -255.244 0.
1699.78 -160.987 0.
-949.039 -1220.32 0.
1876.15 -103.137 0.
1827.43 -216.966 0.
923.746 -720.125 0.
819.651 -966.7 0.
715.556 -1213.28 0.
958.864 -1186.57 0.
995.359 -1102.24 0.
1031.85 -1017.91 0.
1160.12 -979.316 0.
1133.15 -1041.79 0.
1106.19 -1104.26 0.
1558.03 -1009.99 0.
1505.46 -1139.75 0.
804.423 -1499.97 0.
921.619 -1219.72 0.
1038.81 -939.462 0.
1019.85 -850.534 0.
939.419 -1033.93 0.
858.991 -1217.32 0.
930.9 -1218.07 0.
956.394 -1161.82 0.
981.887 -1105.56 0.
820.333 -1178.43 0.
814.391 -1193.86 0.
875.551 -1166.31 0.
223.316 -1118.4 0.
395.662 -717.345 0.
655.367 -410.667 0.
561.196 -636.812 0.
467.025 -862.958 0.
43.7222 -1147.71 0.
33.6556 -1174.82 0.
23.5892 -1201.94 0.
213.097 -959.21 0.
347.188 -648.901 0.
481.279 -338.592 0.
579.863 -316.271 0.
553.906 -377.644 0.
-108.966 -682.04 0.
-26.5938 -488.174 0.
55.7787 -294.308 0.
230.594 -151.136 0.
194.172 -238.744 0.
157.751 -326.352 0.
322.267 -249.141 0.
357.996 -167.445 0.
393.724 -85.7491 0.
-407.807 -368.004 0.
-383.604 -308.277 0.
-89.1184 -178.82 0.
-293.578 -377.805 0.
-283.718 -352.927 0.
-60.7479 -235.591 0.
-42.7876 -190.012 0.
-24.8278 -144.433 0.
199.869 -93.3083 0.
103.917 -316.138 0.
7.96646 -538.967 0.
371.053 -433.995 0.
385.353 -402.495 0.
399.652 -370.995 0.
79.1167 -518.007 0.
71.3888 -540.225 0.
303.893 -464.498 0.
295.507 -484.244 0.
287.12 -503.99 0.
598.146 -429.022 0.
501.433 -656.921 0.
404.719 -884.822 0.
650.371 -814.296 0.
706.142 -688.578 0.
761.913 -562.859 0.
260.073 -809.363 0.
225.826 -885.631 0.
1180.62 -537.79 0.
1425.95 -509.391 0.
1375.71 -621.354 0.
911.447 -890.712 0.
922.414 -861.395 0.
933.381 -832.077 0.
1086.78 -801.967 0.
1035.68 -917.664 0.
984.574 -1033.36 0.
874.883 -1074.75 0.
907.215 -998.847 0.
939.547 -922.94 0.
1481.59 -756.261 0.
1435.82 -856.598 0.
1160.58 -1022.64 0.
1245.95 -825.965 0.
1331.32 -629.289 0.
1682.67 -317.466 0.
1773.54 -105.358 0.
1864.42 106.749 0.
992.87 -323.149 0.
870.607 -603.626 0.
748.344 -884.102 0.
1598.59 -506.643 0.
1642.72 -398.989 0.
1908.6 -198.759 0.
1768.73 -207.629 0.
1794.55 -146.049 0.
971.221 -468.63 0.
934.556 -554.297 0.
897.892 -639.963 0.
995.533 -736.629 0.
887.547 -992.932 0.
779.562 -1249.24 0.
959.968 -1190.24 0.
1000.68 -1090.74 0.
1041.38 -991.252 0.
1641.17 -650.33 0.
1686.12 -545.368 0.
1098.55 -746.617 0.
1025.95 -921.807 0.
953.338 -1097 0.
891.01 -1131.25 0.
998.072 -881.971 0.
1105.13 -632.694 0.
1219.89 -626.34 0.
1102.41 -894.897 0.
984.933 -1163.45 0.
770.885 -1073.85 0.
915.462 -743.61 0.
1434.29 -263.125 0.
401.694 -788.968 0.
357.206 -891.694 0.
464.322 -894.739 0.
479.6 -852.523 0.
494.879 -810.308 0.
86.7235 -963.328 0.
96.8699 -937.52 0.
107.017 -911.713 0.
359.025 -699.148 0.
428.897 -534.617 0.
498.768 -370.086 0.
391.211 -317.537 0.
447.086 -187.15 0.
126.204 -259.17 0.
63.0821 -409.647 0.
-0.0395382 -560.124 0.
128.861 -531.297 0.
187.863 -395.341 0.
246.864 -259.385 0.
401.271 -88.9922 0.
455.911 39.0699 0.
510.552 167.132 0.
-328.343 -45.4952 0.
-236.176 162.765 0.
92.7812 -68.4442 0.
-275.227 -343.01 0.
-266.006 -316.574 0.
-96.5637 -217.107 0.
-78.1396 -171.721 0.
-59.7158 -126.335 0.
224.558 -52.8759 0.
128.317 -275.772 0.
32.0774 -498.668 0.
160.611 -491.651 0.
175.058 -460.545 0.
189.505 -429.438 0.
263.008 -410.365 0.
254.903 -432.455 0.
366.913 -402.17 0.
358.717 -421.607 0.
350.52 -441.043 0.
637.779 -384.629 0.
540.234 -611.061 0.
442.69 -837.493 0.
463.417 -865.171 0.
519.663 -739.215 0.
575.91 -613.259 0.
363.989 -732.261 0.
330.138 -809.182 0.
433.534 -827.544 0.
1243.6 -556.511 0.
1194.16 -669.375 0.
930.352 -849.763 0.
941.938 -821.503 0.
953.524 -793.243 0.
1099.18 -763.293 0.
1048.68 -879.894 0.
998.183 -996.495 0.
685.688 -1125.39 0.
718.13 -1050.06 0.
750.572 -974.72 0.
1491.05 -720.327 0.
1446.83 -821.537 0.
1088.38 -1019.65 0.
1173.87 -823.507 0.
1259.35 -627.362 0.
1444.36 -390.247 0.
1536.27 -179.321 0.
1628.18 31.6051 0.
972.873 -298.243 0.
851.913 -579.968 0.
730.953 -861.693 0.
1909.13 -340.712 0.
1955.04 -234.8 0.
-52.8652 -1008.16 0.
1664.64 -219.513 0.
1689.59 -157.274 0.
1003.06 -425.718 0.
965.249 -510.564 0.
927.443 -595.408 0.
789.606 -794.699 0.
681.562 -1051.55 0.
573.517 -1308.4 0.
765.731 -1240.05 0.
807.415 -1141.44 0.
849.1 -1042.84 0.
1652.61 -613.217 0.
1698.15 -508.845 0.
1081.09 -723.832 0.
1007.19 -898.387 0.
933.283 -1072.94 0.
716.617 -1177.04 0.
822.774 -927.006 0.
928.929 -676.973 0.
1153.79 -621.723 0.
1035.37 -889.532 0.
916.952 -1157.34 0.
866.867 -1003.73 0.
1010.07 -672.583 0.
1277.8 -296.303 0.
637.461 -654.88 0.
593.39 -757.814 0.
328.027 -922.937 0.
344.058 -881.351 0.
360.091 -839.765 0.
110.746 -921.202 0.
121.503 -895.993 0.
132.261 -870.785 0.
429.833 -636.689 0.
500.178 -472.685 0.
570.522 -308.679 0.
133.771 -397.546 0.
190.085 -267.139 0.
293.873 -153.751 0.
230.659 -303.592 0.
167.445 -453.434 0.
277.03 -436.87 0.
336.239 -301.258 0.
395.448 -165.644 0.
39.4617 -211.26 0.
94.3434 -84.1063 0.
149.226 43.0477 0.
-346.639 -22.641 0.
-255.261 184.863 0.
182.292 -112.342 0.
424.454 1314.27 0.
168.904 713.023 0.
83.6194 297.976 0.
-379.036 -782.604 0.
305.154 812.557 0.
721.268 1095.66 0.
102.711 -350.098 0.
221.656 -74.0396 0.
154.311 -83.9674 0.
-111.403 -702.308 0.
506.806 742.269 0.
817.698 569.206 0.
397.319 -411.485 0.
833.898 601.972 0.
892.706 738.038 0.
30.3644 -1275.67 0.
285.466 -1250.21 0.
573.576 -574.296 0.
798.866 -45.2647 0.
621.545 -116.621 0.
891.077 509.478 0.
1159.58 1133.55 0.
1085.92 779.809 0.
878.553 292.417 0.
162.339 -885.296 0.
1194.7 -303.921 0.
1566.63 567.26 0.
1332.5 98.9813 0.
1412.79 288.283 0.
1475.09 436.007 0.
1985.74 1304.25 0.
1053.66 -871.182 0.
1564.4 319.492 0.
1303.97 707.137 0.
1137.52 320.676 0.
900.914 -229.542 0.
1893.62 238.822 0.
2005.23 501.705 0.
1423.91 -77.0255 0.
1622.24 387.688 0.
1568.27 263.847 0.
1569.75 364.169 0.
1663.62 581.367 0.
1632.33 507.353 0.
802.675 -623.557 0.
882.716 -440.061 0.
870.788 -470.811 0.
2170.07 -281.284 0.
2424.02 310.309 0.
-33.3354 -954.002 0.
1401.14 -617.175 0.
1397.39 -617.005 0.
1106.48 -219.833 0.
1168.66 -68.237 0.
1522.2 764.134 0.
861.8 -218.435 0.
1082.54 297.245 0.
1189.62 548.269 0.
1007.37 -268.321 0.
1056.29 -151.331 0.
1197.99 181.392 0.
2042.92 295.204 0.
2356 1033.01 0.
1599.22 534.529 0.
1128.37 -556.66 0.
1339.91 -56.0246 0.
611.778 -1063.59 0.
1099.32 73.8411 0.
1086.27 43.9364 0.
1243.32 -228.225 0.
1797.08 1069.54 0.
1500.4 381.229 0.
1886.14 1215.95 0.
1319.62 -102.562 0.
1060.42 357.982 0.
1524.66 1000.09 0.
986.169 -252.162 0.
920.52 750.333 0.
265.295 -779.929 0.
582.004 -42.1643 0.
591.525 184.978 0.
567.282 123.583 0.
404.433 -260.891 0.
836.299 211.251 0.
816.371 165.911 0.
867.945 287.642 0.
519.298 1005.28 0.
332.971 570.755 0.
378.541 -232.204 0.
816.696 795.215 0.
535.304 142.872 0.
665.499 241.8 0.
741.585 424.262 0.
801.93 569.414 0.
-100.763 152.636 0.
-340.056 -405.412 0.
-238.405 -165.61 0.
-646.929 -669.432 0.
-552.54 -450.39 0.
-83.0114 -176.14 0.
-263.967 -235.479 0.
-325.234 -382.02 0.
-121.281 -405.464 0.
-132.733 -431.457 0.
-144.184 -457.45 0.
62.1473 -397.527 0.
38.7579 -455.677 0.
15.3674 -513.825 0.
9.10349 -577.326 0.
-13.5239 -629.307 0.
-36.1521 -681.287 0.
242.472 -633.772 0.
193.617 -744.099 0.
230.277 -819.155 0.
187.112 -920.389 0.
143.947 -1021.62 0.
372.47 -987.762 0.
361.554 -1016.04 0.
350.638 -1044.31 0.
146.181 -1094.14 0.
189.124 -990.484 0.
232.068 -886.829 0.
529.468 -815.595 0.
478.789 -936.492 0.
838.436 -880.478 0.
907.266 -743.69 0.
962.512 -611.847 0.
866.332 -607.533 0.
770.918 -830.748 0.
675.505 -1053.96 0.
1056.91 -966.334 0.
1095.39 -878.047 0.
1133.87 -789.759 0.
601.538 -1017.51 0.
573.217 -1078.75 0.
544.896 -1140 0.
1326.23 -653.955 0.
1417.49 -433.297 0.
1120.8 -404.039 0.
1108.59 -432.086 0.
1096.37 -460.133 0.
1018.17 -597.111 0.
876.478 -928.954 0.
734.786 -1260.8 0.
788.412 -1125.67 0.
1019.48 -591.61 0.
1250.55 -57.5468 0.
2182.67 339.279 0.
2110.75 178.68 0.
-1117.5 -1333.5 0.
1707.33 -206.22 0.
1662.08 -309.081 0.
830.06 -693.417 0.
919.786 -481.334 0.
1009.51 -269.252 0.
774.92 -341.897 0.
695.355 -522.869 0.
615.79 -703.84 0.
916.73 -746.96 0.
817.428 -976.425 0.
718.126 -1205.89 0.
1486.27 -851.87 0.
1515.27 -788.651 0.
760.089 -1065.92 0.
758.21 -1069 0.
756.333 -1072.09 0.
594.697 -1110.32 0.
649.642 -981.126 0.
704.588 -851.927 0.
876.493 -763.409 0.
844.015 -837.691 0.
811.535 -911.973 0.
884.726 -857.343 0.
909.056 -800.374 0.
1318.54 -588.454 0.
552.747 -1028.35 0.
492.152 -1165.96 0.
172.088 -1312.73 0.
324.768 -953.057 0.
477.449 -593.39 0.
309.934 -548.237 0.
268.636 -645.269 0.
227.339 -742.302 0.
468.891 -546.662 0.
557.583 -343.169 0.
646.274 -139.675 0.
-65.9949 -438.93 0.
-67.2623 -443.889 0.
209.897 -330.863 0.
197.186 -358.809 0.
184.474 -386.755 0.
261.359 -332.134 0.
312.346 -211.993 0.
363.33 -91.8528 0.
-91.9263 -201.907 0.
-48.5338 -99.1914 0.
-5.14108 3.52265 0.
-77.1726 -211.669 0.
-210.565 -522.842 0.
-358.759 -266.382 0.
-278.452 -210.776 0.
-339.947 -356.877 0.
15.5926 -315.009 0.
3.72132 -340.241 0.
-8.1492 -365.474 0.
54.9377 -368.945 0.
31.9736 -427.745 0.
9.00837 -486.544 0.
106.521 -505.329 0.
84.1007 -557.51 0.
61.6793 -609.691 0.
181.909 -627.966 0.
133.187 -738.415 0.
247.885 -783.261 0.
204.271 -883.827 0.
160.656 -984.394 0.
362.411 -959.522 0.
351.993 -988.49 0.
341.575 -1017.46 0.
94.6812 -1083.79 0.
137.824 -980.416 0.
180.967 -877.04 0.
702.227 -709.08 0.
650.909 -829.627 0.
1275.15 -659.563 0.
801.171 -757.401 0.
856.78 -625.703 0.
683.466 -655.4 0.
587.491 -877.638 0.
491.516 -1099.88 0.
1128.37 -903.885 0.
1167.01 -815.459 0.
1205.65 -727.033 0.
664.354 -959.336 0.
636.91 -1021.18 0.
609.467 -1083.02 0.
1113.59 -713.021 0.
1204.39 -491.657 0.
938.423 -450.528 0.
926.429 -478.864 0.
914.434 -507.2 0.
865.475 -634.441 0.
723.949 -966.476 0.
582.423 -1298.51 0.
1046.41 -981.735 0.
1278.01 -448.224 0.
1509.61 85.2902 0.
1886.72 244.72 0.
1815.07 83.9151 0.
-543.647 -1055.75 0.
1884.34 -98.0151 0.
1838.16 -200.271 0.
760.919 -693.073 0.
850.342 -481.191 0.
939.763 -269.31 0.
749.403 -320.712 0.
669.43 -502.029 0.
589.457 -683.345 0.
1073.63 -649.579 0.
974.028 -878.299 0.
874.424 -1107.02 0.
1425.13 -846.395 0.
1454.51 -783.54 0.
594.236 -1102.32 0.
593.45 -1106.66 0.
592.664 -1110.99 0.
612.487 -1070.66 0.
667.85 -941.89 0.
723.214 -813.115 0.
727.867 -796.448 0.
694.626 -870.197 0.
661.383 -943.947 0.
770.779 -872.461 0.
795.794 -815.968 0.
1793.7 -353.913 0.
445.25 -1044.2 0.
385.337 -1182.42 0.
350.771 -1203.77 0.
503.438 -843.606 0.
656.104 -483.438 0.
365.644 -495.611 0.
324.177 -592.545 0.
282.711 -689.478 0.
437.565 -526.618 0.
526.846 -323.846 0.
616.128 -121.074 0.
-4.49793 -378.678 0.
-5.43793 -383.262 0.
68.1038 -361.108 0.
55.7039 -389.251 0.
43.3035 -417.396 0.
89.2097 -372.396 0.
139.664 -252.216 0.
190.116 -132.037 0.
120.757 -80.8105 0.
164.134 21.2788 0.
207.51 123.367 0.
395.356 21.6764 0.
261.477 -289.509 0.
-19.6411 475.883 0.
-172.868 -56.8968 0.
-361.513 -492.921 0.
-146.254 -645.436 0.
-55.9127 -438.323 0.
34.4288 -231.209 0.
119.358 -156.468 0.
57.6271 -301.037 0.
-4.10496 -445.605 0.
175.811 -406.748 0.
173.79 -412.062 0.
171.769 -417.376 0.
237.457 -489.39 0.
183.459 -616.781 0.
289.906 -650.675 0.
340.688 -529.157 0.
391.47 -407.639 0.
585.964 -249.857 0.
583.185 -248.662 0.
580.407 -247.468 0.
383.556 -442.394 0.
270.306 -704.528 0.
157.056 -966.662 0.
660.231 -708.092 0.
727.947 -549.074 0.
1344.85 -154.611 0.
955.892 -495.34 0.
859.123 -720.584 0.
541.599 -988.433 0.
611.443 -828.848 0.
681.288 -669.262 0.
1215.06 -371.968 0.
1199.48 -407.54 0.
1183.9 -443.112 0.
767.039 -641.613 0.
765.282 -645.649 0.
763.524 -649.684 0.
1096.51 -501.197 0.
1098.45 -500.079 0.
750.944 -647.885 0.
758.366 -629.644 0.
765.787 -611.403 0.
818.124 -589.874 0.
801.691 -628.344 0.
785.258 -666.815 0.
1301.69 -421.588 0.
1340.45 -329.439 0.
1379.22 -237.292 0.
1652.48 -92.4174 0.
1663.44 -71.2641 0.
-1440.89 -1385.57 0.
1835.36 -118.726 0.
1767.11 -285.311 0.
669.615 -834.65 0.
742.031 -676.787 0.
814.448 -518.923 0.
714.331 -490.419 0.
714.456 -494.768 0.
714.581 -499.116 0.
1235.77 -336.057 0.
1186.97 -453.215 0.
1138.17 -570.372 0.
1473.64 -505.018 0.
1428.56 -602.068 0.
541.481 -1035.17 0.
615.537 -860.285 0.
689.593 -685.405 0.
760.399 -618.214 0.
678.6 -812.773 0.
596.8 -1007.33 0.
546.062 -957.01 0.
670.37 -667.845 0.
794.679 -378.679 0.
1056.69 -207.623 0.
1067.77 -183.057 0.
681.364 -320.522 0.
657.66 -443.348 0.
599.037 -581.519 0.
569.669 -676.541 0.
587.554 -635.382 0.
605.439 -594.223 0.
200.364 -786.935 0.
147.823 -906.915 0.
95.2819 -1026.9 0.
234.575 -815.561 0.
372.267 -486.249 0.
509.959 -156.938 0.
127.35 -245.04 0.
158.568 -175.256 0.
159.679 -112.426 0.
208.321 -1.12879 0.
256.962 110.169 0.
181.624 70.1069 0.
86.8652 -147.233 0.
-7.89427 -364.571 0.
73.767 -392.413 0.
79.2686 -382.069 0.
84.7708 -371.726 0.
370.136 -256.519 0.
367.302 -260.098 0.
351.2 662.571 0.
-65.1951 19.649 0.
-253.324 -416.688 0.
-284.605 -672.777 0.
-193.888 -465.967 0.
-103.17 -259.155 0.
96.3384 -131.27 0.
35.7513 -277.084 0.
-24.8374 -422.899 0.
172.776 -377.404 0.
170.31 -382.558 0.
167.845 -387.713 0.
324.697 -420.151 0.
270.652 -547.297 0.
274.835 -625.755 0.
324.787 -503.411 0.
374.74 -381.069 0.
408.73 -297.567 0.
405.465 -295.691 0.
402.201 -293.814 0.
502.063 -360.285 0.
388.587 -622.434 0.
275.112 -884.583 0.
435.819 -773.004 0.
503.991 -614.716 0.
683.215 -408.206 0.
1208.06 -355.056 0.
1111.26 -580.139 0.
752.804 -866.909 0.
823.634 -707.704 0.
894.463 -548.499 0.
842.161 -499.696 0.
827.064 -535.814 0.
811.964 -571.933 0.
644.514 -662.959 0.
643.124 -667.385 0.
641.734 -671.811 0.
1078.33 -477.578 0.
1079.92 -475.874 0.
715.786 -632.337 0.
723.662 -613.883 0.
731.538 -595.43 0.
840.096 -550.729 0.
823.072 -588.96 0.
806.048 -627.191 0.
1104.23 -474.084 0.
1144.5 -383.933 0.
1184.76 -293.783 0.
1767.6 -10.2447 0.
1778.52 10.834 0.
-1375.36 -1325.08 0.
1588.34 -192.402 0.
1519.7 -358.27 0.
721.784 -782.82 0.
793.15 -623.709 0.
864.516 -464.596 0.
873.783 -393.67 0.
873.322 -397.37 0.
872.861 -401.07 0.
1181.65 -330.144 0.
1131.58 -446.033 0.
1081.5 -561.922 0.
1340.57 -531.963 0.
1296.02 -629.582 0.
541.212 -1001.76 0.
615.127 -826.657 0.
689.042 -651.55 0.
667.702 -627.687 0.
584.801 -821.228 0.
501.899 -1014.77 0.
453.215 -965.857 0.
577.927 -676.772 0.
702.641 -387.686 0.
1202.84 -112.776 0.
1213.36 -87.4227 0.
802.624 -240.24 0.
684.323 -403.164 0.
625.497 -541.071 0.
413.106 -713.029 0.
430.421 -670.938 0.
447.735 -628.847 0.
89.8497 -805.2 0.
37.5807 -924.882 0.
-14.6884 -1044.56 0.
102.537 -837.903 0.
240.434 -509.103 0.
378.33 -180.305 0.
280.22 -149.456 0.
311.161 -79.1848 0.
302.921 -20.9106 0.
351.159 90.8143 0.
399.396 202.539 0.
125.711 80.0621 0.
30.5221 -136.946 0.
-64.6672 -353.952 0.
110.163 -347.594 0.
116.174 -337.683 0.
122.185 -327.772 0.
200.244 -297.923 0.
197.904 -301.825 0.
393.556 -213.816 0.
66.5428 184.044 0.
-388.666 -874.297 0.
-546.802 -1005.58 0.
321.943 1025.29 0.
165.507 663.942 0.
482.493 828.613 0.
153.184 64.2323 0.
152.625 67.1956 0.
745.577 1007.27 0.
485.473 399.182 0.
496.631 423.514 0.
731.591 396.128 0.
317.855 -571.295 0.
560.825 116.647 0.
788.726 644.903 0.
831.207 741.094 0.
687.192 720.485 0.
650.095 635.462 0.
749.17 867.557 0.
937.158 470.432 0.
830.104 213.728 0.
634.548 -248.032 0.
729.6 353.463 0.
735.101 368.906 0.
1361.38 224.288 0.
1344.93 -468.506 0.
1864.38 743.024 0.
1744.4 1068.75 0.
1081.59 -481.556 0.
1223.66 -152.406 0.
988.334 574.231 0.
1275.86 1247.44 0.
892.466 356.86 0.
1145.82 762.844 0.
1291.41 1105.95 0.
788.526 -64.2609 0.
1588 776.868 0.
1250.41 -19.6171 0.
984.605 87.158 0.
711.1 -553.793 0.
918.22 -73.4403 0.
1351.75 630.5 0.
1198.5 274.864 0.
888.363 -446.797 0.
1050.76 -196.227 0.
1205.91 165.892 0.
1120.73 -32.6593 0.
1979.14 278.564 0.
2367.48 1181.37 0.
-6210.86 -1193.38 0.
2309.1 2012.46 0.
1963.8 1202.46 0.
1041.19 -104.375 0.
1034.08 -127.12 0.
1157.72 155.007 0.
1213.97 127.009 0.
913.605 -574.391 0.
1221.35 143.231 0.
1695.32 993.505 0.
1485.19 500.811 0.
704.872 -1322.02 0.
1068.39 -882.303 0.
1827.86 895.96 0.
1074.4 277.768 0.
821.798 -308.604 0.
1095.28 334.59 0.
576.285 -628.175 0.
671.202 -405.811 0.
1241.14 924.833 0.
716.98 -150.623 0.
1447.36 1553.2 0.
1159.12 879.242 0.
1547.61 451.258 0.
1544.14 450.136 0.
-76.5169 -1368.75 0.
1073.81 480.758 0.
1101.75 550.231 0.
954.198 873.859 0.
608.266 62.924 0.
257.58 -759.246 0.
279.468 -123.53 0.
565.436 549.837 0.
297.787 -68.1126 0.
747.226 952.121 0.
506.673 383.574 0.
-274.536 -1445.95 0.
385.242 -159.131 0.
890.47 1024.27 0.
470.219 135.924 0.
975.355 1312.29 0.
617.511 475.038 0.
-45.0587 -172.759 0.
86.1896 133.326 0.
-20.6857 -117.393 0.
258.674 -44.2912 0.
589.396 732.903 0.
391.792 276.787 0.
762.042 1350.51 0.
58.8319 -295.298 0.
332.379 -482.066 0.
-50.5898 -303.867 0.
83.1864 12.5985 0.
-43.0466 95.7279 0.
-195.702 -258.67 0.
-348.358 -613.067 0.
53.7021 -503.562 0.
172.179 -223.966 0.
290.655 55.6294 0.
245.268 85.2899 0.
224.101 34.6237 0.
202.935 -16.0427 0.
587.826 111.629 0.
569.331 66.9958 0.
374.134 -67.9378 0.
292.167 -266.111 0.
210.201 -464.286 0.
198.888 -585.283 0.
179.064 -634.836 0.
159.239 -684.39 0.
418.789 -613.591 0.
392.89 -679.881 0.
366.991 -746.171 0.
164.085 -883.955 0.
144.159 -929.098 0.
470.154 -826.192 0.
1448.48 -358.942 0.
1477.07 -293.103 0.
704.813 -553.464 0.
744.987 -458.805 0.
785.158 -364.148 0.
596.213 -414.593 0.
590.651 -428.536 0.
585.088 -442.478 0.
805.544 -399.169 0.
761.208 -499.749 0.
716.871 -600.328 0.
1020.69 -550.177 0.
981.796 -645.872 0.
749.053 -816.563 0.
757.075 -799.206 0.
765.097 -781.848 0.
461.04 -817.68 0.
595.646 -504.583 0.
730.252 -191.487 0.
1105.43 -70.6963 0.
955.19 -415.603 0.
804.947 -760.509 0.
1595.86 -219.581 0.
1776.87 203.752 0.
-1918.85 -1036.13 0.
1727.82 517.943 0.
1723.24 507.781 0.
996.533 98.5321 0.
780.027 -407.358 0.
563.521 -913.247 0.
629.616 -1079.01 0.
671.122 -981.531 0.
712.629 -884.054 0.
857.933 -661.811 0.
968.356 -409.777 0.
1078.78 -157.743 0.
1367.61 21.1932 0.
1384.02 58.7948 0.
1010.33 -113.964 0.
861.23 -462.002 0.
712.13 -810.041 0.
378.602 -1036.83 0.
522.885 -701.318 0.
667.169 -365.803 0.
646.233 -357.727 0.
559.023 -560.031 0.
471.812 -762.335 0.
1046.33 -567.266 0.
1027.77 -605.127 0.
892.313 -687.663 0.
323.518 -779.095 0.
402.6 -591.324 0.
425.905 -435.263 0.
501.893 -262.73 0.
577.882 -90.1971 0.
176.013 -168.101 0.
198.379 -113.73 0.
220.745 -59.3579 0.
306.481 -86.1967 0.
250.397 -223.086 0.
194.311 -359.976 0.
587.749 -199.374 0.
587.476 -198.765 0.
210.13 -357.678 0.
212.509 -351.183 0.
214.889 -344.688 0.
-185.165 -473.782 0.
-118.709 -320.676 0.
-52.2532 -167.57 0.
304.662 -3.49506 0.
265.535 -91.7387 0.
226.41 -179.983 0.
-218.308 -629.878 0.
-374.214 -995.795 0.
1073.45 -137.602 0.
79.0682 -217.907 0.
212.912 98.5643 0.
13.5259 151.584 0.
-138.242 -203.717 0.
-290.01 -559.018 0.
244.053 -389.247 0.
363.5 -110.165 0.
482.946 168.917 0.
132.715 70.1371 0.
111.49 19.7685 0.
90.265 -30.6 0.
578.345 140.26 0.
559.408 95.8583 0.
258.788 -87.9881 0.
175.844 -285.579 0.
92.9004 -483.172 0.
305.989 -509.259 0.
285.96 -558.84 0.
265.931 -608.42 0.
368.01 -603.959 0.
341.795 -669.909 0.
315.58 -735.858 0.
141.789 -862.599 0.
122.363 -907.634 0.
-404.121 -1170.32 0.
1527.25 -294.919 0.
1556.21 -229.147 0.
300.19 -696.368 0.
340.692 -601.896 0.
381.193 -507.426 0.
644.547 -363.983 0.
638.923 -377.438 0.
633.299 -390.894 0.
1020.7 -275.05 0.
977.084 -376.921 0.
933.464 -478.792 0.
1036.56 -511.526 0.
997.051 -606.968 0.
951.342 -698.086 0.
959.63 -681.162 0.
967.918 -664.237 0.
147.123 -921.47 0.
281.352 -608.835 0.
415.58 -296.199 0.
1116.79 -34.8917 0.
967.419 -381.235 0.
818.051 -727.578 0.
1398.06 -271.392 0.
1579.83 151.234 0.
-3084.24 -1503.09 0.
1823.95 591.174 0.
1819.95 580.485 0.
845.104 66.1215 0.
628.99 -440.236 0.
412.877 -946.595 0.
565.286 -1074.37 0.
607.099 -977.896 0.
648.912 -881.422 0.
717.302 -688.797 0.
827.977 -437.216 0.
938.652 -185.634 0.
1278.02 14.6749 0.
1294.71 51.9394 0.
1153.93 -19.9067 0.
1005.04 -368.476 0.
856.146 -717.046 0.
370.297 -1009.32 0.
514.346 -674.152 0.
658.396 -338.986 0.
685.118 -308.802 0.
598.069 -512.195 0.
511.021 -715.59 0.
980.778 -563.901 0.
962.083 -601.928 0.
636.149 -767.378 0.
79.3052 -852.617 0.
158.452 -664.512 0.
477.868 -383.941 0.
553.688 -210.534 0.
629.507 -37.1268 0.
93.0549 -173.452 0.
114.874 -118.18 0.
136.691 -62.9083 0.
327.034 -47.3031 0.
270.677 -183.889 0.
214.319 -320.476 0.
876.102 -43.0487 0.
877.047 -43.4402 0.
160.654 -346.274 0.
162.951 -339.811 0.
165.248 -333.346 0.
-180.486 -441.48 0.
-114.408 -288.129 0.
-48.3316 -134.777 0.
358.245 51.1516 0.
319.305 -37.2541 0.
280.365 -125.66 0.
-363.614 -662.583 0.
-519.749 -1027.7 0.
377.681 -475.723 0.
-57.6049 -522.594 0.
19.9199 -343.939 0.
-114.777 -286.491 0.
-138.358 -336.409 0.
-161.94 -386.327 0.
297.754 -217.583 0.
296.301 -218.37 0.
294.848 -219.158 0.
-20.8332 -310.651 0.
10.1912 -234.587 0.
41.2145 -158.524 0.
378.349 -142.534 0.
302.165 -325.964 0.
86.8877 -551.835 0.
70.0346 -590.64 0.
53.1815 -629.445 0.
317.255 -515.816 0.
365.976 -399.972 0.
414.695 -284.129 0.
479.23 -252.004 0.
442.505 -333.983 0.
405.78 -415.962 0.
246.642 -614.996 0.
157.673 -820.199 0.
225.423 -956.619 0.
1348.48 -426.623 0.
1373.36 -362.08 0.
152.413 -829.459 0.
169.28 -787.793 0.
186.147 -746.127 0.
590.356 -601.271 0.
538.604 -721.613 0.
486.852 -841.955 0.
848.083 -670.114 0.
889.464 -573.125 0.
930.846 -476.138 0.
1067.82 -361.197 0.
1094.2 -295.971 0.
1153.39 -220.952 0.
1157.6 -207.442 0.
1161.81 -193.932 0.
330.34 -551.035 0.
325.17 -567.092 0.
320.002 -583.148 0.
903.634 -277.878 0.
963.778 -135.988 0.
1023.92 5.90115 0.
1456.17 46.9602 0.
1348.15 -206.835 0.
1207.42 -473.257 0.
1442.1 -243.405 0.
1508.14 -87.4224 0.
615.233 -389.661 0.
567.259 -498.4 0.
519.285 -607.14 0.
609.337 -533.438 0.
711.457 -293.617 0.
813.578 -53.7961 0.
945.004 -79.4815 0.
829.918 -345.578 0.
714.832 -611.674 0.
1019.13 -590.667 0.
971.629 -699.611 0.
815.433 -811.987 0.
930.868 -545.767 0.
1046.3 -279.546 0.
583.867 -452.151 0.
430.187 -812.711 0.
276.506 -1173.27 0.
349.55 -1123.42 0.
471.379 -841.018 0.
593.209 -558.618 0.
993.198 -259.981 0.
1054.21 -120.001 0.
411.691 -282.827 0.
270.49 -232.726 0.
330.941 -95.8455 0.
633.658 70.1309 0.
520.924 -193.068 0.
408.191 -456.266 0.
-33.5573 -620.536 0.
125.689 -253.094 0.
284.936 114.349 0.
392.469 141.22 0.
308.006 -53.6556 0.
223.544 -248.531 0.
832.436 -118.368 0.
764.339 -275.181 0.
-40.765 -689.537 0.
108.884 -348.445 0.
258.535 -7.35147 0.
-53.4986 -16.0081 0.
-111.07 -159.95 0.
-168.644 -303.894 0.
376.72 -62.3409 0.
426.733 50.6948 0.
476.748 163.73 0.
-201.252 -92.763 0.
-190.445 -67.7714 0.
327.35 -468.356 0.
-167.39 -538.541 0.
-89.8737 -359.25 0.
-21.1461 -215.318 0.
-44.2508 -265.461 0.
-67.3562 -315.603 0.
103.166 -268.7 0.
101.979 -269.686 0.
100.793 -270.672 0.
134.083 -213.226 0.
166.21 -138.42 0.
198.335 -63.6135 0.
247.504 -165.291 0.
171.539 -349.204 0.
290.589 -433.983 0.
273.921 -472.698 0.
257.253 -511.413 0.
274.97 -502.079 0.
323.812 -386.554 0.
372.655 -271.03 0.
454.59 -231.916 0.
418.293 -313.925 0.
381.996 -395.934 0.
292.128 -563.306 0.
203.143 -768.083 0.
867.957 -647.787 0.
1003.05 -544.179 0.
1028.81 -480.286 0.
339.586 -717.347 0.
356.935 -675.746 0.
374.284 -634.146 0.
693.715 -527.592 0.
641.419 -647.709 0.
589.124 -767.827 0.
651.655 -723.955 0.
692.396 -626.794 0.
733.136 -529.634 0.
1011.13 -353.371 0.
1037.64 -288.35 0.
957.722 -272.858 0.
962.079 -259.726 0.
966.436 -246.595 0.
737.917 -345.796 0.
732.562 -362.54 0.
727.208 -379.283 0.
658.807 -349.705 0.
718.697 -207.967 0.
778.586 -66.2292 0.
1511.87 102.095 0.
1403.47 -151.469 0.
-169.286 -1031.33 0.
1272.9 -285.115 0.
1338.78 -129.421 0.
732.157 -311.171 0.
684.039 -420.259 0.
635.921 -529.347 0.
228.316 -661.824 0.
331.327 -423.642 0.
434.34 -185.46 0.
1036.15 -7.1838 0.
922.076 -273.974 0.
808 -540.765 0.
1149.55 -502.449 0.
1102.48 -611.89 0.
703.08 -827.876 0.
818.862 -561.98 0.
934.645 -296.084 0.
562.801 -429.567 0.
408.728 -789.838 0.
254.655 -1150.11 0.
371.279 -1082.92 0.
492.991 -801.219 0.
614.703 -519.522 0.
812.554 -307.828 0.
872.789 -167.759 0.
984.889 -3.35405 0.
371.054 -155.785 0.
431.431 -19.1439 0.
518.84 50.7751 0.
405.991 -212.445 0.
293.141 -475.666 0.
240.879 -469.656 0.
400.155 -102.013 0.
559.432 265.631 0.
368.185 162.585 0.
284.244 -32.5311 0.
200.304 -227.648 0.
568.55 -197.724 0.
500.488 -354.562 0.
-75.5163 -673.941 0.
73.7167 -332.491 0.
222.951 8.95999 0.
-148.209 -28.5307 0.
-206.325 -171.653 0.
-264.443 -314.776 0.
509.904 26.4305 0.
560.686 139.083 0.
611.469 251.736 0.
-239.624 -78.3858 0.
-228.618 -53.7682 0.
-567.132 76.2342 0.
-376.791 -792.663 0.
324.869 839.207 0.
456.727 765.436 0.
261.213 311.749 0.
482.526 830.986 0.
-280.844 -772.489 0.
130.932 190.56 0.
-421.841 -1096.22 0.
339.597 10.982 0.
317.217 -40.4585 0.
426.928 216.509 0.
455.814 581.68 0.
334.635 303.505 0.
445.269 -431.983 0.
947.557 738.807 0.
628.695 -6.19724 0.
343.303 -236.159 0.
487.025 99.0377 0.
369.608 -176.325 0.
711.044 457.863 0.
604.402 205.167 0.
574.368 130.745 0.
218.022 -783.583 0.
775.102 515.768 0.
436.889 145.736 0.
1328.32 902.876 0.
1590.29 1516.21 0.
1124.15 787.426 0.
444.726 -798.907 0.
341.365 -1041.36 0.
1006.04 29.7191 0.
977.642 -34.5953 0.
696.729 -687.774 0.
1391.63 1397.99 0.
888.411 221.142 0.
337.136 -1066.98 0.
1039.83 -142.143 0.
806.762 -685.743 0.
707.933 -441.301 0.
760.318 -320.032 0.
664.513 -544.144 0.
1209.58 7.93448 0.
1222.08 32.9538 0.
1119.64 -209.894 0.
671.772 179.708 0.
915.885 747.446 0.
252.753 -801.683 0.
1665.88 398.229 0.
1763.3 622.192 0.
338.611 -515.948 0.
1277.28 84.1312 0.
1049.4 -449.547 0.
614.299 -786.112 0.
1001.13 114.767 0.
1205.04 589.551 0.
449.439 621.562 0.
374.166 442.174 0.
34.3982 -353.964 0.
844.857 -592.072 0.
986.313 -263.085 0.
1056 -102.688 0.
1400.96 -143.483 0.
1358.98 -243.499 0.
660.797 -674.104 0.
708.388 -569.841 0.
1296.03 796.845 0.
1168.38 1052.91 0.
565.36 -351.534 0.
321.397 -917.874 0.
666.149 -409.476 0.
934.15 215.029 0.
843.589 3.76099 0.
678.772 -249.693 0.
842.334 137.194 0.
475.454 431.885 0.
975.877 1096.43 0.
411.992 -219.388 0.
390.582 9.1963 0.
309.79 -185.426 0.
358.49 -76.9249 0.
797.161 358.613 0.
711.599 155.182 0.
163.693 -1127.15 0.
279.047 35.2065 0.
508.484 566.511 0.
108.644 -371.55 0.
331.861 -228.81 0.
348.779 -184.774 0.
190.765 29.3926 0.
529.171 822.609 0.
724.322 1281.45 0.
-269.564 -119.993 0.
-294.767 -177.309 0.
2.92827 518.762 0.
1218.17 1470.32 0.
748.794 381.233 0.
738.248 361.697 0.
-369.492 -301.353 0.
-12.9534 526.032 0.
-509.032 -719.144 0.
-200.175 -489.853 0.
-124.516 -315.407 0.
172.736 -47.3013 0.
247.557 127.875 0.
322.379 303.052 0.
64.5495 164.011 0.
-78.691 -169.338 0.
-221.931 -502.685 0.
134.25 -502.378 0.
89.6014 -603.727 0.
44.9524 -705.075 0.
130.823 -580.869 0.
184.451 -450.048 0.
475.576 -234.048 0.
479.437 -225.523 0.
483.297 -216.998 0.
389.873 -259.128 0.
371.167 -300.186 0.
352.461 -341.245 0.
212.152 -434.822 0.
189.458 -488.185 0.
166.764 -541.548 0.
529.636 -274.149 0.
621.668 -60.1152 0.
452.062 42.04 0.
817.069 127.137 0.
769.665 16.1364 0.
592.73 -179.491 0.
485.559 -430.67 0.
378.387 -681.848 0.
491.371 -717.059 0.
531.997 -624.13 0.
572.624 -531.201 0.
617.7 -505.235 0.
600.125 -546.385 0.
582.55 -587.536 0.
869.194 -389.653 0.
917.79 -279.115 0.
722.812 -282.79 0.
703.844 -324.563 0.
684.877 -366.336 0.
953.699 -254.312 0.
978.111 -196.187 0.
1002.52 -138.061 0.
528.003 -337.867 0.
515.345 -370.733 0.
502.687 -403.599 0.
1382.66 -66.6314 0.
1357.61 -127.191 0.
-938.859 -1163.93 0.
1237.92 -187.874 0.
1262.29 -134.037 0.
593.458 -343.539 0.
698.753 -98.0358 0.
804.047 147.467 0.
456.801 -77.5366 0.
241.278 -576.705 0.
25.7562 -1075.87 0.
601.404 -772.962 0.
743.054 -436.352 0.
884.704 -99.744 0.
1324.68 64.4603 0.
1295.51 -5.87553 0.
649.537 -365.894 0.
524.333 -660.905 0.
399.129 -955.918 0.
473.324 -966.345 0.
639.525 -580.053 0.
805.727 -193.76 0.
664.743 -200.522 0.
606.133 -341.62 0.
547.522 -482.719 0.
553.604 -361.986 0.
645.209 -151.286 0.
948.644 143.814 0.
306.742 -270.564 0.
232.734 -443.636 0.
355.632 -503.695 0.
353.07 -511.953 0.
350.508 -520.212 0.
72.0604 -647.938 0.
70.3049 -650.235 0.
68.5492 -652.532 0.
62.054 -678.001 0.
41.474 -727.627 0.
20.8944 -777.253 0.
250.915 -412.881 0.
406.694 -46.5379 0.
316.192 178.848 0.
324.273 197.751 0.
332.355 216.653 0.
-170.816 -25.1781 0.
-220.261 -142.99 0.
-269.706 -260.802 0.
277.519 -209.706 0.
155.997 -488.773 0.
34.4753 -767.838 0.
-285.727 -770.14 0.
-171.651 -504.8 0.
999.96 -41.5009 0.
-129.476 -427.689 0.
-54.072 -253.112 0.
270.28 25.6034 0.
344.784 201.034 0.
419.288 376.464 0.
14.4692 173.688 0.
-128.565 -159.893 0.
-271.6 -493.473 0.
167.901 -456.982 0.
123.726 -559.34 0.
79.5503 -661.696 0.
356.897 -450.678 0.
411.429 -320.895 0.
426.089 -221.218 0.
430.49 -213.239 0.
434.889 -205.259 0.
476.195 -190.537 0.
457.68 -231.413 0.
439.166 -272.29 0.
83.0345 -460.37 0.
61.0377 -514.397 0.
39.0404 -568.424 0.
660.836 -185.847 0.
754.197 27.5597 0.
61.8338 -94.9975 0.
609.979 70.4857 0.
563.46 -41.0451 0.
467.68 -201.068 0.
361.11 -452.369 0.
254.539 -703.67 0.
266.553 -782.546 0.
307.004 -689.632 0.
347.456 -596.718 0.
684.404 -447.4 0.
666.783 -488.769 0.
649.162 -530.137 0.
805.422 -382.837 0.
854.057 -273.157 0.
674.346 -271.676 0.
654.639 -313.758 0.
634.932 -355.84 0.
791.548 -293.044 0.
815.252 -235.164 0.
838.955 -177.285 0.
645.897 -256.362 0.
632.319 -288.53 0.
618.741 -320.698 0.
1295.48 -72.7201 0.
1270.14 -133.521 0.
-2555.7 -1825.8 0.
1352.95 -108.358 0.
1377.36 -54.9266 0.
346.336 -414.121 0.
451.997 -169.573 0.
557.658 74.9739 0.
855.035 123.858 0.
639.857 -376.213 0.
424.681 -876.284 0.
406.372 -823.86 0.
548.677 -487.77 0.
690.982 -151.68 0.
1139.21 16.81 0.
1110.29 -53.8982 0.
491.367 -400.005 0.
366.756 -696.208 0.
242.145 -992.412 0.
699.134 -836.862 0.
865.828 -451.463 0.
1032.52 -66.0628 0.
573.151 -206.675 0.
514.701 -348.142 0.
456.251 -489.61 0.
472.377 -367.654 0.
563.458 -156.853 0.
701.066 70.1069 0.
224.864 -272.907 0.
150.797 -446.194 0.
597.878 -367.145 0.
595.779 -376.217 0.
593.679 -385.29 0.
-273.773 -762.43 0.
-275.76 -764.63 0.
-277.746 -766.83 0.
186.061 -594.08 0.
165.456 -643.434 0.
144.852 -692.788 0.
265.73 -375.84 0.
422.46 -9.74908 0.
404.506 249.348 0.
413.895 267.329 0.
423.286 285.31 0.
-79.9409 47.6676 0.
-128.942 -70.1115 0.
-177.942 -187.891 0.
24.7992 -285.204 0.
-96.3045 -564.45 0.
-217.407 -843.696 0.
77.849 -585.197 0.
191.065 -319.542 0.
-112.592 30.5521 0.
-10.4319 -161.325 0.
-141.488 -468.916 0.
31.9019 -588.108 0.
51.8747 -544.878 0.
71.847 -501.647 0.
-235.093 -559.846 0.
-174.163 -411.679 0.
-113.234 -263.511 0.
285.015 -35.3994 0.
300.896 -1.52714 0.
316.776 32.345 0.
596.79 18.7939 0.
506.911 -186.981 0.
237.052 -444.566 0.
282.887 -335.926 0.
328.721 -227.287 0.
513.279 -99.8542 0.
499.467 -131.616 0.
485.654 -163.377 0.
228.432 -261.697 0.
258.209 -192.915 0.
287.987 -124.133 0.
708.383 127.443 0.
742.778 211.836 0.
839.645 323.016 0.
477.263 -81.7491 0.
340.962 -391.685 0.
298.459 -551.948 0.
422.306 -260.499 0.
546.153 30.9487 0.
631.181 110.585 0.
523.226 -135.883 0.
415.271 -382.35 0.
673.005 -299.034 0.
701.914 -228.204 0.
730.822 -157.374 0.
853.089 -101.757 0.
851.404 -105.198 0.
742.305 -147.292 0.
772.072 -82.8718 0.
801.839 -18.452 0.
736.221 -18.5061 0.
724.791 -47.9212 0.
713.361 -77.3363 0.
713.782 -163.303 0.
642.501 -329.69 0.
571.221 -496.078 0.
1156.16 -204.288 0.
1204.82 -87.873 0.
-1212.44 -1029.28 0.
1293.15 -60.0631 0.
1236 -191.83 0.
167.865 -722.046 0.
192.617 -664.446 0.
217.369 -606.846 0.
773.324 -288.914 0.
833.758 -150.184 0.
894.191 -11.4534 0.
598.354 -220.42 0.
510.318 -427.776 0.
422.282 -635.131 0.
868.701 -328.965 0.
940.097 -155.976 0.
461.762 -228.132 0.
487.286 -158.738 0.
512.81 -89.3446 0.
1072.12 79.6464 0.
914.059 -286.476 0.
755.995 -652.599 0.
312.761 -818.271 0.
452.948 -489.129 0.
593.134 -159.988 0.
575.909 -257.506 0.
482.034 -476.813 0.
387.025 -687.363 0.
-28.8376 -740.912 0.
37.5141 -585.286 0.
693.305 -164.104 0.
773.714 27.961 0.
854.122 220.025 0.
-141.592 -190.314 0.
-207.422 -343.995 0.
-273.251 -497.677 0.
365.508 -181.086 0.
429.987 -28.7666 0.
494.465 123.552 0.
460.42 77.0996 0.
435.35 16.9425 0.
314.546 -88.2997 0.
276.462 -176.878 0.
238.378 -265.456 0.
-134.128 -433.488 0.
-76.4386 -300.492 0.
-18.7497 -167.497 0.
28.236 -99.7162 0.
27.3079 -98.891 0.
26.38 -98.066 0.
527.253 188.428 0.
569.911 289.53 0.
738.476 427.526 0.
-20.5215 -134.988 0.
-152.166 -442.06 0.
24.0655 -562.397 0.
44.057 -519.266 0.
64.048 -476.135 0.
-0.494152 -425.367 0.
60.6941 -277.581 0.
121.881 -129.795 0.
123.629 -75.9242 0.
138.777 -41.2557 0.
153.925 -6.58745 0.
510.813 14.682 0.
421.347 -190.951 0.
93.4864 -476.489 0.
139.56 -368.035 0.
185.633 -259.582 0.
453.343 -92.4524 0.
440.244 -124.451 0.
427.145 -156.45 0.
521.435 -104.519 0.
551.841 -35.8905 0.
582.247 32.7375 0.
399.541 25.2225 0.
433.203 110.61 0.
895.171 380.382 0.
550.066 -18.5261 0.
413.978 -328.582 0.
403.98 -478.053 0.
527.359 -185.898 0.
650.737 106.255 0.
834.777 230.228 0.
726.731 -16.5557 0.
618.684 -263.339 0.
458.685 -359.176 0.
487.601 -288.476 0.
516.516 -217.776 0.
773.102 -102.387 0.
771.215 -106.088 0.
877.524 -57.042 0.
906.665 7.3573 0.
935.808 71.7562 0.
517.277 -80.0318 0.
504.865 -109.096 0.
492.455 -138.16 0.
694.652 -141.073 0.
623.192 -307.29 0.
551.732 -473.508 0.
1035.95 -224.881 0.
1084.57 -108.714 0.
412.756 -300.811 0.
1024.33 -143.233 0.
967.432 -274.973 0.
343.049 -612.172 0.
368.471 -555.417 0.
393.894 -498.663 0.
637.156 -316.489 0.
696.918 -177.694 0.
756.681 -38.8989 0.
673.24 -155.803 0.
584.731 -362.441 0.
496.222 -569.079 0.
798.631 -330.899 0.
870.429 -158.098 0.
371.581 -233.923 0.
397.159 -165.054 0.
422.736 -96.1847 0.
829.804 8.03524 0.
671.619 -358.26 0.
513.433 -724.556 0.
433.244 -735.724 0.
574.287 -406.98 0.
715.33 -78.2354 0.
839.581 -112.484 0.
746.058 -332.29 0.
730.631 -509.791 0.
-56.9127 -721.104 0.
8.80048 -564.246 0.
505.298 -215.683 0.
586.244 -23.9177 0.
667.189 167.846 0.
-58.0741 -122.883 0.
-122.831 -277.4 0.
-187.587 -431.917 0.
285.38 -182.108 0.
349.919 -29.8673 0.
414.459 122.373 0.
475.336 115.802 0.
450.163 55.4037 0.
398.122 -22.7174 0.
359.86 -110.989 0.
321.596 -199.259 0.
163.126 -275.693 0.
220.441 -142.207 0.
277.756 -8.72143 0.
107.427 -33.8091 0.
106.422 -32.9417 0.
105.417 -32.0744 0.
498.006 204.561 0.
541.673 304.432 0.
-608.764 713.181 0.
-75.0186 -213.682 0.
13.2165 -8.65502 0.
99.0821 -354.488 0.
289.618 98.3407 0.
504.479 605.341 0.
385.37 56.4219 0.
549.46 444.15 0.
713.499 831.579 0.
480.64 1091.61 0.
182.777 396.266 0.
-297.33 -723.151 0.
489.061 157.804 0.
801.207 885.297 0.
-182.13 -830.094 0.
93.9908 -181.343 0.
21.9783 -344.256 0.
175.728 -601.696 0.
421.031 -33.9104 0.
398.077 -91.4888 0.
709.555 -192.173 0.
831.415 93.0141 0.
624.173 -391.285 0.
-67.5544 -448.838 0.
248.198 291.921 0.
117.947 -5.39317 0.
548.85 -135.136 0.
240.266 -857.69 0.
138.032 -1272.2 0.
610.695 -165.287 0.
632.901 -108.818 0.
685.233 -473.769 0.
1094.09 483.092 0.
881.505 -10.2424 0.
232.905 -452.957 0.
84.9191 -797.085 0.
122.364 -708.412 0.
903.322 393.429 0.
1027.01 682.147 0.
1119.87 285.122 0.
940.152 -131.3 0.
1114.67 278.899 0.
424.728 155.624 0.
362.034 9.2536 0.
137.031 -515.843 0.
948.901 522.357 0.
552.955 -402.548 0.
294.653 -1006.12 0.
591.329 -1002.23 0.
1109.37 204.618 0.
530.806 45.5994 0.
862.787 42.2292 0.
942.594 228.787 0.
852.308 263.17 0.
325.767 -962.561 0.
513.568 -521.47 0.
832.785 420.023 0.
680.712 65.9791 0.
335.927 -737.805 0.
465.849 -743 0.
869.966 198.584 0.
1230.64 1038.38 0.
1296.49 992.756 0.
1080.36 489.326 0.
302.308 -192.136 0.
258.174 -293.821 0.
379.793 -8.65719 0.
784.368 397.215 0.
590.277 -62.8534 0.
291.29 -767.061 0.
1310.47 1113.44 0.
1057.34 520.346 0.
1273.05 1021.65 0.
861.468 -537.801 0.
1204.18 268.439 0.
-34.1847 -360.291 0.
407.939 443.053 0.
581.069 845.805 0.
218.21 -500.444 0.
-129.606 -1311.66 0.
454.213 50.7816 0.
300.709 588.478 0.
41.4846 -15.0651 0.
-1.82316 -115.962 0.
309.669 55.4069 0.
238.289 -112.686 0.
166.718 -282.228 0.
404.289 -51.7986 0.
341.541 -194.602 0.
320.436 -331.67 0.
92.7015 -859.109 0.
667.415 483.628 0.
718.474 496.379 0.
829.89 761.652 0.
193.954 -717.086 0.
273.815 238.016 0.
294.234 284.865 0.
400.094 528.89 0.
268.55 -258.967 0.
87.6377 -684.266 0.
-943.213 -279.007 0.
-40.4133 34.7967 0.
-87.8679 -75.6769 0.
103.348 -53.7468 0.
116.52 -19.4235 0.
129.692 14.9009 0.
307.214 61.5855 0.
255.869 -60.1949 0.
204.523 -181.974 0.
-164.943 -358.341 0.
-154.384 -335.849 0.
-143.825 -313.356 0.
506.656 63.759 0.
568.88 206.772 0.
111.531 105.042 0.
15.5289 -117.698 0.
-80.4725 -340.438 0.
273.444 -298.627 0.
302.841 -231.32 0.
332.238 -164.013 0.
794.015 142.742 0.
870.877 328.807 0.
947.74 514.871 0.
-24.8498 -123.483 0.
-196.259 -529.443 0.
39.3146 -761.192 0.
475.113 -408.862 0.
568.96 -196.066 0.
682.894 -38.1234 0.
608.217 -214.083 0.
533.541 -390.044 0.
530.102 -291.133 0.
758.469 238.599 0.
986.836 768.33 0.
676.099 662.013 0.
575.894 424.823 0.
475.69 187.632 0.
851.57 95.9486 0.
719.697 -212.247 0.
631.436 -464.666 0.
687.436 -333.899 0.
743.435 -203.133 0.
370.181 -333.618 0.
304.953 -486.797 0.
239.724 -639.976 0.
643.667 -352.887 0.
801.554 11.6788 0.
959.44 376.246 0.
966.165 128.253 0.
750.177 -377.122 0.
326.577 -971.736 0.
565.629 -564.243 0.
724.116 -191.632 0.
457.238 -74.5297 0.
431.825 -125.19 0.
406.411 -175.851 0.
585.306 -196.41 0.
500.562 -398.456 0.
415.819 -600.504 0.
475.835 -513.373 0.
566.855 -301.143 0.
657.874 -88.9118 0.
1031.23 108.502 0.
1040.17 129.429 0.
204.347 -227.315 0.
140.523 -376.927 0.
76.6981 -526.538 0.
338.766 -478.686 0.
360.317 -433.463 0.
381.867 -388.24 0.
515.514 -359.723 0.
474.628 -450.942 0.
433.743 -542.162 0.
1021.95 -203.628 0.
1087.81 -48.0514 0.
399.186 -214.294 0.
5.05847 -365.505 0.
18.7972 -340.596 0.
259.348 -209.774 0.
284.311 -154.956 0.
309.274 -100.139 0.
79.9372 -211.98 0.
40.7858 -305.006 0.
1.63434 -398.033 0.
56.6112 -428.25 0.
38.8341 -469.607 0.
21.0573 -510.964 0.
190.46 -447.399 0.
185.74 -455.18 0.
370.059 -370.458 0.
406.443 -287.942 0.
442.827 -205.427 0.
368.859 -141.658 0.
444.501 35.9177 0.
520.143 213.493 0.
260.12 130.276 0.
229.965 53.9889 0.
199.811 -22.2985 0.
396.347 -85.8291 0.
315.891 -279.573 0.
-1117.29 -318.344 0.
-114.725 33.1471 0.
-161.804 -76.9896 0.
-35.8707 -81.3805 0.
-21.6428 -47.8616 0.
-7.41599 -14.3418 0.
229.602 62.7812 0.
179.682 -59.8392 0.
129.761 -182.459 0.
-176.978 -334.044 0.
-166.586 -311.748 0.
-156.194 -289.452 0.
596.14 135.038 0.
658.34 277.358 0.
1.97648 90.4421 0.
-93.5658 -132.724 0.
-189.107 -355.89 0.
251.671 -277.768 0.
280.822 -209.732 0.
309.974 -141.695 0.
732.008 146.722 0.
809.007 333.426 0.
886.007 520.129 0.
-124.451 -136.544 0.
-296.116 -542.088 0.
408.583 -572.859 0.
548.96 -345.195 0.
642.847 -132.527 0.
724.431 11.8228 0.
649.422 -163.962 0.
574.414 -339.748 0.
265.452 -372.962 0.
493.078 156.862 0.
720.704 686.686 0.
658.918 686.034 0.
559.786 447.846 0.
460.654 209.656 0.
964.984 176.578 0.
834.35 -132.575 0.
441.688 -513.089 0.
498.017 -382.742 0.
554.348 -252.395 0.
587.372 -206.336 0.
522.195 -359.469 0.
457.017 -512.601 0.
752.786 -275.496 0.
910.699 89.2523 0.
1068.61 454.002 0.
854.836 112.519 0.
639.129 -393.034 0.
288.658 -957.507 0.
530.661 -547.687 0.
688.901 -174.91 0.
162.665 -168.545 0.
137.433 -219.244 0.
112.2 -269.943 0.
625.776 -147.213 0.
541.065 -349.333 0.
456.355 -551.455 0.
383.904 -519.535 0.
474.394 -306.855 0.
564.884 -94.1749 0.
1187.68 206.017 0.
1195.01 228.949 0.
123.296 -233.554 0.
58.2826 -382.269 0.
-6.73177 -530.983 0.
269.957 -479.608 0.
290.654 -434.099 0.
311.351 -388.589 0.
324.451 -411.566 0.
283.91 -502.941 0.
243.369 -594.317 0.
1055.88 -157.727 0.
1122.53 -2.43205 0.
1199.81 159.234 0.
-44.2498 -354.75 0.
-30.2283 -329.848 0.
174.78 -215.037 0.
200.542 -160.781 0.
226.304 -106.526 0.
245.526 -108.9 0.
206.799 -201.989 0.
168.073 -295.078 0.
15.3214 -415.718 0.
-2.27992 -457.273 0.
-19.8809 -498.829 0.
153.191 -430.84 0.
149.049 -439.37 0.
467.747 -297.536 0.
503.764 -214.841 0.
539.78 -132.145 0.
294.567 -142.153 0.
370.603 35.1771 0.
446.639 212.507 0.
316.716 187.514 0.
286.307 110.95 0.
255.898 34.3849 0.
481.013 -20.3681 0.
400.198 -214.479 0.
-968.571 -1189.29 0.
-408.22 -765.548 0.
-286.75 -481.131 0.
-180.861 -263.493 0.
-204.685 -315.104 0.
-228.509 -366.714 0.
73.2267 -199.665 0.
149.562 -18.0202 0.
225.897 163.624 0.
58.3463 196.029 0.
94.918 283.991 0.
131.49 371.952 0.
619.886 445.95 0.
535.344 252.623 0.
20.6446 -108.663 0.
34.9203 -73.9924 0.
49.1963 -39.3233 0.
337.76 86.3867 0.
311.82 25.7942 0.
285.881 -34.7988 0.
599.379 6.10441 0.
529.752 -161.5 0.
460.125 -329.107 0.
-323.993 -711.401 0.
-337.632 -741.939 0.
952.32 -215.187 0.
578.551 -221.935 0.
662.406 -23.9482 0.
701.604 101.675 0.
656.851 -3.26967 0.
612.099 -108.215 0.
157.385 -402.453 0.
95.8562 -550.734 0.
34.327 -699.017 0.
110.365 -645.118 0.
156.913 -533.705 0.
203.461 -422.291 0.
704.69 -205.831 0.
699.909 -217.64 0.
450.937 -357.29 0.
363.801 -555.775 0.
276.666 -754.259 0.
411.143 -712.824 0.
547.102 -389.117 0.
683.059 -65.4108 0.
865.335 46.3906 0.
784.313 -139.104 0.
703.289 -324.598 0.
641.059 -326.47 0.
680.186 -233.219 0.
479.831 -243.063 0.
788.579 169.309 0.
938.031 515.138 0.
333.965 416.862 0.
194.467 90.6709 0.
54.9698 -235.521 0.
525.687 -187.461 0.
518.497 -200.74 0.
511.306 -214.02 0.
528.442 -127.099 0.
595.548 27.1389 0.
662.654 181.378 0.
1050.61 135.47 0.
918.892 -175.054 0.
-119.591 -822.446 0.
-32.7036 -622.877 0.
54.1843 -423.308 0.
418.264 -189.368 0.
377.134 -286.206 0.
336.004 -383.044 0.
224.487 -464.567 0.
231.846 -449.215 0.
239.206 -433.863 0.
884.407 -117.267 0.
905.23 -60.983 0.
712.112 -102.126 0.
31.1572 -346.299 0.
54.8959 -288.296 0.
173.438 -201.502 0.
166.218 -212.993 0.
158.999 -224.485 0.
161.177 -174.573 0.
220.501 -37.1948 0.
279.825 100.184 0.
197.836 17.6701 0.
137.126 -124.465 0.
76.416 -266.601 0.
388.25 -4.82967 0.
471.553 187.136 0.
744.398 420.185 0.
651.726 206.8 0.
559.055 -6.58453 0.
203.711 -275.388 0.
198.475 -287.846 0.
193.237 -300.302 0.
109.842 -322.853 0.
126.631 -280.388 0.
143.421 -237.924 0.
429.528 -74.4144 0.
452.695 -19.1033 0.
-348.472 -890.303 0.
-179.973 -635.528 0.
-58.1809 -351.133 0.
-176.933 -230.703 0.
-200.058 -282.043 0.
-223.183 -333.382 0.
67.6456 -169.994 0.
144.822 11.5447 0.
221.998 193.083 0.
110.266 247.579 0.
146.997 335.324 0.
183.729 423.069 0.
300.341 342.786 0.
216.846 148.182 0.
399.624 84.24 0.
413.579 118.882 0.
427.534 153.521 0.
227.884 72.2153 0.
202.138 11.5021 0.
176.392 -49.2115 0.
537.05 9.19616 0.
466.706 -156.99 0.
396.363 -323.178 0.
-95.972 -585.742 0.
-109.539 -616.689 0.
75.6619 -562.038 0.
481.271 -229.149 0.
564.876 -31.3898 0.
541.41 63.3971 0.
495.927 -41.3702 0.
450.443 -146.138 0.
230.778 -339.183 0.
168.943 -487.494 0.
107.109 -635.806 0.
225.975 -563.822 0.
273.264 -453.306 0.
320.554 -342.789 0.
372.312 -316.795 0.
368.125 -328.943 0.
524.043 -293.022 0.
437.068 -491.85 0.
350.094 -690.676 0.
309.283 -724.256 0.
445.1 -400.761 0.
580.916 -77.2682 0.
714.095 10.5551 0.
632.982 -174.897 0.
551.868 -360.349 0.
726.928 -255.564 0.
767.083 -162.905 0.
309.93 -284.061 0.
728.793 176.121 0.
878.166 522.616 0.
500.17 520.403 0.
361.119 193.696 0.
222.068 -133.013 0.
315.998 -242.797 0.
310.326 -257.408 0.
304.654 -272.02 0.
597.355 -65.5011 0.
665.054 89.1347 0.
732.753 243.771 0.
667.689 3.71508 0.
536.852 -307.055 0.
23.1385 -730.294 0.
110.322 -530.518 0.
197.505 -330.742 0.
580.607 -86.1944 0.
540.493 -184.239 0.
500.379 -282.285 0.
254.457 -419.612 0.
261.926 -404.696 0.
269.396 -389.78 0.
423.712 -282.71 0.
445.53 -227.054 0.
-1064.97 -831.369 0.
298.541 -199.364 0.
322.152 -140.747 0.
248.863 -137.312 0.
241.999 -149.149 0.
235.135 -160.986 0.
-110.881 -260.644 0.
-50.9214 -123.801 0.
9.0388 13.042 0.
269.958 82.5844 0.
209.921 -60.1342 0.
149.885 -202.853 0.
575.532 106.56 0.
658.718 298.588 0.
614.964 398.667 0.
523.017 184.708 0.
431.071 -29.2507 0.
226.054 -236.725 0.
220.409 -248.49 0.
214.762 -260.254 0.
114.767 -288.92 0.
132.166 -246.771 0.
149.565 -204.623 0.
307.896 -94.9449 0.
330.859 -39.6813 0.
-176.532 -185.075 0.
126.8 -322.559 0.
245.499 -44.6117 0.
237.408 731.251 0.
-165.84 -200.856 0.
138.791 518.693 0.
310.391 424.46 0.
-19.811 -341.196 0.
179.874 128.743 0.
59.2574 76.3538 0.
-131.004 -368.17 0.
-157.662 -431.161 0.
0.79145 248.896 0.
-158.571 -119.056 0.
208.711 -1030.39 0.
864.331 495.786 0.
536.869 -271.238 0.
-224.801 -753.224 0.
-248.198 -805.501 0.
-75.3091 -401.299 0.
691.181 495.854 0.
359.115 -278.83 0.
-75.092 -1292.54 0.
236.627 -202.794 0.
274.427 -114.584 0.
-883.385 -1051.62 0.
142.586 -803.421 0.
401.379 -193.822 0.
428.806 141.897 0.
889.924 1222.6 0.
205.724 -367.683 0.
-46.7607 -1095.96 0.
404.645 -37.8322 0.
212.348 -481.539 0.
706.706 346.013 0.
688.754 307.8 0.
942.172 902.724 0.
27.4876 -446.68 0.
152.159 -161.484 0.
655.921 -87.3426 0.
760.949 156.782 0.
703.884 22.7357 0.
569.776 121.959 0.
646.564 297.701 0.
283.564 -552.453 0.
438.93 -327.035 0.
595.188 47.602 0.
729.777 371.98 0.
973.368 196.091 0.
975.538 195.505 0.
-1507.16 -24.9307 0.
568.539 -46.5156 0.
491.761 -227.959 0.
668.981 631.958 0.
633.636 548.267 0.
582.352 426.932 0.
291.697 122.476 0.
618.164 889.011 0.
430.999 457.442 0.
608.047 -138.63 0.
599.229 -152.813 0.
959.597 694.534 0.
207.874 -328.473 0.
224.006 -285.136 0.
185.228 -593.383 0.
315.587 -291.31 0.
478.397 86.7309 0.
1036.13 706.848 0.
988.52 596.093 0.
1371.71 1489.94 0.
401.038 -110.373 0.
-24.1095 -1107.37 0.
531.144 184.349 0.
308.82 370.298 0.
724.422 1341.6 0.
-125.101 -246.817 0.
480.064 -265.839 0.
167.08 -984.575 0.
464.53 249.123 0.
743.967 908.83 0.
-234.833 -1366.17 0.
-406.521 -421.789 0.
227.41 1059.24 0.
-311.818 -195.827 0.
-11.4174 -681.82 0.
-6.18423 -671.52 0.
532.875 585.856 0.
746.741 194.03 0.
599.884 -148.315 0.
232.327 -216.46 0.
245.898 -182.937 0.
89.6185 -546.336 0.
-85.301 -987.443 0.
551.576 496.736 0.
210.763 -300.395 0.
111.431 -270.288 0.
276.68 113.389 0.
440.652 495.691 0.
585.906 844.875 0.
214.01 -23.014 0.
1706.43 815.414 0.
174.334 90.9598 0.
92.622 -99.246 0.
-47.7787 -271.804 0.
-49.5543 -274.376 0.
-51.3297 -276.948 0.
-232.287 -283.285 0.
-142.634 -75.0605 0.
-52.9841 133.166 0.
-52.9632 110.723 0.
-121.18 -46.797 0.
-189.396 -204.318 0.
158.704 -106.665 0.
128.387 -167.612 0.
422.638 -75.9623 0.
473.517 42.1412 0.
524.398 160.244 0.
-61.1093 -24.8405 0.
-56.8052 -10.5475 0.
-52.5014 3.74467 0.
836.98 323.456 0.
767.776 157.506 0.
698.573 -8.44613 0.
-74.4836 -288.081 0.
-12.8524 -145.666 0.
660.023 259.919 0.
313.081 6.09281 0.
255.651 -126.743 0.
386.979 -130.492 0.
439.277 -7.56265 0.
491.575 115.367 0.
572.201 143.457 0.
492.761 -32.4016 0.
413.323 -208.26 0.
200.252 -235.871 0.
288.408 -27.1712 0.
376.563 181.527 0.
511.288 204.605 0.
474.523 120.325 0.
662.963 142.858 0.
691.724 206.236 0.
720.484 269.614 0.
567.144 220.51 0.
550.024 171.805 0.
532.905 123.1 0.
665.61 32.4585 0.
539.502 -264.657 0.
413.394 -561.772 0.
484.967 -325.337 0.
661.093 84.0047 0.
-524.186 -88.9891 0.
615.077 241.291 0.
531.875 46.1117 0.
300.594 -167.06 0.
320.621 -119.993 0.
340.649 -72.9266 0.
307.488 -24.5583 0.
356.699 96.794 0.
405.909 218.145 0.
424.43 159.717 0.
341.856 -27.6237 0.
259.284 -214.963 0.
441.6 -105.065 0.
468.886 -38.8456 0.
262.991 -81.9485 0.
269.285 -68.9343 0.
275.578 -55.9208 0.
755.701 191.798 0.
814.413 329.675 0.
873.127 467.552 0.
458.623 248.604 0.
374.267 52.8527 0.
289.913 -142.898 0.
394.989 -168.027 0.
369.359 -223.129 0.
-222.245 -512.941 0.
464.532 -160.407 0.
495.879 -88.0295 0.
16.2118 -214.509 0.
98.194 -21.3294 0.
180.176 171.852 0.
159.078 165.816 0.
66.4983 -42.8496 0.
-26.0812 -251.514 0.
189.658 -137.161 0.
248.438 1.7719 0.
307.218 140.704 0.
541.975 107.616 0.
459.08 -84.7413 0.
257.521 -302.374 0.
301.567 -195.82 0.
345.613 -89.2656 0.
375.135 -2.24542 0.
398.589 47.5033 0.
422.043 97.2521 0.
186.608 100.143 0.
268.096 291.93 0.
349.584 483.717 0.
72.0162 300.062 0.
4.85949 145.272 0.
-361.093 -40.5545 0.
34.4651 61.8293 0.
-46.7026 -128.637 0.
146.558 -157.927 0.
145.879 -160.409 0.
145.201 -162.891 0.
-498.173 -363.375 0.
-406.299 -155.744 0.
-314.427 51.8889 0.
-198.937 78.771 0.
-266.909 -78.2852 0.
-334.881 -235.342 0.
559.705 95.6746 0.
528.374 35.5263 0.
195.323 -142.001 0.
246.151 -23.8559 0.
296.98 94.289 0.
-231.428 -69.9204 0.
-227.562 -54.9674 0.
-223.695 -40.015 0.
1121.37 478.806 0.
1053.93 312.629 0.
986.476 146.451 0.
-394.433 -392.966 0.
-332.259 -250.579 0.
853.646 374.241 0.
116.63 -47.7831 0.
58.0031 -179.723 0.
500.532 -53.0473 0.
551.158 70.7658 0.
601.784 194.579 0.
687.918 220.499 0.
607.872 44.6883 0.
527.827 -131.121 0.
-96.5112 -330.215 0.
-8.32552 -122.3 0.
79.8598 85.6129 0.
774.789 351.309 0.
739.575 265.55 0.
568.418 132.672 0.
597.193 196.388 0.
625.968 260.103 0.
533.814 236.788 0.
516.01 188.558 0.
498.207 140.328 0.
780.94 112.821 0.
655.273 -183.913 0.
529.607 -480.648 0.
178.338 -420.751 0.
356.225 -12.7234 0.
-460.18 -28.4846 0.
542.966 242.383 0.
460.159 47.1711 0.
281.298 -144.072 0.
301.965 -96.9753 0.
322.632 -49.8789 0.
430.029 61.4823 0.
480.271 182.457 0.
530.514 303.43 0.
57.7183 34.3233 0.
-25.9292 -151.627 0.
-109.575 -337.575 0.
635.577 7.16155 0.
662.943 73.9052 0.
109.764 -116.187 0.
116.426 -103.264 0.
123.087 -90.3414 0.
692.655 199.515 0.
752.568 336.688 0.
812.482 473.859 0.
364.829 242.245 0.
280.138 46.8759 0.
195.448 -148.492 0.
793.819 32.4119 0.
766.861 -21.5353 0.
329.578 -245.208 0.
405.844 -154.901 0.
436.286 -81.8302 0.
-264.581 -305.06 0.
-182.657 -111.517 0.
-100.733 82.0266 0.
556.688 366.869 0.
464.276 158.616 0.
371.863 -49.6343 0.
165.154 -116.356 0.
224.08 22.8603 0.
283.006 162.076 0.
354.811 58.7349 0.
271.979 -133.938 0.
344.982 -233.764 0.
389.07 -126.99 0.
433.157 -20.215 0.
440.029 57.0757 0.
463.808 106.354 0.
487.586 155.632 0.
96.477 93.7359 0.
178.119 285.938 0.
259.762 478.141 0.
-252.288 189.834 0.
-319.678 36.3632 0.
